     Program PWSCF v.6.5 starts on  9Jul2021 at 18:56:26

     R & G space division:  proc/nbgrp/npool/nimage =      20
     Reading input from CBCO_Y_cleave_0.75_sep.pwi
Warning: card &CELL ignored
Warning: card     CELL_DYNAMICS = 'BFGS' ignored
Warning: card     PRESS_CONV_THR = 0.5 ignored
Warning: card / ignored

     Current dimensions of program PWSCF are:
     Max number of different atomic species (ntypx) = 10
     Max number of k-points (npk) =  40000
     Max angular momentum in pseudopotentials (lmaxx) =  3

     Message from routine setup:
     using ibrav=0 with symmetry is DISCOURAGED, use correct ibrav instead

     bravais-lattice index     =            0
     lattice parameter (alat)  =       7.4270  a.u.
     unit-cell volume          =    4376.3515 (a.u.)^3
     number of atoms/cell      =           28
     number of atomic types    =            4
     number of electrons       =       227.00
     number of Kohn-Sham states=          137
     kinetic-energy cutoff     =      60.0000  Ry
     charge density cutoff     =     720.0000  Ry
     convergence threshold     =      1.0E-10
     mixing beta               =       0.7000
     number of iterations used =           10  local-TF  mixing
     Exchange-correlation= SLA PW PBE PBE
                           (   1   4   3   4   0   0   0)
     nstep                     =          300

     celldm(1)=   7.427040  celldm(2)=   0.000000  celldm(3)=   0.000000
     celldm(4)=   0.000000  celldm(5)=   0.000000  celldm(6)=   0.000000

     crystal axes: (cart. coord. in units of alat)
               a(1) = (   1.000000   0.000000   0.000000 )
               a(2) = (   0.000000   0.947081   0.000000 )
               a(3) = (   0.000000   0.000000  11.279186 )

     reciprocal axes: (cart. coord. in units 2 pi/alat)
               b(1) = (  1.000000  0.000000  0.000000 )
               b(2) = (  0.000000  1.055876  0.000000 )
               b(3) = (  0.000000  0.000000  0.088659 )

     PseudoPot. # 1 for Ba read from file:
     ./pseudo/Ba.pbe-nsp-van.UPF
     MD5 check sum: 2b9c31dd849566dd297d80989662b7a0
     Pseudo is Ultrasoft + core correction, Zval = 10.0
     Generated by new atomic code, or converted to UPF format
     Using radial grid of  907 points,  6 beta functions with:
                l(1) =   0
                l(2) =   0
                l(3) =   1
                l(4) =   1
                l(5) =   2
                l(6) =   2
     Q(r) pseudized with  6 coefficients,  rinner =    1.200   1.200   1.200
                                                       1.200   1.200

     PseudoPot. # 2 for Ca read from file:
     ./pseudo/Ca.pbe-nsp-van.UPF
     MD5 check sum: 6471098428ff4fa451746d08035ff179
     Pseudo is Ultrasoft + core correction, Zval = 10.0
     Generated by new atomic code, or converted to UPF format
     Using radial grid of  845 points,  6 beta functions with:
                l(1) =   0
                l(2) =   0
                l(3) =   1
                l(4) =   1
                l(5) =   2
                l(6) =   2
     Q(r) pseudized with  6 coefficients,  rinner =    1.200   1.200   1.200
                                                       1.200   1.200

     PseudoPot. # 3 for Cu read from file:
     ./pseudo/Cu.pbe-n-van_ak.UPF
     MD5 check sum: 34e3282627ffb533726feb647e090d62
     Pseudo is Ultrasoft + core correction, Zval = 11.0
     Generated by new atomic code, or converted to UPF format
     Using radial grid of  867 points,  6 beta functions with:
                l(1) =   0
                l(2) =   0
                l(3) =   1
                l(4) =   1
                l(5) =   2
                l(6) =   2
     Q(r) pseudized with  8 coefficients,  rinner =    1.400   1.400   1.400
                                                       1.400   1.400

     PseudoPot. # 4 for O  read from file:
     ./pseudo/O.pbe-van_ak.UPF
     MD5 check sum: 783ce7fe4c79b6a4916957118fed0856
     Pseudo is Ultrasoft, Zval =  6.0
     Generated by new atomic code, or converted to UPF format
     Using radial grid of  737 points,  4 beta functions with:
                l(1) =   0
                l(2) =   0
                l(3) =   1
                l(4) =   1
     Q(r) pseudized with  8 coefficients,  rinner =    0.800   0.800   0.800

     atomic species   valence    mass     pseudopotential
        Ba            10.00   137.32700     Ba( 1.00)
        Ca            10.00    40.07800     Ca( 1.00)
        Cu            11.00    63.54600     Cu( 1.00)
        O              6.00    15.99900     O ( 1.00)

      4 Sym. Ops. (no inversion) found

   Cartesian axes

     site n.     atom                  positions (alat units)
         1           O   tau(   1) = (   0.0000000   0.4735409  -0.0469745  )
         2           Cu  tau(   2) = (   0.0000000   0.0000000   0.0264565  )
         3           O   tau(   3) = (   0.0000000   0.0000000   0.5030914  )
         4           Ba  tau(   4) = (   0.5000000   0.4735409   0.5690292  )
         5           Cu  tau(   5) = (   0.0000000   0.0000000   1.0374254  )
         6           O   tau(   6) = (   0.5000000   0.0000000   1.0768099  )
         7           O   tau(   7) = (   0.0000000   0.4735409   1.1116985  )
         8           Ca  tau(   8) = (   0.5000000   0.4735409   1.4976260  )
         9           O   tau(   9) = (   0.0000000   0.4735409   1.8667529  )
        10           O   tau(  10) = (   0.5000000   0.0000000   1.9044124  )
        11           Cu  tau(  11) = (   0.0000000   0.0000000   1.9512546  )
        12           Ba  tau(  12) = (   0.5000000   0.4735409   2.4295764  )
        13           O   tau(  13) = (   0.0000000   0.0000000   2.5115362  )
        14           O   tau(  14) = (   0.0000000   0.4735409   2.9918528  )
        15           Cu  tau(  15) = (   0.0000000   0.0000000   2.9919088  )
        16           O   tau(  16) = (   0.0000000   0.0000000   3.4722686  )
        17           Ba  tau(  17) = (   0.5000000   0.4735409   3.5542208  )
        18           Cu  tau(  18) = (   0.0000000   0.0000000   4.1239934  )
        19           O   tau(  19) = (   0.5000000   0.0000000   4.1756535  )
        20           O   tau(  20) = (   0.0000000   0.4735409   4.2130956  )
        21           Ca  tau(  21) = (   0.5000000   0.4735409   4.5876750  )
        22           O   tau(  22) = (   0.0000000   0.4735409   4.9909677  )
        23           O   tau(  23) = (   0.5000000   0.0000000   5.0263616  )
        24           Cu  tau(  24) = (   0.0000000   0.0000000   5.0668083  )
        25           Ba  tau(  25) = (   0.5000000   0.4735409   5.5409211  )
        26           O   tau(  26) = (   0.0000000   0.0000000   5.6076001  )
        27           Cu  tau(  27) = (   0.0000000   0.0000000   6.1481493  )
        28           O   tau(  28) = (   0.0000000   0.4735409   6.2215676  )

     number of k points=    25  Gaussian smearing, width (Ry)=  0.0100
                       cart. coord. in units 2pi/alat
        k(    1) = (   0.0000000   0.0000000   0.0000000), wk =   0.0312500
        k(    2) = (   0.0000000   0.1319845   0.0000000), wk =   0.0625000
        k(    3) = (   0.0000000   0.2639689   0.0000000), wk =   0.0625000
        k(    4) = (   0.0000000   0.3959534   0.0000000), wk =   0.0625000
        k(    5) = (   0.0000000  -0.5279378   0.0000000), wk =   0.0312500
        k(    6) = (   0.1250000   0.0000000   0.0000000), wk =   0.0625000
        k(    7) = (   0.1250000   0.1319845   0.0000000), wk =   0.1250000
        k(    8) = (   0.1250000   0.2639689   0.0000000), wk =   0.1250000
        k(    9) = (   0.1250000   0.3959534   0.0000000), wk =   0.1250000
        k(   10) = (   0.1250000  -0.5279378   0.0000000), wk =   0.0625000
        k(   11) = (   0.2500000   0.0000000   0.0000000), wk =   0.0625000
        k(   12) = (   0.2500000   0.1319845   0.0000000), wk =   0.1250000
        k(   13) = (   0.2500000   0.2639689   0.0000000), wk =   0.1250000
        k(   14) = (   0.2500000   0.3959534   0.0000000), wk =   0.1250000
        k(   15) = (   0.2500000  -0.5279378   0.0000000), wk =   0.0625000
        k(   16) = (   0.3750000   0.0000000   0.0000000), wk =   0.0625000
        k(   17) = (   0.3750000   0.1319845   0.0000000), wk =   0.1250000
        k(   18) = (   0.3750000   0.2639689   0.0000000), wk =   0.1250000
        k(   19) = (   0.3750000   0.3959534   0.0000000), wk =   0.1250000
        k(   20) = (   0.3750000  -0.5279378   0.0000000), wk =   0.0625000
        k(   21) = (  -0.5000000   0.0000000   0.0000000), wk =   0.0312500
        k(   22) = (  -0.5000000   0.1319845   0.0000000), wk =   0.0625000
        k(   23) = (  -0.5000000   0.2639689   0.0000000), wk =   0.0625000
        k(   24) = (  -0.5000000   0.3959534   0.0000000), wk =   0.0625000
        k(   25) = (  -0.5000000  -0.5279378   0.0000000), wk =   0.0312500

     Initial potential from superposition of free atoms

     starting charge  226.84630, renormalised to  227.00000

     negative rho (up, down):  3.397E-03 0.000E+00
     Starting wfcs are  195 randomized atomic wfcs

     Self-consistent Calculation

     iteration #  1     ecut=    60.00 Ry     beta= 0.70
     Davidson diagonalization with overlap
     ethr =  1.00E-02,  avg # of iterations =  2.0

     negative rho (up, down):  2.831E-04 0.000E+00

     total energy              =   -1839.20883699 Ry
     Harris-Foulkes estimate   =   -1845.32934975 Ry
     estimated scf accuracy    <      22.08437878 Ry

[...]

     iteration # 18     ecut=    60.00 Ry     beta= 0.70
     Davidson diagonalization with overlap
     c_bands:  1 eigenvalues not converged
     c_bands:  1 eigenvalues not converged
     ethr =  5.39E-06,  avg # of iterations =  7.0

[...]

     End of self-consistent calculation

          k = 0.0000 0.0000 0.0000 ( 34429 PWs)   bands (ev):

   -35.7666 -35.6481 -22.9915 -22.8528 -22.7507 -22.5981 -17.1526 -17.1471
   -16.8126 -16.8042 -16.6992 -16.6880 -15.3632 -15.2595 -14.9184 -14.7332
   -14.6336 -14.6014 -14.4045 -14.2430 -14.0436 -13.9639 -13.8858 -13.8332
   -13.7642 -13.7338 -13.5729  -8.2141  -7.9841  -7.9472  -7.9466  -7.9227
    -7.8061  -7.8015  -7.7797  -7.7537  -7.6429  -7.6082  -7.4762  -2.3918
    -2.1709  -1.8913  -1.8631  -1.8271  -1.7300  -1.7246  -1.6520  -1.6028
    -1.6013  -1.5431  -1.4823  -1.4570  -1.2818  -1.1221  -1.0563  -0.9071
    -0.8473  -0.6612  -0.5205  -0.4380  -0.4378  -0.3852  -0.3609  -0.3264
    -0.3113  -0.3068  -0.2444  -0.2292  -0.2065  -0.2052  -0.1915  -0.1672
    -0.0988  -0.0970  -0.0260   0.0369   0.0372   0.0980   0.1116   0.2276
     0.2392   0.2481   0.2533   0.2631   0.3133   0.3421   0.3790   0.4301
     0.4667   0.6722   0.7375   0.8207   0.8923   0.9279   0.9866   1.1215
     1.1834   1.2870   1.3003   1.3621   1.3819   1.3997   1.4569   1.4620
     1.6167   1.6678   1.7410   1.7757   1.7777   1.8722   1.9744   2.0146
     2.0181   2.0718   2.1031   2.2006   2.2091   2.4489   2.4742   5.0882
     5.1571   5.5929   6.0925   6.2657   6.6944   6.7136   6.8110   7.1794
     7.9754   8.0909   8.1486   8.3354   8.3395   8.5639   8.6128   9.0041
     9.0517

[...]

[...]
     atom    8 type  2   force =     0.00000000    0.00000000   -0.00060329
     atom    9 type  4   force =     0.00000000    0.00000000    0.00026635
     atom   10 type  4   force =     0.00000000    0.00000000    0.00020940
     atom   11 type  3   force =     0.00000000    0.00000000    0.00006125
     atom   12 type  1   force =     0.00000000    0.00000000   -0.00028919
     atom   13 type  4   force =     0.00000000    0.00000000    0.00327086
     atom   14 type  4   force =     0.00000000    0.00000000    0.00498666
     atom   15 type  3   force =     0.00000000    0.00000000   -0.00278505
     atom   16 type  4   force =     0.00000000    0.00000000    0.00527075
     atom   17 type  1   force =     0.00000000    0.00000000    0.01770549
     atom   18 type  3   force =     0.00000000    0.00000000    0.00122589
     atom   19 type  4   force =     0.00000000    0.00000000   -0.00516531
     atom   20 type  4   force =     0.00000000    0.00000000   -0.00288111
     atom   21 type  2   force =     0.00000000    0.00000000   -0.00445872
     atom   22 type  4   force =     0.00000000    0.00000000   -0.00684226
     atom   23 type  4   force =     0.00000000    0.00000000   -0.00557891
     atom   24 type  3   force =     0.00000000    0.00000000    0.00735760
     atom   25 type  1   force =     0.00000000    0.00000000    0.00220726
     atom   26 type  4   force =     0.00000000    0.00000000    0.03532902
     atom   27 type  3   force =     0.00000000    0.00000000   -0.04144250
     atom   28 type  4   force =     0.00000000    0.00000000   -0.00787768

     Total force =     0.037966     Total SCF correction =     0.000025

     Computing stress (Cartesian axis) and pressure

     negative rho (up, down):  1.480E-03 0.000E+00
          total   stress  (Ry/bohr**3)                   (kbar)     P=      -11.52
  -0.00005470   0.00000000   0.00000000           -8.05        0.00        0.00
   0.00000000  -0.00005775   0.00000000            0.00       -8.50        0.00
   0.00000000   0.00000000  -0.00012243            0.00        0.00      -18.01

     number of scf cycles    =   2
     number of bfgs steps    =   1

     energy   old            =   -1842.8992065785 Ry
     energy   new            =   -1842.8734531911 Ry

     CASE: energy  _new > energy  _old

     new trust radius        =       0.0207489411 bohr
     new conv_thr            =            1.0E-10 Ry

ATOMIC_POSITIONS (angstrom)
O             0.0000000000        1.8611200000       -0.1866255867    0   0   0
Cu            0.0000000000        0.0000000000        0.1051095683    0   0   0
O             0.0000000000        0.0000000000        1.9987396139    0   0   0
Ba            1.9651100000        1.8611200000        2.2607048441    0   0   0
Cu            0.0000000000        0.0000000000        4.1216031353    0   0   0
O             1.9651100000        0.0000000000        4.2780746690    0   0   0
O             0.0000000000        1.8611200000        4.4166842479    0   0   0
Ca            1.9651100000        1.8611200000        5.9499415188    0   0   0
O             0.0000000000        1.8611200000        7.4164514846    0   0   0
O             1.9651100000        0.0000000000        7.5660693650    0   0   0
Cu            0.0000000000        0.0000000000        7.7521693028    0   0   0
Ba            1.9651100000        1.8611200000        9.6525013722    0   0   0
O             0.0000000000        0.0000000000        9.9781206658    0   0   0
O             0.0000000000        1.8611200000       11.8863779037    0   0   0
Cu            0.0000000000        0.0000000000       11.8866002936    0   0   0
O             0.0000000000        0.0000000000       13.7950293782    0   0   0
Ba            1.9651100000        1.8611200000       14.1206183459    0   0   0
Cu            0.0000000000        0.0000000000       16.0624374313
O             1.9651100000        0.0000000000       16.3036767565
O             0.0000000000        1.8611200000       16.4211195961
Ca            1.9651100000        1.8611200000       17.9547277351
O             0.0000000000        1.8611200000       19.4903211146
O             1.9651100000        0.0000000000       19.7419636708
Cu            0.0000000000        0.0000000000       19.8089737017
Ba            1.9651100000        1.8611200000       21.7543834057
O             0.0000000000        0.0000000000       22.0314860666
Cu            0.0000000000        0.0000000000       23.9445091219    0   0   0
O             0.0000000000        1.8611200000       24.2361937337    0   0   0

     NEW-OLD atomic charge density approx. for the potential

[...]

     iteration #  1     ecut=    60.00 Ry     beta= 0.70
     Davidson diagonalization with overlap
     c_bands:  1 eigenvalues not converged
     c_bands:  2 eigenvalues not converged
     c_bands:  2 eigenvalues not converged
     c_bands:  1 eigenvalues not converged
     c_bands:  1 eigenvalues not converged
     c_bands:  1 eigenvalues not converged
     c_bands:  1 eigenvalues not converged
     c_bands:  2 eigenvalues not converged
     c_bands:  2 eigenvalues not converged
     c_bands:  2 eigenvalues not converged
     c_bands:  2 eigenvalues not converged
     c_bands:  2 eigenvalues not converged
     c_bands:  1 eigenvalues not converged
     ethr =  1.00E-06,  avg # of iterations = 17.3

[...]

     BFGS Geometry Optimization

     number of scf cycles    =   1
     number of bfgs steps    =   0

     energy   new            =   -1842.8944755930 Ry

     new trust radius        =       0.0105101064 bohr
     new conv_thr            =            1.0E-10 Ry

ATOMIC_POSITIONS (angstrom)
O             0.0000000000        1.8611200000       -0.1866255867    0   0   0
Cu            0.0000000000        0.0000000000        0.1051095683    0   0   0
O             0.0000000000        0.0000000000        1.9987396139    0   0   0
Ba            1.9651100000        1.8611200000        2.2607048441    0   0   0
Cu            0.0000000000        0.0000000000        4.1216031353    0   0   0
O             1.9651100000        0.0000000000        4.2780746690    0   0   0
O             0.0000000000        1.8611200000        4.4166842479    0   0   0
Ca            1.9651100000        1.8611200000        5.9499415188    0   0   0
O             0.0000000000        1.8611200000        7.4164514846    0   0   0
O             1.9651100000        0.0000000000        7.5660693650    0   0   0
Cu            0.0000000000        0.0000000000        7.7521693028    0   0   0
Ba            1.9651100000        1.8611200000        9.6525013722    0   0   0
O             0.0000000000        0.0000000000        9.9781206658    0   0   0
O             0.0000000000        1.8611200000       11.8863779037    0   0   0
Cu            0.0000000000        0.0000000000       11.8866002936    0   0   0
O             0.0000000000        0.0000000000       13.7950293782    0   0   0
Ba            1.9651100000        1.8611200000       14.1206183459    0   0   0
Cu            0.0000000000        0.0000000000       16.0657783680
O             1.9651100000        0.0000000000       16.3050379035
O             0.0000000000        1.8611200000       16.4223384298
Ca            1.9651100000        1.8611200000       17.9536824985
O             0.0000000000        1.8611200000       19.4876110866
O             1.9651100000        0.0000000000       19.7364019620
Cu            0.0000000000        0.0000000000       19.8130748866
Ba            1.9651100000        1.8611200000       21.7508960059
O             0.0000000000        0.0000000000       22.0360229330
Cu            0.0000000000        0.0000000000       23.9445091219    0   0   0
O             0.0000000000        1.8611200000       24.2361937337    0   0   0

     NEW-OLD atomic charge density approx. for the potential

[...]

     Self-consistent Calculation

[...]

     total energy              =   -1842.89481610 Ry
     Harris-Foulkes estimate   =   -1842.89481610 Ry
     estimated scf accuracy    <          2.1E-10 Ry

     iteration # 23     ecut=    60.00 Ry     beta= 0.70
     Davidson diagonalization with overlap
     ethr =  1.00E-13,  avg # of iterations =  1.1

[...]

     End of self-consistent calculation

[...]

          k = 0.3750-0.5279 0.0000 ( 34392 PWs)   bands (ev):

[...]

          k =-0.5000-0.5279 0.0000 ( 34420 PWs)   bands (ev):

   -35.8830 -35.6615 -22.5680 -22.5572 -22.4507 -22.3192 -17.2237 -17.2220
   -17.0772 -17.0719 -16.8796 -16.7049 -14.5532 -14.4515 -14.3917 -14.3549
   -14.2728 -14.2664 -14.2071 -14.1365 -14.1297 -14.0761 -14.0713 -13.9764
   -13.9594 -13.9593 -13.8061  -8.7923  -8.7372  -8.6690  -8.5322  -8.5232
    -8.5045  -8.3573  -8.1433  -8.0469  -8.0057  -7.9642  -7.7638  -4.0780
    -3.9530  -3.7761  -3.6825  -3.5854  -3.1654  -3.1485  -2.7409  -2.7015
    -2.5814  -2.4923  -2.3128  -2.2682  -2.2058  -2.1123  -2.0117  -1.9540
    -1.9499  -1.6887  -1.3471  -1.2921  -1.2604  -1.1677  -1.1009  -1.0386
    -1.0153  -0.9962  -0.9892  -0.9097  -0.8707  -0.8698  -0.8283  -0.7958
    -0.5092  -0.2933  -0.2302   0.2191   0.3139   0.3954   0.7404   0.8474
     1.0501   1.2616   1.3419   1.3430   1.3484   1.3820   1.3953   1.4300
     1.4567   1.5992   1.6168   1.6271   1.6327   1.6773   1.8200   1.8458
     1.8673   1.9244   1.9497   1.9793   2.0260   2.0370   2.0985   2.1415
     2.2141   2.2864   2.3222   2.3447   2.3478   2.4306   2.4733   2.4938
     2.5093   2.5303   4.1398   4.6553   4.6892   4.7152   4.7519   5.4249
     5.9518   6.0303   6.8654   7.0330   8.6565   8.7757   8.9272   8.9378
     8.9739   9.0271   9.3328   9.4943   9.5953   9.6978   9.7494   9.8641
     9.9203

     the Fermi energy is     2.5377 ev

!    total energy              =   -1842.89481610 Ry
     Harris-Foulkes estimate   =   -1842.89481610 Ry
     estimated scf accuracy    <          6.7E-11 Ry

     The total energy is the sum of the following terms:

     one-electron contribution =  -31086.05613382 Ry
     hartree contribution      =   15695.99728134 Ry
     xc contribution           =    -621.58813420 Ry
     ewald contribution        =   14168.76054566 Ry
     smearing contrib. (-TS)   =      -0.00837508 Ry

     convergence has been achieved in  23 iterations

     negative rho (up, down):  1.519E-03 0.000E+00

     Forces acting on atoms (cartesian axes, Ry/au):

     atom    1 type  4   force =     0.00000000    0.00000000    0.00081036
     atom    2 type  3   force =     0.00000000    0.00000000    0.00780459
     atom    3 type  4   force =     0.00000000    0.00000000   -0.00558495
     atom    4 type  1   force =     0.00000000    0.00000000    0.00195330
     atom    5 type  3   force =     0.00000000    0.00000000   -0.00088094
     atom    6 type  4   force =     0.00000000    0.00000000    0.00083387
     atom    7 type  4   force =     0.00000000    0.00000000    0.00166556
     atom    8 type  2   force =     0.00000000    0.00000000   -0.00049564
     atom    9 type  4   force =     0.00000000    0.00000000   -0.00094494
     atom   10 type  4   force =     0.00000000    0.00000000   -0.00091159
     atom   11 type  3   force =     0.00000000    0.00000000    0.00033100
     atom   12 type  1   force =     0.00000000    0.00000000   -0.00063242
     atom   13 type  4   force =     0.00000000    0.00000000    0.00718704
     atom   14 type  4   force =     0.00000000    0.00000000    0.00137782
     atom   15 type  3   force =     0.00000000    0.00000000   -0.00158054
     atom   16 type  4   force =     0.00000000    0.00000000   -0.00282729
     atom   17 type  1   force =     0.00000000    0.00000000    0.00666723
     atom   18 type  3   force =     0.00000000    0.00000000    0.00578695
     atom   19 type  4   force =     0.00000000    0.00000000    0.00229316
     atom   20 type  4   force =     0.00000000    0.00000000    0.00223451
     atom   21 type  2   force =     0.00000000    0.00000000   -0.00178442
     atom   22 type  4   force =     0.00000000    0.00000000   -0.00379065
     atom   23 type  4   force =     0.00000000    0.00000000   -0.00935323
     atom   24 type  3   force =     0.00000000    0.00000000    0.00604418
     atom   25 type  1   force =     0.00000000    0.00000000   -0.00606142
     atom   26 type  4   force =     0.00000000    0.00000000    0.00652359
     atom   27 type  3   force =     0.00000000    0.00000000   -0.01624759
     atom   28 type  4   force =     0.00000000    0.00000000   -0.00041755

     Total force =     0.016267     Total SCF correction =     0.000022

     Computing stress (Cartesian axis) and pressure

     negative rho (up, down):  1.519E-03 0.000E+00
          total   stress  (Ry/bohr**3)                   (kbar)     P=      -10.58
  -0.00004062   0.00000000   0.00000000           -5.98        0.00        0.00
   0.00000000  -0.00005077   0.00000000            0.00       -7.47        0.00
   0.00000000   0.00000000  -0.00012435            0.00        0.00      -18.29

     BFGS Geometry Optimization

     bfgs converged in   1 scf cycles and   0 bfgs steps
     (criteria: energy <  1.0E-03 Ry, force <  1.0E-02 Ry/Bohr)

     End of BFGS Geometry Optimization

     Final energy   =   -1842.8948161009 Ry
Begin final coordinates

ATOMIC_POSITIONS (angstrom)
O             0.0000000000        1.8611200000       -0.1866255867    0   0   0
Cu            0.0000000000        0.0000000000        0.1051095683    0   0   0
O             0.0000000000        0.0000000000        1.9987396139    0   0   0
Ba            1.9651100000        1.8611200000        2.2607048441    0   0   0
Cu            0.0000000000        0.0000000000        4.1216031353    0   0   0
O             1.9651100000        0.0000000000        4.2780746690    0   0   0
O             0.0000000000        1.8611200000        4.4166842479    0   0   0
Ca            1.9651100000        1.8611200000        5.9499415188    0   0   0
O             0.0000000000        1.8611200000        7.4164514846    0   0   0
O             1.9651100000        0.0000000000        7.5660693650    0   0   0
Cu            0.0000000000        0.0000000000        7.7521693028    0   0   0
Ba            1.9651100000        1.8611200000        9.6525013722    0   0   0
O             0.0000000000        0.0000000000        9.9781206658    0   0   0
O             0.0000000000        1.8611200000       11.8863779037    0   0   0
Cu            0.0000000000        0.0000000000       11.8866002936    0   0   0
O             0.0000000000        0.0000000000       13.7950293782    0   0   0
Ba            1.9651100000        1.8611200000       14.1206183459    0   0   0
Cu            0.0000000000        0.0000000000       16.0657783680
O             1.9651100000        0.0000000000       16.3050379035
O             0.0000000000        1.8611200000       16.4223384298
Ca            1.9651100000        1.8611200000       17.9536824985
O             0.0000000000        1.8611200000       19.4876110866
O             1.9651100000        0.0000000000       19.7364019620
Cu            0.0000000000        0.0000000000       19.8130748866
Ba            1.9651100000        1.8611200000       21.7508960059
O             0.0000000000        0.0000000000       22.0360229330
Cu            0.0000000000        0.0000000000       23.9445091219    0   0   0
O             0.0000000000        1.8611200000       24.2361937337    0   0   0
End final coordinates

     General routines

     Parallel routines

   This run was terminated on:  19:23: 8   9Jul2021

   JOB DONE.
[1625872988.506148] [holy7c04207:152189:0]          mpool.c:43   UCX  WARN  object 0x371d1c0 was not returned to mpool ucp_requests
[1625872988.506166] [holy7c04207:152189:0]          mpool.c:43   UCX  WARN  object 0x371d380 was not returned to mpool ucp_requests
[1625872988.513654] [holy7c04207:152190:0]          mpool.c:43   UCX  WARN  object 0x30dc340 was not returned to mpool ucp_requests
[1625872988.514395] [holy7c04207:152194:0]          mpool.c:43   UCX  WARN  object 0x4648f00 was not returned to mpool ucp_requests
[1625872988.514413] [holy7c04207:152194:0]          mpool.c:43   UCX  WARN  object 0x4649280 was not returned to mpool ucp_requests
[1625872988.515901] [holy7c06605:239226:0]          mpool.c:43   UCX  WARN  object 0x3421880 was not returned to mpool ucp_requests
[1625872988.516914] [holy7c06605:239225:0]          mpool.c:43   UCX  WARN  object 0x3d9f740 was not returned to mpool ucp_requests
[1625872988.516933] [holy7c06605:239225:0]          mpool.c:43   UCX  WARN  object 0x3d9f900 was not returned to mpool ucp_requests
[1625872988.519185] [holy7c06605:239227:0]          mpool.c:43   UCX  WARN  object 0x3985740 was not returned to mpool ucp_requests