     Program PWSCF v.6.5 starts on  9Jul2021 at 12:13:59

     R & G space division:  proc/nbgrp/npool/nimage =      20
     Reading input from CBCO_Y_cleave_0.25_sep.pwi
Warning: card &CELL ignored
Warning: card     CELL_DYNAMICS = 'BFGS' ignored
Warning: card     PRESS_CONV_THR = 0.5 ignored
Warning: card / ignored

     Current dimensions of program PWSCF are:
     Max number of different atomic species (ntypx) = 10
     Max number of k-points (npk) =  40000
     Max angular momentum in pseudopotentials (lmaxx) =  3

     Message from routine setup:
     using ibrav=0 with symmetry is DISCOURAGED, use correct ibrav instead

     bravais-lattice index     =            0
     lattice parameter (alat)  =       7.4270  a.u.
     unit-cell volume          =    4326.9901 (a.u.)^3
     number of atoms/cell      =           28
     number of atomic types    =            4
     number of electrons       =       227.00
     number of Kohn-Sham states=          137
     kinetic-energy cutoff     =      60.0000  Ry
     charge density cutoff     =     720.0000  Ry
     convergence threshold     =      1.0E-10
     mixing beta               =       0.7000
     number of iterations used =           10  local-TF  mixing
     Exchange-correlation= SLA PW PBE PBE
                           (   1   4   3   4   0   0   0)
     nstep                     =          300

     celldm(1)=   7.427040  celldm(2)=   0.000000  celldm(3)=   0.000000
     celldm(4)=   0.000000  celldm(5)=   0.000000  celldm(6)=   0.000000

     crystal axes: (cart. coord. in units of alat)
               a(1) = (   1.000000   0.000000   0.000000 )
               a(2) = (   0.000000   0.947081   0.000000 )
               a(3) = (   0.000000   0.000000  11.151966 )

     reciprocal axes: (cart. coord. in units 2 pi/alat)
               b(1) = (  1.000000  0.000000  0.000000 )
               b(2) = (  0.000000  1.055876  0.000000 )
               b(3) = (  0.000000  0.000000  0.089670 )

     PseudoPot. # 1 for Ba read from file:
     ./pseudo/Ba.pbe-nsp-van.UPF
     MD5 check sum: 2b9c31dd849566dd297d80989662b7a0
     Pseudo is Ultrasoft + core correction, Zval = 10.0
     Generated by new atomic code, or converted to UPF format
     Using radial grid of  907 points,  6 beta functions with:
                l(1) =   0
                l(2) =   0
                l(3) =   1
                l(4) =   1
                l(5) =   2
                l(6) =   2
     Q(r) pseudized with  6 coefficients,  rinner =    1.200   1.200   1.200
                                                       1.200   1.200

     PseudoPot. # 2 for Ca read from file:
     ./pseudo/Ca.pbe-nsp-van.UPF
     MD5 check sum: 6471098428ff4fa451746d08035ff179
     Pseudo is Ultrasoft + core correction, Zval = 10.0
     Generated by new atomic code, or converted to UPF format
     Using radial grid of  845 points,  6 beta functions with:
                l(1) =   0
                l(2) =   0
                l(3) =   1
                l(4) =   1
                l(5) =   2
                l(6) =   2
     Q(r) pseudized with  6 coefficients,  rinner =    1.200   1.200   1.200
                                                       1.200   1.200

     PseudoPot. # 3 for Cu read from file:
     ./pseudo/Cu.pbe-n-van_ak.UPF
     MD5 check sum: 34e3282627ffb533726feb647e090d62
     Pseudo is Ultrasoft + core correction, Zval = 11.0
     Generated by new atomic code, or converted to UPF format
     Using radial grid of  867 points,  6 beta functions with:
                l(1) =   0
                l(2) =   0
                l(3) =   1
                l(4) =   1
                l(5) =   2
                l(6) =   2
     Q(r) pseudized with  8 coefficients,  rinner =    1.400   1.400   1.400
                                                       1.400   1.400

     PseudoPot. # 4 for O  read from file:
     ./pseudo/O.pbe-van_ak.UPF
     MD5 check sum: 783ce7fe4c79b6a4916957118fed0856
     Pseudo is Ultrasoft, Zval =  6.0
     Generated by new atomic code, or converted to UPF format
     Using radial grid of  737 points,  4 beta functions with:
                l(1) =   0
                l(2) =   0
                l(3) =   1
                l(4) =   1
     Q(r) pseudized with  8 coefficients,  rinner =    0.800   0.800   0.800

     atomic species   valence    mass     pseudopotential
        Ba            10.00   137.32700     Ba( 1.00)
        Ca            10.00    40.07800     Ca( 1.00)
        Cu            11.00    63.54600     Cu( 1.00)
        O              6.00    15.99900     O ( 1.00)

      4 Sym. Ops. (no inversion) found

   Cartesian axes

     site n.     atom                  positions (alat units)
         1           O   tau(   1) = (   0.0000000   0.4735409  -0.0469745  )
         2           Cu  tau(   2) = (   0.0000000   0.0000000   0.0264565  )
         3           O   tau(   3) = (   0.0000000   0.0000000   0.5030914  )
         4           Ba  tau(   4) = (   0.5000000   0.4735409   0.5690292  )
         5           Cu  tau(   5) = (   0.0000000   0.0000000   1.0374254  )
         6           O   tau(   6) = (   0.5000000   0.0000000   1.0768099  )
         7           O   tau(   7) = (   0.0000000   0.4735409   1.1116985  )
         8           Ca  tau(   8) = (   0.5000000   0.4735409   1.4976260  )
         9           O   tau(   9) = (   0.0000000   0.4735409   1.8667529  )
        10           O   tau(  10) = (   0.5000000   0.0000000   1.9044124  )
        11           Cu  tau(  11) = (   0.0000000   0.0000000   1.9512546  )
        12           Ba  tau(  12) = (   0.5000000   0.4735409   2.4295764  )
        13           O   tau(  13) = (   0.0000000   0.0000000   2.5115362  )
        14           O   tau(  14) = (   0.0000000   0.4735409   2.9918528  )
        15           Cu  tau(  15) = (   0.0000000   0.0000000   2.9919088  )
        16           O   tau(  16) = (   0.0000000   0.0000000   3.4468248  )
        17           Ba  tau(  17) = (   0.5000000   0.4735409   3.5287769  )
        18           Cu  tau(  18) = (   0.0000000   0.0000000   4.0579686  )
        19           O   tau(  19) = (   0.5000000   0.0000000   4.1048108  )
        20           O   tau(  20) = (   0.0000000   0.4735409   4.1424652  )
        21           Ca  tau(  21) = (   0.5000000   0.4735409   4.4607145  )
        22           O   tau(  22) = (   0.0000000   0.4735409   4.9102491  )
        23           O   tau(  23) = (   0.5000000   0.0000000   4.9960255  )
        24           Cu  tau(  24) = (   0.0000000   0.0000000   5.0354126  )
        25           Ba  tau(  25) = (   0.5000000   0.4735409   5.4783624  )
        26           O   tau(  26) = (   0.0000000   0.0000000   5.5442900  )
        27           Cu  tau(  27) = (   0.0000000   0.0000000   6.0209299  )
        28           O   tau(  28) = (   0.0000000   0.4735409   6.0943482  )

     number of k points=    25  Gaussian smearing, width (Ry)=  0.0100
                       cart. coord. in units 2pi/alat
        k(    1) = (   0.0000000   0.0000000   0.0000000), wk =   0.0312500
        k(    2) = (   0.0000000   0.1319845   0.0000000), wk =   0.0625000
        k(    3) = (   0.0000000   0.2639689   0.0000000), wk =   0.0625000
        k(    4) = (   0.0000000   0.3959534   0.0000000), wk =   0.0625000
        k(    5) = (   0.0000000  -0.5279378   0.0000000), wk =   0.0312500
        k(    6) = (   0.1250000   0.0000000   0.0000000), wk =   0.0625000
        k(    7) = (   0.1250000   0.1319845   0.0000000), wk =   0.1250000
        k(    8) = (   0.1250000   0.2639689   0.0000000), wk =   0.1250000
        k(    9) = (   0.1250000   0.3959534   0.0000000), wk =   0.1250000
        k(   10) = (   0.1250000  -0.5279378   0.0000000), wk =   0.0625000
        k(   11) = (   0.2500000   0.0000000   0.0000000), wk =   0.0625000
        k(   12) = (   0.2500000   0.1319845   0.0000000), wk =   0.1250000
        k(   13) = (   0.2500000   0.2639689   0.0000000), wk =   0.1250000
        k(   14) = (   0.2500000   0.3959534   0.0000000), wk =   0.1250000
        k(   15) = (   0.2500000  -0.5279378   0.0000000), wk =   0.0625000
        k(   16) = (   0.3750000   0.0000000   0.0000000), wk =   0.0625000
        k(   17) = (   0.3750000   0.1319845   0.0000000), wk =   0.1250000
        k(   18) = (   0.3750000   0.2639689   0.0000000), wk =   0.1250000
        k(   19) = (   0.3750000   0.3959534   0.0000000), wk =   0.1250000
        k(   20) = (   0.3750000  -0.5279378   0.0000000), wk =   0.0625000
        k(   21) = (  -0.5000000   0.0000000   0.0000000), wk =   0.0312500
        k(   22) = (  -0.5000000   0.1319845   0.0000000), wk =   0.0625000
        k(   23) = (  -0.5000000   0.2639689   0.0000000), wk =   0.0625000
        k(   24) = (  -0.5000000   0.3959534   0.0000000), wk =   0.0625000
        k(   25) = (  -0.5000000  -0.5279378   0.0000000), wk =   0.0312500

     Initial potential from superposition of free atoms

     starting charge  226.84630, renormalised to  227.00000

     negative rho (up, down):  3.541E-03 0.000E+00
     Starting wfcs are  195 randomized atomic wfcs

     Self-consistent Calculation

     iteration #  1     ecut=    60.00 Ry     beta= 0.70
     Davidson diagonalization with overlap
     ethr =  1.00E-02,  avg # of iterations =  2.0

     negative rho (up, down):  2.834E-04 0.000E+00

     total energy              =   -1839.49834018 Ry
     Harris-Foulkes estimate   =   -1845.31623752 Ry
     estimated scf accuracy    <      18.04223116 Ry

[...]

     iteration # 20     ecut=    60.00 Ry     beta= 0.70
     Davidson diagonalization with overlap
     c_bands:  1 eigenvalues not converged
     ethr =  3.44E-07,  avg # of iterations =  7.0

[...]

     End of self-consistent calculation

          k = 0.0000 0.0000 0.0000 ( 34019 PWs)   bands (ev):

   -35.6428 -35.4962 -22.7905 -22.7058 -22.6702 -22.4494 -17.1225 -17.0011
   -16.7068 -16.6878 -16.5471 -16.5359 -15.2133 -15.0578 -14.8928 -14.7033
   -14.5860 -14.5318 -14.4827 -14.1492 -14.0964 -13.9538 -13.8951 -13.7556
   -13.7298 -13.6508 -13.5625  -8.0105  -7.8371  -7.8060  -7.7997  -7.7903
    -7.7292  -7.6405  -7.6388  -7.6067  -7.5958  -7.4911  -7.3251  -2.4978
    -2.2787  -2.2447  -1.7906  -1.7566  -1.7439  -1.6716  -1.6474  -1.5808
    -1.4484  -1.4320  -1.3916  -1.2937  -1.1352  -1.1311  -1.1157  -0.9134
    -0.8896  -0.7368  -0.4879  -0.4696  -0.3736  -0.2917  -0.2510  -0.2244
    -0.1892  -0.1796  -0.1781  -0.1770  -0.1503  -0.1497  -0.1308  -0.1172
    -0.1066  -0.0600   0.0478   0.0631   0.1840   0.1843   0.2007   0.2092
     0.2449   0.2599   0.2968   0.3445   0.3928   0.4005   0.4078   0.4134
     0.4605   0.8123   0.8655   0.9670   0.9854   1.0385   1.1209   1.2704
     1.3884   1.4190   1.4346   1.4687   1.5270   1.5485   1.5946   1.6124
     1.6198   1.6350   1.7471   1.7892   1.9138   2.0076   2.1198   2.1669
     2.1721   2.2808   2.3583   2.3708   2.4178   2.6208   2.7050   5.3001
     5.3093   5.8171   6.2763   6.5249   6.8488   6.8818   7.0014   7.3901
     8.0598   8.1938   8.2775   8.4131   8.5647   8.6743   8.7205   9.1545
     9.2750

[...]

[...]
     atom   12 type  1   force =     0.00000000    0.00000000   -0.00238570
     atom   13 type  4   force =     0.00000000    0.00000000    0.00327688
     atom   14 type  4   force =     0.00000000    0.00000000   -0.00016905
     atom   15 type  3   force =     0.00000000    0.00000000   -0.05467289
     atom   16 type  4   force =     0.00000000    0.00000000    0.05667915
     atom   17 type  1   force =     0.00000000    0.00000000    0.00891298
     atom   18 type  3   force =     0.00000000    0.00000000   -0.00533455
     atom   19 type  4   force =     0.00000000    0.00000000   -0.01320000
     atom   20 type  4   force =     0.00000000    0.00000000   -0.01114119
     atom   21 type  2   force =     0.00000000    0.00000000    0.05426530
     atom   22 type  4   force =     0.00000000    0.00000000    0.00991843
     atom   23 type  4   force =     0.00000000    0.00000000   -0.00887562
     atom   24 type  3   force =     0.00000000    0.00000000   -0.04084076
     atom   25 type  1   force =     0.00000000    0.00000000   -0.00394134
     atom   26 type  4   force =     0.00000000    0.00000000    0.00488098
     atom   27 type  3   force =     0.00000000    0.00000000    0.00388973
     atom   28 type  4   force =     0.00000000    0.00000000   -0.00075130

     Total force =     0.091699     Total SCF correction =     0.000009

     Computing stress (Cartesian axis) and pressure

     negative rho (up, down):  1.490E-03 0.000E+00
          total   stress  (Ry/bohr**3)                   (kbar)     P=        0.46
  -0.00000323   0.00000000   0.00000000           -0.48        0.00        0.00
   0.00000000  -0.00000004   0.00000000            0.00       -0.01        0.00
   0.00000000   0.00000000   0.00001266            0.00        0.00        1.86

     BFGS Geometry Optimization

     number of scf cycles    =   1
     number of bfgs steps    =   0

     energy   new            =   -1842.8735467811 Ry

     new trust radius        =       0.0566791451 bohr
     new conv_thr            =            1.0E-10 Ry

ATOMIC_POSITIONS (angstrom)
O             0.0000000000        1.8611200000       -0.1846200000    0   0   0
Cu            0.0000000000        0.0000000000        0.1039800000    0   0   0
O             0.0000000000        0.0000000000        1.9772600000    0   0   0
Ba            1.9651100000        1.8611200000        2.2364100000    0   0   0
Cu            0.0000000000        0.0000000000        4.0773100000    0   0   0
O             1.9651100000        0.0000000000        4.2321000000    0   0   0
O             0.0000000000        1.8611200000        4.3692200000    0   0   0
Ca            1.9651100000        1.8611200000        5.8860000000    0   0   0
O             0.0000000000        1.8611200000        7.3367500000    0   0   0
O             1.9651100000        0.0000000000        7.4847600000    0   0   0
Cu            0.0000000000        0.0000000000        7.6688600000    0   0   0
Ba            1.9651100000        1.8611200000        9.5487700000    0   0   0
O             0.0000000000        0.0000000000        9.8708900000    0   0   0
O             0.0000000000        1.8611200000       11.7586400000    0   0   0
Cu            0.0000000000        0.0000000000       11.7588600000    0   0   0
O             0.0000000000        0.0000000000       13.5767733118
Ba            1.9651100000        1.8611200000       13.8735865471
Cu            0.0000000000        0.0000000000       15.9458870793
O             1.9651100000        0.0000000000       16.1258248609
O             0.0000000000        1.8611200000       16.2749043382
Ca            1.9651100000        1.8611200000       17.5603059593
O             0.0000000000        1.8611200000       19.3036086058
O             1.9651100000        0.0000000000       19.6307832245
Cu            0.0000000000        0.0000000000       19.7686680005
Ba            1.9651100000        1.8611200000       21.5311700000    0   0   0
O             0.0000000000        0.0000000000       21.7902800000    0   0   0
Cu            0.0000000000        0.0000000000       23.6635800000    0   0   0
O             0.0000000000        1.8611200000       23.9521300000    0   0   0

     NEW-OLD atomic charge density approx. for the potential

[...]

     energy   old            =   -1842.8735467811 Ry
     energy   new            =   -1842.8808889467 Ry

     CASE: energy  _new < energy  _old

[...]

     BFGS Geometry Optimization

[...]

     energy   new            =   -1842.8923891256 Ry

[...]

     WARNING: bfgs curvature condition failed, Theta= 0.876
     new trust radius        =       0.0266613887 bohr
     new conv_thr            =            1.2E-12 Ry

[...]

     iteration #  1     ecut=    60.00 Ry     beta= 0.70
     Davidson diagonalization with overlap
     c_bands:  1 eigenvalues not converged
     c_bands:  1 eigenvalues not converged
     c_bands:  1 eigenvalues not converged
     c_bands:  1 eigenvalues not converged
     c_bands:  1 eigenvalues not converged
     ethr =  1.00E-06,  avg # of iterations = 14.8

[...]

     new trust radius        =       0.0230801588 bohr
     new conv_thr            =            1.3E-12 Ry

[...]

     number of scf cycles    =   8
     number of bfgs steps    =   5

     energy   old            =   -1842.8983052990 Ry
     energy   new            =   -1842.8990329901 Ry

     CASE: energy  _new < energy  _old

     WARNING: bfgs curvature condition failed, Theta= 0.946
     new trust radius        =       0.0253881746 bohr
     new conv_thr            =            1.0E-12 Ry

ATOMIC_POSITIONS (angstrom)
O             0.0000000000        1.8611200000       -0.1849734231    0   0   0
Cu            0.0000000000        0.0000000000        0.1041790518    0   0   0
O             0.0000000000        0.0000000000        1.9810451230    0   0   0
Ba            1.9651100000        1.8611200000        2.2406912210    0   0   0
Cu            0.0000000000        0.0000000000        4.0851153064    0   0   0
O             1.9651100000        0.0000000000        4.2402016251    0   0   0
O             0.0000000000        1.8611200000        4.3775841177    0   0   0
Ca            1.9651100000        1.8611200000        5.8972677312    0   0   0
O             0.0000000000        1.8611200000        7.3507949417    0   0   0
O             1.9651100000        0.0000000000        7.4990882813    0   0   0
Cu            0.0000000000        0.0000000000        7.6835407090    0   0   0
Ba            1.9651100000        1.8611200000        9.5670494723    0   0   0
O             0.0000000000        0.0000000000        9.8897861154    0   0   0
O             0.0000000000        1.8611200000       11.7811498870    0   0   0
Cu            0.0000000000        0.0000000000       11.7813703082    0   0   0
O             0.0000000000        0.0000000000       13.6677118122
Ba            1.9651100000        1.8611200000       13.9723567805
Cu            0.0000000000        0.0000000000       15.9574694627
O             1.9651100000        0.0000000000       16.1343092788
O             0.0000000000        1.8611200000       16.3224371008
Ca            1.9651100000        1.8611200000       17.7482808697
O             0.0000000000        1.8611200000       19.2545875712
O             1.9651100000        0.0000000000       19.5359277394
Cu            0.0000000000        0.0000000000       19.6405557111
Ba            1.9651100000        1.8611200000       21.4884833470    0   0   0
O             0.0000000000        0.0000000000       21.7480893684    0   0   0
Cu            0.0000000000        0.0000000000       23.6249754779    0   0   0
O             0.0000000000        1.8611200000       23.9140778571    0   0   0

     NEW-OLD atomic charge density approx. for the potential

[...]

     Self-consistent Calculation

[...]

     total energy              =   -1842.89978311 Ry
     Harris-Foulkes estimate   =   -1842.89978311 Ry
     estimated scf accuracy    <          3.2E-12 Ry

     iteration # 30     ecut=    60.00 Ry     beta= 0.70
     Davidson diagonalization with overlap
     ethr =  1.00E-13,  avg # of iterations =  1.0

[...]

     End of self-consistent calculation

[...]

          k = 0.3750-0.5279 0.0000 ( 34004 PWs)   bands (ev):

[...]

          k =-0.5000-0.5279 0.0000 ( 34028 PWs)   bands (ev):

   -35.5898 -35.5099 -22.4542 -22.4419 -22.3238 -22.2050 -17.0142 -16.9729
   -16.9503 -16.9419 -16.6201 -16.5672 -14.5300 -14.5231 -14.3676 -14.2938
   -14.2121 -14.1932 -14.1595 -14.0278 -13.9913 -13.9851 -13.9581 -13.9299
   -13.8648 -13.8512 -13.7365  -8.6855  -8.6423  -8.5394  -8.4348  -8.4243
    -8.4174  -8.2478  -8.0216  -7.9492  -7.9267  -7.8710  -7.6523  -4.0135
    -3.8664  -3.6996  -3.5870  -3.5100  -3.0893  -3.0858  -2.6627  -2.5744
    -2.4979  -2.4385  -2.2200  -2.1996  -2.1783  -2.1580  -2.0835  -1.9015
    -1.8359  -1.6293  -1.2757  -1.2262  -1.1790  -1.0972  -1.0015  -0.9524
    -0.9372  -0.9122  -0.9103  -0.8139  -0.7872  -0.7467  -0.7268  -0.7239
    -0.4688  -0.2503  -0.2452   0.2955   0.3872   0.4651   0.8147   0.9287
     1.1591   1.3548   1.3589   1.4218   1.4335   1.4557   1.4610   1.4633
     1.4779   1.6953   1.7111   1.7236   1.7528   1.7803   1.8733   1.9264
     1.9633   2.0105   2.0545   2.0748   2.1144   2.1336   2.1941   2.2108
     2.2759   2.3136   2.4098   2.4170   2.4680   2.5030   2.5498   2.5850
     2.6098   2.6244   4.2930   4.6650   4.7783   4.8201   4.8540   5.4821
     6.0413   6.0690   7.1525   7.2223   8.8399   8.9341   9.0535   9.1062
     9.1155   9.1625   9.5227   9.6315   9.7485   9.7704   9.9693   9.9768
    10.0712

     the Fermi energy is     2.6348 ev

!    total energy              =   -1842.89978311 Ry
     Harris-Foulkes estimate   =   -1842.89978311 Ry
     estimated scf accuracy    <          7.3E-13 Ry

     The total energy is the sum of the following terms:

     one-electron contribution =  -30792.94928596 Ry
     hartree contribution      =   15550.25756230 Ry
     xc contribution           =    -621.74360945 Ry
     ewald contribution        =   14021.54354372 Ry
     smearing contrib. (-TS)   =      -0.00799372 Ry

     convergence has been achieved in  30 iterations

     negative rho (up, down):  1.508E-03 0.000E+00

     Forces acting on atoms (cartesian axes, Ry/au):

     atom    1 type  4   force =     0.00000000    0.00000000   -0.00000403
     atom    2 type  3   force =     0.00000000    0.00000000    0.00177786
     atom    3 type  4   force =     0.00000000    0.00000000   -0.00168019
     atom    4 type  1   force =     0.00000000    0.00000000    0.00012869
     atom    5 type  3   force =     0.00000000    0.00000000    0.00027741
     atom    6 type  4   force =     0.00000000    0.00000000    0.00011813
     atom    7 type  4   force =     0.00000000    0.00000000    0.00056418
     atom    8 type  2   force =     0.00000000    0.00000000   -0.00056758
     atom    9 type  4   force =     0.00000000    0.00000000    0.00003688
     atom   10 type  4   force =     0.00000000    0.00000000   -0.00002211
     atom   11 type  3   force =     0.00000000    0.00000000    0.00022682
     atom   12 type  1   force =     0.00000000    0.00000000   -0.00043761
     atom   13 type  4   force =     0.00000000    0.00000000    0.00276476
     atom   14 type  4   force =     0.00000000    0.00000000    0.00156966
     atom   15 type  3   force =     0.00000000    0.00000000   -0.00374906
     atom   16 type  4   force =     0.00000000    0.00000000    0.00273873
     atom   17 type  1   force =     0.00000000    0.00000000    0.00925509
     atom   18 type  3   force =     0.00000000    0.00000000   -0.00040661
     atom   19 type  4   force =     0.00000000    0.00000000    0.00086168
     atom   20 type  4   force =     0.00000000    0.00000000   -0.00541619
     atom   21 type  2   force =     0.00000000    0.00000000    0.00426240
     atom   22 type  4   force =     0.00000000    0.00000000    0.00725018
     atom   23 type  4   force =     0.00000000    0.00000000   -0.00879937
     atom   24 type  3   force =     0.00000000    0.00000000   -0.00696129
     atom   25 type  1   force =     0.00000000    0.00000000   -0.00175731
     atom   26 type  4   force =     0.00000000    0.00000000   -0.00037760
     atom   27 type  3   force =     0.00000000    0.00000000   -0.00180406
     atom   28 type  4   force =     0.00000000    0.00000000    0.00015054

     Total force =     0.017889     Total SCF correction =     0.000002

     Computing stress (Cartesian axis) and pressure

     negative rho (up, down):  1.508E-03 0.000E+00
          total   stress  (Ry/bohr**3)                   (kbar)     P=       -4.03
  -0.00000964   0.00000000   0.00000000           -1.42        0.00        0.00
   0.00000000  -0.00002967   0.00000000            0.00       -4.37        0.00
   0.00000000   0.00000000  -0.00004285            0.00        0.00       -6.30

     bfgs converged in   9 scf cycles and   6 bfgs steps
     (criteria: energy <  1.0E-03 Ry, force <  1.0E-02 Ry/Bohr)

     End of BFGS Geometry Optimization

     Final energy   =   -1842.8997831071 Ry
Begin final coordinates

ATOMIC_POSITIONS (angstrom)
O             0.0000000000        1.8611200000       -0.1849734231    0   0   0
Cu            0.0000000000        0.0000000000        0.1041790518    0   0   0
O             0.0000000000        0.0000000000        1.9810451230    0   0   0
Ba            1.9651100000        1.8611200000        2.2406912210    0   0   0
Cu            0.0000000000        0.0000000000        4.0851153064    0   0   0
O             1.9651100000        0.0000000000        4.2402016251    0   0   0
O             0.0000000000        1.8611200000        4.3775841177    0   0   0
Ca            1.9651100000        1.8611200000        5.8972677312    0   0   0
O             0.0000000000        1.8611200000        7.3507949417    0   0   0
O             1.9651100000        0.0000000000        7.4990882813    0   0   0
Cu            0.0000000000        0.0000000000        7.6835407090    0   0   0
Ba            1.9651100000        1.8611200000        9.5670494723    0   0   0
O             0.0000000000        0.0000000000        9.8897861154    0   0   0
O             0.0000000000        1.8611200000       11.7811498870    0   0   0
Cu            0.0000000000        0.0000000000       11.7813703082    0   0   0
O             0.0000000000        0.0000000000       13.6677118122
Ba            1.9651100000        1.8611200000       13.9723567805
Cu            0.0000000000        0.0000000000       15.9574694627
O             1.9651100000        0.0000000000       16.1343092788
O             0.0000000000        1.8611200000       16.3224371008
Ca            1.9651100000        1.8611200000       17.7482808697
O             0.0000000000        1.8611200000       19.2545875712
O             1.9651100000        0.0000000000       19.5359277394
Cu            0.0000000000        0.0000000000       19.6405557111
Ba            1.9651100000        1.8611200000       21.4884833470    0   0   0
O             0.0000000000        0.0000000000       21.7480893684    0   0   0
Cu            0.0000000000        0.0000000000       23.6249754779    0   0   0
O             0.0000000000        1.8611200000       23.9140778571    0   0   0
End final coordinates

     General routines

     Parallel routines

   This run was terminated on:  13:35:50   9Jul2021

   JOB DONE.
[1625852151.141146] [holy7c04208:26295:0]          mpool.c:43   UCX  WARN  object 0x3d2fd00 was not returned to mpool ucp_requests
[1625852151.152135] [holy7c04208:26296:0]          mpool.c:43   UCX  WARN  object 0x2e72700 was not returned to mpool ucp_requests
[1625852151.156660] [holy7c04208:26300:0]          mpool.c:43   UCX  WARN  object 0x410b300 was not returned to mpool ucp_requests
[1625852151.156683] [holy7c04208:26300:0]          mpool.c:43   UCX  WARN  object 0x410b840 was not returned to mpool ucp_requests
[1625852151.170299] [holy7c04303:202083:0]          mpool.c:43   UCX  WARN  object 0x359b740 was not returned to mpool ucp_requests
[1625852151.181111] [holy7c04303:202080:0]          mpool.c:43   UCX  WARN  object 0x35b5580 was not returned to mpool ucp_requests
[1625852151.181240] [holy7c04303:202084:0]          mpool.c:43   UCX  WARN  object 0x3d90180 was not returned to mpool ucp_requests
[1625852151.181263] [holy7c04303:202084:0]          mpool.c:43   UCX  WARN  object 0x3d90340 was not returned to mpool ucp_requests
[1625852151.180834] [holy7c04303:202082:0]          mpool.c:43   UCX  WARN  object 0x3037a40 was not returned to mpool ucp_requests
[1625852151.180859] [holy7c04303:202082:0]          mpool.c:43   UCX  WARN  object 0x3037f80 was not returned to mpool ucp_requests