     Program PWSCF v.6.5 starts on 28Jun2021 at 19:56:13

     R & G space division:  proc/nbgrp/npool/nimage =      20
     Reading input from CBCO_BaO_cleave_0.75_sep.pwi
Warning: card &CELL ignored
Warning: card     CELL_DYNAMICS = 'BFGS' ignored
Warning: card     PRESS_CONV_THR = 5 ignored
Warning: card / ignored

     Current dimensions of program PWSCF are:
     Max number of different atomic species (ntypx) = 10
     Max number of k-points (npk) =  40000
     Max angular momentum in pseudopotentials (lmaxx) =  3

     Message from routine setup:
     using ibrav=0 with symmetry is DISCOURAGED, use correct ibrav instead

     bravais-lattice index     =            0
     lattice parameter (alat)  =       7.4270  a.u.
     unit-cell volume          =    4376.3515 (a.u.)^3
     number of atoms/cell      =           28
     number of atomic types    =            4
     number of electrons       =       227.00
     number of Kohn-Sham states=          137
     kinetic-energy cutoff     =      60.0000  Ry
     charge density cutoff     =     720.0000  Ry
     convergence threshold     =      1.0E-10
     mixing beta               =       0.7000
     number of iterations used =           10  local-TF  mixing
     Exchange-correlation= SLA PW PBE PBE
                           (   1   4   3   4   0   0   0)
     nstep                     =          300

     celldm(1)=   7.427040  celldm(2)=   0.000000  celldm(3)=   0.000000
     celldm(4)=   0.000000  celldm(5)=   0.000000  celldm(6)=   0.000000

     crystal axes: (cart. coord. in units of alat)
               a(1) = (   1.000000   0.000000   0.000000 )
               a(2) = (   0.000000   0.947081   0.000000 )
               a(3) = (   0.000000   0.000000  11.279186 )

     reciprocal axes: (cart. coord. in units 2 pi/alat)
               b(1) = (  1.000000  0.000000  0.000000 )
               b(2) = (  0.000000  1.055876  0.000000 )
               b(3) = (  0.000000  0.000000  0.088659 )

     PseudoPot. # 1 for Ba read from file:
     ./pseudo/Ba.pbe-nsp-van.UPF
     MD5 check sum: 2b9c31dd849566dd297d80989662b7a0
     Pseudo is Ultrasoft + core correction, Zval = 10.0
     Generated by new atomic code, or converted to UPF format
     Using radial grid of  907 points,  6 beta functions with:
                l(1) =   0
                l(2) =   0
                l(3) =   1
                l(4) =   1
                l(5) =   2
                l(6) =   2
     Q(r) pseudized with  6 coefficients,  rinner =    1.200   1.200   1.200
                                                       1.200   1.200

     PseudoPot. # 2 for Ca read from file:
     ./pseudo/Ca.pbe-nsp-van.UPF
     MD5 check sum: 6471098428ff4fa451746d08035ff179
     Pseudo is Ultrasoft + core correction, Zval = 10.0
     Generated by new atomic code, or converted to UPF format
     Using radial grid of  845 points,  6 beta functions with:
                l(1) =   0
                l(2) =   0
                l(3) =   1
                l(4) =   1
                l(5) =   2
                l(6) =   2
     Q(r) pseudized with  6 coefficients,  rinner =    1.200   1.200   1.200
                                                       1.200   1.200

     PseudoPot. # 3 for Cu read from file:
     ./pseudo/Cu.pbe-n-van_ak.UPF
     MD5 check sum: 34e3282627ffb533726feb647e090d62
     Pseudo is Ultrasoft + core correction, Zval = 11.0
     Generated by new atomic code, or converted to UPF format
     Using radial grid of  867 points,  6 beta functions with:
                l(1) =   0
                l(2) =   0
                l(3) =   1
                l(4) =   1
                l(5) =   2
                l(6) =   2
     Q(r) pseudized with  8 coefficients,  rinner =    1.400   1.400   1.400
                                                       1.400   1.400

     PseudoPot. # 4 for O  read from file:
     ./pseudo/O.pbe-van_ak.UPF
     MD5 check sum: 783ce7fe4c79b6a4916957118fed0856
     Pseudo is Ultrasoft, Zval =  6.0
     Generated by new atomic code, or converted to UPF format
     Using radial grid of  737 points,  4 beta functions with:
                l(1) =   0
                l(2) =   0
                l(3) =   1
                l(4) =   1
     Q(r) pseudized with  8 coefficients,  rinner =    0.800   0.800   0.800

     atomic species   valence    mass     pseudopotential
        Ba            10.00   137.32700     Ba( 1.00)
        Ca            10.00    40.07800     Ca( 1.00)
        Cu            11.00    63.54600     Cu( 1.00)
        O              6.00    15.99900     O ( 1.00)

      4 Sym. Ops. (no inversion) found

   Cartesian axes

     site n.     atom                  positions (alat units)
         1           O   tau(   1) = (   0.0000000   0.4735409  -0.0469745  )
         2           Cu  tau(   2) = (   0.0000000   0.0000000   0.0264565  )
         3           O   tau(   3) = (   0.0000000   0.0000000   0.5030914  )
         4           Ba  tau(   4) = (   0.5000000   0.4735409   0.5690292  )
         5           Cu  tau(   5) = (   0.0000000   0.0000000   1.0374254  )
         6           O   tau(   6) = (   0.5000000   0.0000000   1.0768099  )
         7           O   tau(   7) = (   0.0000000   0.4735409   1.1116985  )
         8           Ca  tau(   8) = (   0.5000000   0.4735409   1.4976260  )
         9           O   tau(   9) = (   0.0000000   0.4735409   1.8667529  )
        10           O   tau(  10) = (   0.5000000   0.0000000   1.9044124  )
        11           Cu  tau(  11) = (   0.0000000   0.0000000   1.9512546  )
        12           Ba  tau(  12) = (   0.5000000   0.4735409   2.4295764  )
        13           O   tau(  13) = (   0.0000000   0.0000000   2.5115362  )
        14           O   tau(  14) = (   0.0000000   0.4735409   2.9943972  )
        15           Cu  tau(  15) = (   0.0000000   0.0000000   2.9664649  )
        16           O   tau(  16) = (   0.0000000   0.0000000   3.4722686  )
        17           Ba  tau(  17) = (   0.5000000   0.4735409   3.5542208  )
        18           Cu  tau(  18) = (   0.0000000   0.0000000   4.2233538  )
        19           O   tau(  19) = (   0.5000000   0.0000000   4.2701959  )
        20           O   tau(  20) = (   0.0000000   0.4735409   4.3078503  )
        21           Ca  tau(  21) = (   0.5000000   0.4735409   4.6769874  )
        22           O   tau(  22) = (   0.0000000   0.4735409   5.0629123  )
        23           O   tau(  23) = (   0.5000000   0.0000000   5.0978010  )
        24           Cu  tau(  24) = (   0.0000000   0.0000000   5.1371881  )
        25           Ba  tau(  25) = (   0.5000000   0.4735409   5.6055817  )
        26           O   tau(  26) = (   0.0000000   0.0000000   5.6715093  )
        27           Cu  tau(  27) = (   0.0000000   0.0000000   6.1481493  )
        28           O   tau(  28) = (   0.0000000   0.4735409   6.2215676  )

     number of k points=    25  Gaussian smearing, width (Ry)=  0.0100
                       cart. coord. in units 2pi/alat
        k(    1) = (   0.0000000   0.0000000   0.0000000), wk =   0.0312500
        k(    2) = (   0.0000000   0.1319845   0.0000000), wk =   0.0625000
        k(    3) = (   0.0000000   0.2639689   0.0000000), wk =   0.0625000
        k(    4) = (   0.0000000   0.3959534   0.0000000), wk =   0.0625000
        k(    5) = (   0.0000000  -0.5279378   0.0000000), wk =   0.0312500
        k(    6) = (   0.1250000   0.0000000   0.0000000), wk =   0.0625000
        k(    7) = (   0.1250000   0.1319845   0.0000000), wk =   0.1250000
        k(    8) = (   0.1250000   0.2639689   0.0000000), wk =   0.1250000
        k(    9) = (   0.1250000   0.3959534   0.0000000), wk =   0.1250000
        k(   10) = (   0.1250000  -0.5279378   0.0000000), wk =   0.0625000
        k(   11) = (   0.2500000   0.0000000   0.0000000), wk =   0.0625000
        k(   12) = (   0.2500000   0.1319845   0.0000000), wk =   0.1250000
        k(   13) = (   0.2500000   0.2639689   0.0000000), wk =   0.1250000
        k(   14) = (   0.2500000   0.3959534   0.0000000), wk =   0.1250000
        k(   15) = (   0.2500000  -0.5279378   0.0000000), wk =   0.0625000
        k(   16) = (   0.3750000   0.0000000   0.0000000), wk =   0.0625000
        k(   17) = (   0.3750000   0.1319845   0.0000000), wk =   0.1250000
        k(   18) = (   0.3750000   0.2639689   0.0000000), wk =   0.1250000
        k(   19) = (   0.3750000   0.3959534   0.0000000), wk =   0.1250000
        k(   20) = (   0.3750000  -0.5279378   0.0000000), wk =   0.0625000
        k(   21) = (  -0.5000000   0.0000000   0.0000000), wk =   0.0312500
        k(   22) = (  -0.5000000   0.1319845   0.0000000), wk =   0.0625000
        k(   23) = (  -0.5000000   0.2639689   0.0000000), wk =   0.0625000
        k(   24) = (  -0.5000000   0.3959534   0.0000000), wk =   0.0625000
        k(   25) = (  -0.5000000  -0.5279378   0.0000000), wk =   0.0312500

     Initial potential from superposition of free atoms

     starting charge  226.84630, renormalised to  227.00000

     negative rho (up, down):  3.478E-03 0.000E+00
     Starting wfcs are  195 randomized atomic wfcs

     Self-consistent Calculation

     iteration #  1     ecut=    60.00 Ry     beta= 0.70
     Davidson diagonalization with overlap
     ethr =  1.00E-02,  avg # of iterations =  2.0

     negative rho (up, down):  2.673E-04 0.000E+00

     total energy              =   -1839.42938448 Ry
     Harris-Foulkes estimate   =   -1845.34189367 Ry
     estimated scf accuracy    <      17.47465888 Ry

[...]

     iteration # 13     ecut=    60.00 Ry     beta= 0.70
     Davidson diagonalization with overlap
     c_bands:  1 eigenvalues not converged
     ethr =  3.49E-05,  avg # of iterations =  2.4

[...]

     End of self-consistent calculation

          k = 0.0000 0.0000 0.0000 ( 34429 PWs)   bands (ev):

   -35.5945 -35.4607 -23.1194 -22.7843 -22.7828 -22.6936 -17.0986 -16.9431
   -16.6449 -16.6345 -16.5218 -16.5072 -15.3053 -15.1979 -14.9253 -14.6672
   -14.6567 -14.5810 -14.4044 -14.1750 -14.1714 -14.0412 -13.9807 -13.9535
   -13.8374 -13.5770 -13.1868  -8.3586  -8.0139  -7.9179  -7.9127  -7.8958
    -7.8780  -7.8769  -7.8570  -7.7531  -7.6852  -7.6836  -7.5810  -2.3291
    -2.3231  -2.3201  -1.8232  -1.8188  -1.7718  -1.6704  -1.6312  -1.5786
    -1.5516  -1.4864  -1.4489  -1.3166  -1.2313  -1.2141  -1.2134  -0.8607
    -0.7434  -0.5604  -0.4521  -0.4514  -0.3729  -0.3679  -0.3178  -0.2855
    -0.2594  -0.2582  -0.2575  -0.2419  -0.2182  -0.2031  -0.1574  -0.1360
    -0.1218  -0.1172  -0.0311  -0.0292   0.1053   0.1058   0.1060   0.1094
     0.1515   0.1776   0.2071   0.2982   0.3128   0.3257   0.3773   0.3863
     0.5710   0.5996   0.8586   0.8889   0.8889   0.9533   1.0176   1.1884
     1.2303   1.3550   1.3616   1.3819   1.4083   1.4554   1.5220   1.5242
     1.7075   1.7391   1.7857   1.8347   1.9302   1.9418   1.9807   2.0406
     2.0560   2.1242   2.1347   2.2260   2.3441   2.5344   2.5447   5.2099
     5.2241   5.5291   6.1397   6.2410   6.6638   6.7626   6.7881   7.0765
     7.9550   8.0024   8.1424   8.2939   8.3891   8.5663   8.6153   8.9217
     9.0908

[...]

[...]
     atom    4 type  1   force =     0.00000000    0.00000000   -0.00028215
     atom    5 type  3   force =     0.00000000    0.00000000    0.00059602
     atom    6 type  4   force =     0.00000000    0.00000000    0.00024497
     atom    7 type  4   force =     0.00000000    0.00000000    0.00034095
     atom    8 type  2   force =     0.00000000    0.00000000   -0.00134182
     atom    9 type  4   force =     0.00000000    0.00000000    0.00233064
     atom   10 type  4   force =     0.00000000    0.00000000    0.00274812
     atom   11 type  3   force =     0.00000000    0.00000000   -0.00374000
     atom   12 type  1   force =     0.00000000    0.00000000   -0.00720606
     atom   13 type  4   force =     0.00000000    0.00000000   -0.04098948
     atom   14 type  4   force =     0.00000000    0.00000000    0.01347867
     atom   15 type  3   force =     0.00000000    0.00000000    0.06801722
     atom   16 type  4   force =     0.00000000    0.00000000   -0.01770601
     atom   17 type  1   force =     0.00000000    0.00000000    0.01197144
     atom   18 type  3   force =     0.00000000    0.00000000   -0.00455368
     atom   19 type  4   force =     0.00000000    0.00000000   -0.00590656
     atom   20 type  4   force =     0.00000000    0.00000000   -0.00518887
     atom   21 type  2   force =     0.00000000    0.00000000   -0.01477878
     atom   22 type  4   force =     0.00000000    0.00000000    0.00033012
     atom   23 type  4   force =     0.00000000    0.00000000    0.00143217
     atom   24 type  3   force =     0.00000000    0.00000000   -0.00021525
     atom   25 type  1   force =     0.00000000    0.00000000    0.00027577
     atom   26 type  4   force =     0.00000000    0.00000000    0.00102657
     atom   27 type  3   force =     0.00000000    0.00000000   -0.00058851
     atom   28 type  4   force =     0.00000000    0.00000000    0.00025913

     Total force =     0.074604     Total SCF correction =     0.000027

     Computing stress (Cartesian axis) and pressure

     negative rho (up, down):  1.520E-03 0.000E+00
          total   stress  (Ry/bohr**3)                   (kbar)     P=       -6.39
  -0.00005982   0.00000000   0.00000000           -8.80        0.00        0.00
   0.00000000  -0.00003763   0.00000000            0.00       -5.54        0.00
   0.00000000   0.00000000  -0.00003292            0.00        0.00       -4.84

     number of scf cycles    =   2
     number of bfgs steps    =   1

     energy   old            =   -1842.8486839903 Ry
     energy   new            =   -1842.8646085796 Ry

     CASE: energy  _new < energy  _old

     WARNING: bfgs curvature condition failed, Theta= 0.800
     new trust radius        =       0.3645640696 bohr
     new conv_thr            =            6.8E-12 Ry

ATOMIC_POSITIONS (angstrom)
O             0.0000000000        1.8611200000       -0.1857589071    0   0   0
Cu            0.0000000000        0.0000000000        0.1046214449    0   0   0
O             0.0000000000        0.0000000000        1.9894575706    0   0   0
Ba            1.9651100000        1.8611200000        2.2502062478    0   0   0
Cu            0.0000000000        0.0000000000        4.1024626237    0   0   0
O             1.9651100000        0.0000000000        4.2582075118    0   0   0
O             0.0000000000        1.8611200000        4.3961733949    0   0   0
Ca            1.9651100000        1.8611200000        5.9223102985    0   0   0
O             0.0000000000        1.8611200000        7.3820098679    0   0   0
O             1.9651100000        0.0000000000        7.5309329307    0   0   0
Cu            0.0000000000        0.0000000000        7.7161686299    0   0   0
Ba            1.9651100000        1.8611200000        9.6076756556    0   0   0
O             0.0000000000        0.0000000000        9.9317827901    0   0   0
O             0.0000000000        1.8611200000       11.9615589967
Cu            0.0000000000        0.0000000000       11.7307773932
O             0.0000000000        0.0000000000       13.7309678138
Ba            1.9651100000        1.8611200000       14.0550516009
Cu            0.0000000000        0.0000000000       16.4276398081
O             1.9651100000        0.0000000000       16.6128711904
O             0.0000000000        1.8611200000       16.7617766887
Ca            1.9651100000        1.8611200000       18.2215198654
O             0.0000000000        1.8611200000       19.7476449824    0   0   0
O             1.9651100000        0.0000000000       19.8856108655    0   0   0
Cu            0.0000000000        0.0000000000       20.0413658153    0   0   0
Ba            1.9651100000        1.8611200000       21.8936121295    0   0   0
O             0.0000000000        0.0000000000       22.1543205599    0   0   0
Cu            0.0000000000        0.0000000000       24.0391768090    0   0   0
O             0.0000000000        1.8611200000       24.3295068526    0   0   0

     NEW-OLD atomic charge density approx. for the potential

[...]

     new trust radius        =       0.5468461044 bohr
     new conv_thr            =            6.8E-12 Ry

[...]

     iteration #  5     ecut=    60.00 Ry     beta= 0.70
     Davidson diagonalization with overlap
     c_bands:  1 eigenvalues not converged
     ethr =  5.50E-07,  avg # of iterations =  1.8

[...]

     number of scf cycles    =   6
     number of bfgs steps    =   5

     energy   old            =   -1842.8954063141 Ry
     energy   new            =   -1842.8969695507 Ry

     CASE: energy  _new < energy  _old

     new trust radius        =       0.0481261013 bohr
     new conv_thr            =            1.3E-12 Ry

ATOMIC_POSITIONS (angstrom)
O             0.0000000000        1.8611200000       -0.1871477488    0   0   0
Cu            0.0000000000        0.0000000000        0.1054036557    0   0   0
O             0.0000000000        0.0000000000        2.0043319135    0   0   0
Ba            1.9651100000        1.8611200000        2.2670300995    0   0   0
Cu            0.0000000000        0.0000000000        4.1331350223    0   0   0
O             1.9651100000        0.0000000000        4.2900443498    0   0   0
O             0.0000000000        1.8611200000        4.4290417461    0   0   0
Ca            1.9651100000        1.8611200000        5.9665889376    0   0   0
O             0.0000000000        1.8611200000        7.4372020706    0   0   0
O             1.9651100000        0.0000000000        7.5872385689    0   0   0
Cu            0.0000000000        0.0000000000        7.7738591981    0   0   0
Ba            1.9651100000        1.8611200000        9.6795082313    0   0   0
O             0.0000000000        0.0000000000       10.0060385793    0   0   0
O             0.0000000000        1.8611200000       12.1402190759
Cu            0.0000000000        0.0000000000       11.9121897670
O             0.0000000000        0.0000000000       13.8170822806
Ba            1.9651100000        1.8611200000       14.1830799345
Cu            0.0000000000        0.0000000000       16.2146492810
O             1.9651100000        0.0000000000       16.4015413747
O             0.0000000000        1.8611200000       16.5534141909
Ca            1.9651100000        1.8611200000       18.0152629355
O             0.0000000000        1.8611200000       19.5638553651    0   0   0
O             1.9651100000        0.0000000000       19.7028527615    0   0   0
Cu            0.0000000000        0.0000000000       19.8597722259    0   0   0
Ba            1.9651100000        1.8611200000       21.7258670117    0   0   0
O             0.0000000000        0.0000000000       21.9885246501    0   0   0
Cu            0.0000000000        0.0000000000       23.8874731817    0   0   0
O             0.0000000000        1.8611200000       24.1799739017    0   0   0

     NEW-OLD atomic charge density approx. for the potential

[...]

     Self-consistent Calculation

[...]

     total energy              =   -1842.89709223 Ry
     Harris-Foulkes estimate   =   -1842.89709223 Ry
     estimated scf accuracy    <          2.0E-12 Ry

     iteration # 34     ecut=    60.00 Ry     beta= 0.70
     Davidson diagonalization with overlap
     ethr =  1.00E-13,  avg # of iterations =  1.0

[...]

     End of self-consistent calculation

[...]

          k = 0.3750-0.5279 0.0000 ( 34392 PWs)   bands (ev):

[...]

          k =-0.5000-0.5279 0.0000 ( 34420 PWs)   bands (ev):

   -35.6906 -35.6383 -22.5718 -22.5659 -22.5500 -22.3303 -17.0971 -17.0947
   -17.0473 -17.0419 -16.7302 -16.6693 -14.5289 -14.5270 -14.4498 -14.4218
   -14.3645 -14.2679 -14.2256 -14.1416 -14.0769 -14.0727 -14.0604 -14.0399
   -13.9801 -13.8691 -13.7334  -8.7939  -8.7884  -8.7309  -8.5406  -8.5244
    -8.5193  -8.4633  -8.1165  -8.0581  -8.0393  -8.0358  -7.7658  -4.0698
    -4.0401  -3.7693  -3.6835  -3.4610  -3.1572  -3.1565  -2.7329  -2.7312
    -2.5833  -2.5156  -2.3180  -2.2885  -2.1755  -2.1743  -2.0864  -2.0091
    -1.9578  -1.6313  -1.3394  -1.3323  -1.2409  -1.1600  -1.1508  -1.0362
    -1.0270  -0.9903  -0.9896  -0.9191  -0.8592  -0.8480  -0.7907  -0.7645
    -0.5277  -0.2751  -0.2739   0.2149   0.3086   0.3982   0.7103   0.8435
     1.0536   1.2536   1.3294   1.3450   1.3486   1.3531   1.3659   1.3953
     1.4229   1.5734   1.6002   1.6388   1.6624   1.6999   1.7611   1.8313
     1.8678   1.8825   1.9328   1.9436   2.0085   2.0439   2.0518   2.0606
     2.2135   2.2631   2.3264   2.3304   2.3389   2.4256   2.4818   2.4932
     2.5119   2.5876   4.0620   4.6833   4.6996   4.7466   4.7883   5.4550
     5.9558   5.9580   6.9424   7.0039   8.6224   8.7927   8.9004   8.9297
     8.9363   8.9688   9.3159   9.4401   9.5718   9.5889   9.8851   9.9030
     9.9280

     the Fermi energy is     2.5399 ev

!    total energy              =   -1842.89709223 Ry
     Harris-Foulkes estimate   =   -1842.89709223 Ry
     estimated scf accuracy    <          5.9E-13 Ry

     The total energy is the sum of the following terms:

     one-electron contribution =  -31091.69294407 Ry
     hartree contribution      =   15698.79294153 Ry
     xc contribution           =    -621.61774552 Ry
     ewald contribution        =   14171.62883739 Ry
     smearing contrib. (-TS)   =      -0.00818156 Ry

     convergence has been achieved in  34 iterations

     negative rho (up, down):  1.534E-03 0.000E+00

     Forces acting on atoms (cartesian axes, Ry/au):

     atom    1 type  4   force =     0.00000000    0.00000000    0.00101277
     atom    2 type  3   force =     0.00000000    0.00000000    0.00962579
     atom    3 type  4   force =     0.00000000    0.00000000   -0.00675910
     atom    4 type  1   force =     0.00000000    0.00000000    0.00251222
     atom    5 type  3   force =     0.00000000    0.00000000   -0.00113948
     atom    6 type  4   force =     0.00000000    0.00000000    0.00123013
     atom    7 type  4   force =     0.00000000    0.00000000    0.00203221
     atom    8 type  2   force =     0.00000000    0.00000000   -0.00118989
     atom    9 type  4   force =     0.00000000    0.00000000    0.00131132
     atom   10 type  4   force =     0.00000000    0.00000000    0.00126847
     atom   11 type  3   force =     0.00000000    0.00000000   -0.00241680
     atom   12 type  1   force =     0.00000000    0.00000000   -0.00698283
     atom   13 type  4   force =     0.00000000    0.00000000    0.01829736
     atom   14 type  4   force =     0.00000000    0.00000000   -0.00936213
     atom   15 type  3   force =     0.00000000    0.00000000   -0.00616677
     atom   16 type  4   force =     0.00000000    0.00000000    0.00667874
     atom   17 type  1   force =     0.00000000    0.00000000    0.00615061
     atom   18 type  3   force =     0.00000000    0.00000000   -0.00029341
     atom   19 type  4   force =     0.00000000    0.00000000   -0.00263511
     atom   20 type  4   force =     0.00000000    0.00000000   -0.00193027
     atom   21 type  2   force =     0.00000000    0.00000000   -0.00242249
     atom   22 type  4   force =     0.00000000    0.00000000   -0.00210589
     atom   23 type  4   force =     0.00000000    0.00000000   -0.00099133
     atom   24 type  3   force =     0.00000000    0.00000000    0.00112483
     atom   25 type  1   force =     0.00000000    0.00000000   -0.00301937
     atom   26 type  4   force =     0.00000000    0.00000000    0.00681836
     atom   27 type  3   force =     0.00000000    0.00000000   -0.00960149
     atom   28 type  4   force =     0.00000000    0.00000000   -0.00104649

     Total force =     0.014991     Total SCF correction =     0.000003

     Computing stress (Cartesian axis) and pressure

     negative rho (up, down):  1.534E-03 0.000E+00
          total   stress  (Ry/bohr**3)                   (kbar)     P=       -8.90
  -0.00003669   0.00000000   0.00000000           -5.40        0.00        0.00
   0.00000000  -0.00004515   0.00000000            0.00       -6.64        0.00
   0.00000000   0.00000000  -0.00009969            0.00        0.00      -14.67

     bfgs converged in   7 scf cycles and   6 bfgs steps
     (criteria: energy <  1.0E-03 Ry, force <  1.0E-02 Ry/Bohr)

     End of BFGS Geometry Optimization

     Final energy   =   -1842.8970922274 Ry
Begin final coordinates

ATOMIC_POSITIONS (angstrom)
O             0.0000000000        1.8611200000       -0.1871477488    0   0   0
Cu            0.0000000000        0.0000000000        0.1054036557    0   0   0
O             0.0000000000        0.0000000000        2.0043319135    0   0   0
Ba            1.9651100000        1.8611200000        2.2670300995    0   0   0
Cu            0.0000000000        0.0000000000        4.1331350223    0   0   0
O             1.9651100000        0.0000000000        4.2900443498    0   0   0
O             0.0000000000        1.8611200000        4.4290417461    0   0   0
Ca            1.9651100000        1.8611200000        5.9665889376    0   0   0
O             0.0000000000        1.8611200000        7.4372020706    0   0   0
O             1.9651100000        0.0000000000        7.5872385689    0   0   0
Cu            0.0000000000        0.0000000000        7.7738591981    0   0   0
Ba            1.9651100000        1.8611200000        9.6795082313    0   0   0
O             0.0000000000        0.0000000000       10.0060385793    0   0   0
O             0.0000000000        1.8611200000       12.1402190759
Cu            0.0000000000        0.0000000000       11.9121897670
O             0.0000000000        0.0000000000       13.8170822806
Ba            1.9651100000        1.8611200000       14.1830799345
Cu            0.0000000000        0.0000000000       16.2146492810
O             1.9651100000        0.0000000000       16.4015413747
O             0.0000000000        1.8611200000       16.5534141909
Ca            1.9651100000        1.8611200000       18.0152629355
O             0.0000000000        1.8611200000       19.5638553651    0   0   0
O             1.9651100000        0.0000000000       19.7028527615    0   0   0
Cu            0.0000000000        0.0000000000       19.8597722259    0   0   0
Ba            1.9651100000        1.8611200000       21.7258670117    0   0   0
O             0.0000000000        0.0000000000       21.9885246501    0   0   0
Cu            0.0000000000        0.0000000000       23.8874731817    0   0   0
O             0.0000000000        1.8611200000       24.1799739017    0   0   0
End final coordinates

     General routines

     Parallel routines

   This run was terminated on:  20:53:58  28Jun2021

   JOB DONE.
[1624928038.137045] [holy7c04311:87435:0]          mpool.c:43   UCX  WARN  object 0x2e926c0 was not returned to mpool ucp_requests
[1624928038.137062] [holy7c04311:87435:0]          mpool.c:43   UCX  WARN  object 0x2e92dc0 was not returned to mpool ucp_requests
[1624928038.143356] [holy7c04403:167415:0]          mpool.c:43   UCX  WARN  object 0x2c1de80 was not returned to mpool ucp_requests
[1624928038.143157] [holy7c04401:104422:0]          mpool.c:43   UCX  WARN  object 0x2cc1040 was not returned to mpool ucp_requests
[1624928038.150760] [holy7c04305:53392:0]          mpool.c:43   UCX  WARN  object 0x3a37580 was not returned to mpool ucp_requests
[1624928038.150782] [holy7c04305:53392:0]          mpool.c:43   UCX  WARN  object 0x3a37740 was not returned to mpool ucp_requests
[1624928038.150677] [holy7c04305:53393:0]          mpool.c:43   UCX  WARN  object 0x451e680 was not returned to mpool ucp_requests
[1624928038.149842] [holy7c04307:57839:0]          mpool.c:43   UCX  WARN  object 0x405fd80 was not returned to mpool ucp_requests
[1624928038.149871] [holy7c04307:57839:0]          mpool.c:43   UCX  WARN  object 0x40602c0 was not returned to mpool ucp_requests