     Program PWSCF v.6.5 starts on  7Jul2021 at 22:29:23

     R & G space division:  proc/nbgrp/npool/nimage =      20
     Reading input from CBCO_BaO_cleave_1.0_sep.pwi
Warning: card &CELL ignored
Warning: card     CELL_DYNAMICS = 'BFGS' ignored
Warning: card     PRESS_CONV_THR = 5 ignored
Warning: card / ignored

     Current dimensions of program PWSCF are:
     Max number of different atomic species (ntypx) = 10
     Max number of k-points (npk) =  40000
     Max angular momentum in pseudopotentials (lmaxx) =  3

     Message from routine setup:
     using ibrav=0 with symmetry is DISCOURAGED, use correct ibrav instead

     bravais-lattice index     =            0
     lattice parameter (alat)  =       7.4270  a.u.
     unit-cell volume          =    4401.0322 (a.u.)^3
     number of atoms/cell      =           28
     number of atomic types    =            4
     number of electrons       =       227.00
     number of Kohn-Sham states=          137
     kinetic-energy cutoff     =      60.0000  Ry
     charge density cutoff     =     720.0000  Ry
     convergence threshold     =      1.0E-10
     mixing beta               =       0.7000
     number of iterations used =           10  local-TF  mixing
     Exchange-correlation= SLA PW PBE PBE
                           (   1   4   3   4   0   0   0)
     nstep                     =          300

     celldm(1)=   7.427040  celldm(2)=   0.000000  celldm(3)=   0.000000
     celldm(4)=   0.000000  celldm(5)=   0.000000  celldm(6)=   0.000000

     crystal axes: (cart. coord. in units of alat)
               a(1) = (   1.000000   0.000000   0.000000 )
               a(2) = (   0.000000   0.947081   0.000000 )
               a(3) = (   0.000000   0.000000  11.342795 )

     reciprocal axes: (cart. coord. in units 2 pi/alat)
               b(1) = (  1.000000  0.000000  0.000000 )
               b(2) = (  0.000000  1.055876  0.000000 )
               b(3) = (  0.000000  0.000000  0.088162 )

     PseudoPot. # 1 for Ba read from file:
     ./pseudo/Ba.pbe-nsp-van.UPF
     MD5 check sum: 2b9c31dd849566dd297d80989662b7a0
     Pseudo is Ultrasoft + core correction, Zval = 10.0
     Generated by new atomic code, or converted to UPF format
     Using radial grid of  907 points,  6 beta functions with:
                l(1) =   0
                l(2) =   0
                l(3) =   1
                l(4) =   1
                l(5) =   2
                l(6) =   2
     Q(r) pseudized with  6 coefficients,  rinner =    1.200   1.200   1.200
                                                       1.200   1.200

     PseudoPot. # 2 for Ca read from file:
     ./pseudo/Ca.pbe-nsp-van.UPF
     MD5 check sum: 6471098428ff4fa451746d08035ff179
     Pseudo is Ultrasoft + core correction, Zval = 10.0
     Generated by new atomic code, or converted to UPF format
     Using radial grid of  845 points,  6 beta functions with:
                l(1) =   0
                l(2) =   0
                l(3) =   1
                l(4) =   1
                l(5) =   2
                l(6) =   2
     Q(r) pseudized with  6 coefficients,  rinner =    1.200   1.200   1.200
                                                       1.200   1.200

     PseudoPot. # 3 for Cu read from file:
     ./pseudo/Cu.pbe-n-van_ak.UPF
     MD5 check sum: 34e3282627ffb533726feb647e090d62
     Pseudo is Ultrasoft + core correction, Zval = 11.0
     Generated by new atomic code, or converted to UPF format
     Using radial grid of  867 points,  6 beta functions with:
                l(1) =   0
                l(2) =   0
                l(3) =   1
                l(4) =   1
                l(5) =   2
                l(6) =   2
     Q(r) pseudized with  8 coefficients,  rinner =    1.400   1.400   1.400
                                                       1.400   1.400

     PseudoPot. # 4 for O  read from file:
     ./pseudo/O.pbe-van_ak.UPF
     MD5 check sum: 783ce7fe4c79b6a4916957118fed0856
     Pseudo is Ultrasoft, Zval =  6.0
     Generated by new atomic code, or converted to UPF format
     Using radial grid of  737 points,  4 beta functions with:
                l(1) =   0
                l(2) =   0
                l(3) =   1
                l(4) =   1
     Q(r) pseudized with  8 coefficients,  rinner =    0.800   0.800   0.800

     atomic species   valence    mass     pseudopotential
        Ba            10.00   137.32700     Ba( 1.00)
        Ca            10.00    40.07800     Ca( 1.00)
        Cu            11.00    63.54600     Cu( 1.00)
        O              6.00    15.99900     O ( 1.00)

      2 Sym. Ops. (no inversion) found

   Cartesian axes

     site n.     atom                  positions (alat units)
         1           O   tau(   1) = (   0.0000000   0.4735409  -0.0469745  )
         2           Cu  tau(   2) = (   0.0000000   0.0000000   0.0264565  )
         3           O   tau(   3) = (   0.0000000   0.0000000   0.5030914  )
         4           Ba  tau(   4) = (   0.5000000   0.4735409   0.5690292  )
         5           Cu  tau(   5) = (   0.0000000   0.0000000   1.0374254  )
         6           O   tau(   6) = (   0.5000000   0.0000000   1.0768099  )
         7           O   tau(   7) = (   0.0000000   0.4735409   1.1116985  )
         8           Ca  tau(   8) = (   0.5000000   0.4735409   1.4976260  )
         9           O   tau(   9) = (   0.0000000   0.4735409   1.8667529  )
        10           O   tau(  10) = (   0.5000000   0.0000000   1.9044124  )
        11           Cu  tau(  11) = (   0.0000000   0.0000000   1.9512546  )
        12           Ba  tau(  12) = (   0.5000000   0.4735409   2.4295764  )
        13           O   tau(  13) = (   0.0000000   0.0000000   2.5115362  )
        14           O   tau(  14) = (   0.0000000   0.4480970   2.9664089  )
        15           Cu  tau(  15) = (   0.0000000   0.0000000   2.9664649  )
        16           O   tau(  16) = (   0.0000000   0.0000000   3.4468248  )
        17           Ba  tau(  17) = (   0.5000000   0.4989848   3.5287769  )
        18           Cu  tau(  18) = (   0.0000000   0.0000000   4.2615196  )
        19           O   tau(  19) = (   0.5000000   0.0000000   4.3338056  )
        20           O   tau(  20) = (   0.0000000   0.4989848   4.3460161  )
        21           Ca  tau(  21) = (   0.5000000   0.4480970   4.7151532  )
        22           O   tau(  22) = (   0.0000000   0.4735409   5.1265220  )
        23           O   tau(  23) = (   0.5000000   0.0000000   5.1614106  )
        24           Cu  tau(  24) = (   0.0000000   0.0000000   5.2007978  )
        25           Ba  tau(  25) = (   0.5000000   0.4735409   5.6691914  )
        26           O   tau(  26) = (   0.0000000   0.0000000   5.7351190  )
        27           Cu  tau(  27) = (   0.0000000   0.0000000   6.2117589  )
        28           O   tau(  28) = (   0.0000000   0.4735409   6.2851772  )

     number of k points=    25  Gaussian smearing, width (Ry)=  0.0100
                       cart. coord. in units 2pi/alat
        k(    1) = (   0.0000000   0.0000000   0.0000000), wk =   0.0312500
        k(    2) = (   0.0000000   0.1319845   0.0000000), wk =   0.0625000
        k(    3) = (   0.0000000   0.2639689   0.0000000), wk =   0.0625000
        k(    4) = (   0.0000000   0.3959534   0.0000000), wk =   0.0625000
        k(    5) = (   0.0000000  -0.5279378   0.0000000), wk =   0.0312500
        k(    6) = (   0.1250000   0.0000000   0.0000000), wk =   0.0625000
        k(    7) = (   0.1250000   0.1319845   0.0000000), wk =   0.1250000
        k(    8) = (   0.1250000   0.2639689   0.0000000), wk =   0.1250000
        k(    9) = (   0.1250000   0.3959534   0.0000000), wk =   0.1250000
        k(   10) = (   0.1250000  -0.5279378   0.0000000), wk =   0.0625000
        k(   11) = (   0.2500000   0.0000000   0.0000000), wk =   0.0625000
        k(   12) = (   0.2500000   0.1319845   0.0000000), wk =   0.1250000
        k(   13) = (   0.2500000   0.2639689   0.0000000), wk =   0.1250000
        k(   14) = (   0.2500000   0.3959534   0.0000000), wk =   0.1250000
        k(   15) = (   0.2500000  -0.5279378   0.0000000), wk =   0.0625000
        k(   16) = (   0.3750000   0.0000000   0.0000000), wk =   0.0625000
        k(   17) = (   0.3750000   0.1319845   0.0000000), wk =   0.1250000
        k(   18) = (   0.3750000   0.2639689   0.0000000), wk =   0.1250000
        k(   19) = (   0.3750000   0.3959534   0.0000000), wk =   0.1250000
        k(   20) = (   0.3750000  -0.5279378   0.0000000), wk =   0.0625000
        k(   21) = (  -0.5000000   0.0000000   0.0000000), wk =   0.0312500
        k(   22) = (  -0.5000000   0.1319845   0.0000000), wk =   0.0625000
        k(   23) = (  -0.5000000   0.2639689   0.0000000), wk =   0.0625000
        k(   24) = (  -0.5000000   0.3959534   0.0000000), wk =   0.0625000
        k(   25) = (  -0.5000000  -0.5279378   0.0000000), wk =   0.0312500

     Initial potential from superposition of free atoms

     starting charge  226.84630, renormalised to  227.00000

     negative rho (up, down):  3.495E-03 0.000E+00
     Starting wfcs are  195 randomized atomic wfcs

     Self-consistent Calculation

     iteration #  1     ecut=    60.00 Ry     beta= 0.70
     Davidson diagonalization with overlap
     ethr =  1.00E-02,  avg # of iterations =  2.0

     negative rho (up, down):  3.064E-04 0.000E+00

     total energy              =   -1839.42342011 Ry
     Harris-Foulkes estimate   =   -1845.34031561 Ry
     estimated scf accuracy    <      17.63151045 Ry

[...]

     iteration # 11     ecut=    60.00 Ry     beta= 0.70
     Davidson diagonalization with overlap
     c_bands:  1 eigenvalues not converged
     ethr =  4.21E-05,  avg # of iterations =  7.7

[...]

     End of self-consistent calculation

          k = 0.0000 0.0000 0.0000 ( 34661 PWs)   bands (ev):

   -35.5995 -35.5311 -23.5593 -22.8003 -22.7642 -22.6091 -17.1039 -16.9718
   -16.6501 -16.6395 -16.5983 -16.5821 -15.3154 -15.1938 -15.1075 -14.6817
   -14.6680 -14.5867 -14.4660 -14.1911 -14.1858 -13.9924 -13.9748 -13.8926
   -13.8389 -13.6070 -13.5886  -8.8058  -8.4374  -8.3225  -7.9320  -7.8941
    -7.8833  -7.8623  -7.7793  -7.7012  -7.6731  -7.6676  -7.5043  -2.4386
    -2.3390  -2.3341  -1.8386  -1.7806  -1.7802  -1.6911  -1.6809  -1.5831
    -1.5574  -1.4950  -1.4804  -1.4618  -1.3775  -1.2302  -1.2298  -1.2004
    -0.9263  -0.6448  -0.5492  -0.4679  -0.4634  -0.3937  -0.3851  -0.3827
    -0.3554  -0.2900  -0.2739  -0.2666  -0.2500  -0.2442  -0.2200  -0.2066
    -0.2029  -0.1640  -0.0460  -0.0432   0.0885   0.0895   0.0898   0.1161
     0.1430   0.1442   0.1635   0.2725   0.2953   0.2974   0.3138   0.4216
     0.5601   0.6199   0.7854   0.8725   0.8804   0.9423   0.9652   1.1723
     1.2426   1.2947   1.3358   1.3968   1.4375   1.4458   1.4786   1.4861
     1.6293   1.7574   1.8131   1.8267   1.8693   1.9199   1.9899   1.9903
     2.0287   2.0904   2.0911   2.1819   2.3204   2.5197   2.5258   5.1536
     5.2080   5.3052   5.9370   6.1200   6.5939   6.7547   6.7850   7.0707
     7.7091   7.9689   8.1202   8.2642   8.3136   8.5226   8.6052   8.7499
     9.0648

[...]

[...]
     atom    6 type  4   force =     0.00000000    0.00000424    0.00005328
     atom    7 type  4   force =     0.00000000   -0.00000303    0.00023325
     atom    8 type  2   force =     0.00000000    0.00002631   -0.00071677
     atom    9 type  4   force =     0.00000000    0.00013941    0.00079774
     atom   10 type  4   force =     0.00000000    0.00006990    0.00132355
     atom   11 type  3   force =     0.00000000   -0.00029127   -0.00285985
     atom   12 type  1   force =     0.00000000   -0.00240298   -0.00836245
     atom   13 type  4   force =     0.00000000   -0.00468618   -0.04416345
     atom   14 type  4   force =     0.00000000    0.08608629    0.01469059
     atom   15 type  3   force =     0.00000000   -0.06588189    0.04119443
     atom   16 type  4   force =     0.00000000   -0.00683713    0.01373325
     atom   17 type  1   force =     0.00000000   -0.00625283    0.00814902
     atom   18 type  3   force =     0.00000000    0.05405861    0.00180280
     atom   19 type  4   force =     0.00000000   -0.00006414   -0.01433204
     atom   20 type  4   force =     0.00000000   -0.06994834    0.00007552
     atom   21 type  2   force =     0.00000000    0.02318182    0.00150528
     atom   22 type  4   force =     0.00000000   -0.00338992   -0.00616467
     atom   23 type  4   force =     0.00000000   -0.00165901   -0.00115893
     atom   24 type  3   force =     0.00000000   -0.00246427   -0.00186404
     atom   25 type  1   force =     0.00000000    0.00022277   -0.00435193
     atom   26 type  4   force =     0.00000000    0.00009658    0.00105322
     atom   27 type  3   force =     0.00000000   -0.00007011   -0.00060270
     atom   28 type  4   force =     0.00000000    0.00005666    0.00019552

     Total force =     0.150228     Total SCF correction =     0.000022

     Computing stress (Cartesian axis) and pressure

     negative rho (up, down):  1.541E-03 0.000E+00
          total   stress  (Ry/bohr**3)                   (kbar)     P=       -3.84
  -0.00007766   0.00000000   0.00000000          -11.42        0.00        0.00
   0.00000000   0.00001205  -0.00000849            0.00        1.77       -1.25
   0.00000000  -0.00000849  -0.00001278            0.00       -1.25       -1.88

     number of scf cycles    =   2
     number of bfgs steps    =   1

     energy   old            =   -1842.8459339375 Ry
     energy   new            =   -1842.8333126341 Ry

     CASE: energy  _new > energy  _old

     new trust radius        =       0.1182285802 bohr
     new conv_thr            =            1.0E-10 Ry

ATOMIC_POSITIONS (angstrom)
O             0.0000000000        1.8611200000       -0.1838273774    0   0   0
Cu            0.0000000000        0.0000000000        0.1035335863    0   0   0
O             0.0000000000        0.0000000000        1.9687710989    0   0   0
Ba            1.9651100000        1.8611200000        2.2268084993    0   0   0
Cu            0.0000000000        0.0000000000        4.0598050278    0   0   0
O             1.9651100000        0.0000000000        4.2139304733    0   0   0
O             0.0000000000        1.8611200000        4.3504617808    0   0   0
Ca            1.9651100000        1.8611200000        5.8607298423    0   0   0
O             0.0000000000        1.8611200000        7.3052513882    0   0   0
O             1.9651100000        0.0000000000        7.4526259420    0   0   0
Cu            0.0000000000        0.0000000000        7.6359355519    0   0   0
Ba            1.9651100000        1.8611200000        9.5077746002    0   0   0
O             0.0000000000        0.0000000000        9.8285116536    0   0   0
O             0.0000000000        1.8381062815       11.6851433241
Cu            0.0000000000        0.0000000000       11.6853623796
O             0.0000000000        0.0000000000       13.5651770388
Ba            1.9651100000        1.8841337185       13.8858842211
Cu            0.0000000000        0.0000000000       16.9447526923
O             1.9651100000        0.0000000000       17.1510760207
O             0.0000000000        1.8841337185       17.2754169419
Ca            1.9651100000        1.8381062815       18.7199783160
O             0.0000000000        1.8611200000       20.2532501390    0   0   0
O             1.9651100000        0.0000000000       20.3897814465    0   0   0
Cu            0.0000000000        0.0000000000       20.5439168491    0   0   0
Ba            1.9651100000        1.8611200000       22.3769034205    0   0   0
O             0.0000000000        0.0000000000       22.6349009927    0   0   0
Cu            0.0000000000        0.0000000000       24.5001584194    0   0   0
O             0.0000000000        1.8611200000       24.7874695978    0   0   0

     NEW-OLD atomic charge density approx. for the potential

[...]

     CASE: energy  _new < energy  _old

     WARNING: bfgs curvature condition failed, Theta= 0.826
     new trust radius        =       0.0965828764 bohr
     new conv_thr            =            1.3E-12 Ry

[...]

     number of scf cycles    =  12
     number of bfgs steps    =   9

     energy   old            =   -1842.8595813299 Ry
     energy   new            =   -1842.8600888651 Ry

     CASE: energy  _new < energy  _old

     new trust radius        =       0.0669772148 bohr
     new conv_thr            =            1.0E-12 Ry

ATOMIC_POSITIONS (angstrom)
O             0.0000000000        1.8611200000       -0.1841069337    0   0   0
Cu            0.0000000000        0.0000000000        0.1036910355    0   0   0
O             0.0000000000        0.0000000000        1.9717651165    0   0   0
Ba            1.9651100000        1.8611200000        2.2301949284    0   0   0
Cu            0.0000000000        0.0000000000        4.0659789947    0   0   0
O             1.9651100000        0.0000000000        4.2203388272    0   0   0
O             0.0000000000        1.8611200000        4.3570777653    0   0   0
Ca            1.9651100000        1.8611200000        5.8696425738    0   0   0
O             0.0000000000        1.8611200000        7.3163608823    0   0   0
O             1.9651100000        0.0000000000        7.4639595567    0   0   0
Cu            0.0000000000        0.0000000000        7.6475479355    0   0   0
Ba            1.9651100000        1.8611200000        9.5222335915    0   0   0
O             0.0000000000        0.0000000000        9.8434584073    0   0   0
O             0.0000000000        1.8656768368       11.9638427404
Cu            0.0000000000        0.0095741071       11.7631732181
O             0.0000000000       -0.0083861689       13.6875555674
Ba            1.9651100000        1.8805803431       13.9990696654
Cu            0.0000000000       -0.0008009846       16.7901825179
O             1.9651100000       -0.0022966877       16.9948299818
O             0.0000000000        1.8648169672       17.1144920577
Ca            1.9651100000        1.8805753221       18.5359893643
O             0.0000000000        1.8611200000       20.2162556075    0   0   0
O             1.9651100000        0.0000000000       20.3529945456    0   0   0
Cu            0.0000000000        0.0000000000       20.5073643503    0   0   0
Ba            1.9651100000        1.8611200000       22.3431384444    0   0   0
O             0.0000000000        0.0000000000       22.6015283675    0   0   0
Cu            0.0000000000        0.0000000000       24.4696223929    0   0   0
O             0.0000000000        1.8611200000       24.7573705011    0   0   0

     NEW-OLD atomic charge density approx. for the potential

[...]

     Self-consistent Calculation

[...]

     iteration #  4     ecut=    60.00 Ry     beta= 0.70
     Davidson diagonalization with overlap
     c_bands:  1 eigenvalues not converged
     ethr =  1.43E-06,  avg # of iterations =  3.2

[...]

     total energy              =   -1842.86024261 Ry
     Harris-Foulkes estimate   =   -1842.86024261 Ry
     estimated scf accuracy    <          5.5E-12 Ry

     iteration # 31     ecut=    60.00 Ry     beta= 0.70
     Davidson diagonalization with overlap
     ethr =  1.00E-13,  avg # of iterations =  1.0

[...]

     End of self-consistent calculation

[...]

          k = 0.3750-0.5279 0.0000 ( 34580 PWs)   bands (ev):

[...]

          k =-0.5000-0.5279 0.0000 ( 34620 PWs)   bands (ev):

   -35.6695 -35.5877 -23.0008 -22.5332 -22.4929 -22.4845 -17.0590 -17.0480
   -17.0400 -17.0317 -16.6658 -16.6528 -14.6572 -14.6489 -14.4696 -14.4209
   -14.3906 -14.3069 -14.1820 -14.1290 -14.0767 -14.0760 -14.0278 -13.9810
   -13.9569 -13.6630 -13.6200  -9.1512  -8.7684  -8.7259  -8.6808  -8.6764
    -8.5006  -8.4609  -8.3728  -8.3621  -8.0385  -7.9714  -7.9686  -4.1227
    -3.9814  -3.7980  -3.5706  -3.5350  -3.1881  -3.1862  -2.7601  -2.7311
    -2.6040  -2.4363  -2.3346  -2.3250  -2.3102  -2.2267  -2.0035  -1.9832
    -1.9301  -1.6431  -1.3784  -1.3601  -1.3391  -1.2017  -1.1710  -1.0496
    -1.0073  -1.0066  -1.0040  -0.9234  -0.8460  -0.8435  -0.6993  -0.5369
    -0.4614  -0.3672  -0.3629   0.1940   0.2915   0.4000   0.5418   0.8216
     1.0024   1.2655   1.3060   1.3279   1.3377   1.3459   1.3746   1.4081
     1.4410   1.6040   1.6061   1.6987   1.7243   1.7630   1.7959   1.8304
     1.8743   1.8913   1.9420   1.9519   1.9813   2.0111   2.0515   2.0658
     2.1527   2.2770   2.3142   2.3165   2.3836   2.4108   2.5260   2.5323
     2.5395   2.6287   4.0566   4.6836   4.7250   4.7482   4.8309   5.1552
     5.9498   5.9616   6.6902   7.0772   7.8760   8.1947   8.5794   8.9887
     9.0208   9.0406   9.1699   9.2057   9.2573   9.3958   9.8085   9.8615
     9.9428

     the Fermi energy is     2.5479 ev

!    total energy              =   -1842.86024261 Ry
     Harris-Foulkes estimate   =   -1842.86024261 Ry
     estimated scf accuracy    <          9.7E-13 Ry

     The total energy is the sum of the following terms:

     one-electron contribution =  -28821.79005341 Ry
     hartree contribution      =   14563.66169012 Ry
     xc contribution           =    -621.54521651 Ry
     ewald contribution        =   13036.82068623 Ry
     smearing contrib. (-TS)   =      -0.00734904 Ry

     convergence has been achieved in  31 iterations

     negative rho (up, down):  1.552E-03 0.000E+00

     Forces acting on atoms (cartesian axes, Ry/au):

     atom    1 type  4   force =     0.00000000   -0.00000023   -0.00047925
     atom    2 type  3   force =     0.00000000    0.00000058   -0.00158991
     atom    3 type  4   force =     0.00000000   -0.00000042    0.00053083
     atom    4 type  1   force =     0.00000000   -0.00000056   -0.00088703
     atom    5 type  3   force =     0.00000000    0.00000149    0.00103036
     atom    6 type  4   force =     0.00000000    0.00000062    0.00003827
     atom    7 type  4   force =     0.00000000   -0.00000323    0.00003529
     atom    8 type  2   force =     0.00000000    0.00000466   -0.00157862
     atom    9 type  4   force =     0.00000000    0.00008839    0.00305230
     atom   10 type  4   force =     0.00000000   -0.00001052    0.00273693
     atom   11 type  3   force =     0.00000000    0.00000300   -0.00143863
     atom   12 type  1   force =     0.00000000    0.00020807   -0.00337292
     atom   13 type  4   force =     0.00000000    0.00110979    0.02454032
     atom   14 type  4   force =     0.00000000    0.00173488   -0.00081585
     atom   15 type  3   force =     0.00000000   -0.00510555   -0.00888548
     atom   16 type  4   force =     0.00000000    0.00283636    0.00241919
     atom   17 type  1   force =     0.00000000   -0.00098619    0.00956699
     atom   18 type  3   force =     0.00000000    0.00320154   -0.00314693
     atom   19 type  4   force =     0.00000000    0.00191175   -0.00164492
     atom   20 type  4   force =     0.00000000   -0.00244090    0.00105077
     atom   21 type  2   force =     0.00000000   -0.00349237    0.00306833
     atom   22 type  4   force =     0.00000000    0.00041098   -0.00912733
     atom   23 type  4   force =     0.00000000    0.00012186   -0.00701565
     atom   24 type  3   force =     0.00000000    0.00045970   -0.00379079
     atom   25 type  1   force =     0.00000000   -0.00004275   -0.00592251
     atom   26 type  4   force =     0.00000000   -0.00001152   -0.00030604
     atom   27 type  3   force =     0.00000000    0.00000506    0.00141706
     atom   28 type  4   force =     0.00000000   -0.00000449    0.00051522

     Total force =     0.016440     Total SCF correction =     0.000001

     Computing stress (Cartesian axis) and pressure

     negative rho (up, down):  1.552E-03 0.000E+00
          total   stress  (Ry/bohr**3)                   (kbar)     P=      -10.13
  -0.00007128   0.00000000   0.00000000          -10.49        0.00        0.00
   0.00000000  -0.00004212  -0.00000088            0.00       -6.20       -0.13
   0.00000000  -0.00000088  -0.00009321            0.00       -0.13      -13.71

     bfgs converged in  13 scf cycles and  10 bfgs steps
     (criteria: energy <  1.0E-03 Ry, force <  1.0E-02 Ry/Bohr)

     End of BFGS Geometry Optimization

     Final energy   =   -1842.8602426110 Ry
Begin final coordinates

ATOMIC_POSITIONS (angstrom)
O             0.0000000000        1.8611200000       -0.1841069337    0   0   0
Cu            0.0000000000        0.0000000000        0.1036910355    0   0   0
O             0.0000000000        0.0000000000        1.9717651165    0   0   0
Ba            1.9651100000        1.8611200000        2.2301949284    0   0   0
Cu            0.0000000000        0.0000000000        4.0659789947    0   0   0
O             1.9651100000        0.0000000000        4.2203388272    0   0   0
O             0.0000000000        1.8611200000        4.3570777653    0   0   0
Ca            1.9651100000        1.8611200000        5.8696425738    0   0   0
O             0.0000000000        1.8611200000        7.3163608823    0   0   0
O             1.9651100000        0.0000000000        7.4639595567    0   0   0
Cu            0.0000000000        0.0000000000        7.6475479355    0   0   0
Ba            1.9651100000        1.8611200000        9.5222335915    0   0   0
O             0.0000000000        0.0000000000        9.8434584073    0   0   0
O             0.0000000000        1.8656768368       11.9638427404
Cu            0.0000000000        0.0095741071       11.7631732181
O             0.0000000000       -0.0083861689       13.6875555674
Ba            1.9651100000        1.8805803431       13.9990696654
Cu            0.0000000000       -0.0008009846       16.7901825179
O             1.9651100000       -0.0022966877       16.9948299818
O             0.0000000000        1.8648169672       17.1144920577
Ca            1.9651100000        1.8805753221       18.5359893643
O             0.0000000000        1.8611200000       20.2162556075    0   0   0
O             1.9651100000        0.0000000000       20.3529945456    0   0   0
Cu            0.0000000000        0.0000000000       20.5073643503    0   0   0
Ba            1.9651100000        1.8611200000       22.3431384444    0   0   0
O             0.0000000000        0.0000000000       22.6015283675    0   0   0
Cu            0.0000000000        0.0000000000       24.4696223929    0   0   0
O             0.0000000000        1.8611200000       24.7573705011    0   0   0
End final coordinates

     General routines

     Parallel routines

   This run was terminated on:  23:54: 0   7Jul2021

   JOB DONE.
[1625716440.562412] [holy7c04406:58309:0]          mpool.c:43   UCX  WARN  object 0x38e0980 was not returned to mpool ucp_requests
[1625716440.562990] [holy7c04207:142232:0]          mpool.c:43   UCX  WARN  object 0x438ab00 was not returned to mpool ucp_requests
[1625716440.575378] [holy7c04207:142231:0]          mpool.c:43   UCX  WARN  object 0x44d6540 was not returned to mpool ucp_requests
[1625716440.574902] [holy7c04207:142237:0]          mpool.c:43   UCX  WARN  object 0x45ec4c0 was not returned to mpool ucp_requests
[1625716440.574923] [holy7c04207:142237:0]          mpool.c:43   UCX  WARN  object 0x45ecd80 was not returned to mpool ucp_requests
[1625716440.562754] [holy7c04406:58310:0]          mpool.c:43   UCX  WARN  object 0x46bbe80 was not returned to mpool ucp_requests
[1625716440.563082] [holy7c04406:58308:0]          mpool.c:43   UCX  WARN  object 0x43c0f00 was not returned to mpool ucp_requests
[1625716440.563112] [holy7c04406:58308:0]          mpool.c:43   UCX  WARN  object 0x43c1440 was not returned to mpool ucp_requests
[1625716440.563147] [holy7c04406:58306:0]          mpool.c:43   UCX  WARN  object 0x29089c0 was not returned to mpool ucp_requests
[1625716440.574781] [holy7c04207:142233:0]          mpool.c:43   UCX  WARN  object 0x31efa00 was not returned to mpool ucp_requests