     Program PWSCF v.6.5 starts on 28Jun2021 at 18:45:16

     R & G space division:  proc/nbgrp/npool/nimage =      20
     Reading input from CBCO_BaO_cleave_0.5_sep.pwi
Warning: card &CELL ignored
Warning: card     CELL_DYNAMICS = 'BFGS' ignored
Warning: card     PRESS_CONV_THR = 5 ignored
Warning: card / ignored

     Current dimensions of program PWSCF are:
     Max number of different atomic species (ntypx) = 10
     Max number of k-points (npk) =  40000
     Max angular momentum in pseudopotentials (lmaxx) =  3

     Message from routine setup:
     using ibrav=0 with symmetry is DISCOURAGED, use correct ibrav instead

     bravais-lattice index     =            0
     lattice parameter (alat)  =       7.4270  a.u.
     unit-cell volume          =    4351.6708 (a.u.)^3
     number of atoms/cell      =           28
     number of atomic types    =            4
     number of electrons       =       227.00
     number of Kohn-Sham states=          137
     kinetic-energy cutoff     =      60.0000  Ry
     charge density cutoff     =     720.0000  Ry
     convergence threshold     =      1.0E-10
     mixing beta               =       0.7000
     number of iterations used =           10  local-TF  mixing
     Exchange-correlation= SLA PW PBE PBE
                           (   1   4   3   4   0   0   0)
     nstep                     =          300

     celldm(1)=   7.427040  celldm(2)=   0.000000  celldm(3)=   0.000000
     celldm(4)=   0.000000  celldm(5)=   0.000000  celldm(6)=   0.000000

     crystal axes: (cart. coord. in units of alat)
               a(1) = (   1.000000   0.000000   0.000000 )
               a(2) = (   0.000000   0.947081   0.000000 )
               a(3) = (   0.000000   0.000000  11.215576 )

     reciprocal axes: (cart. coord. in units 2 pi/alat)
               b(1) = (  1.000000  0.000000  0.000000 )
               b(2) = (  0.000000  1.055876  0.000000 )
               b(3) = (  0.000000  0.000000  0.089162 )

     PseudoPot. # 1 for Ba read from file:
     ./pseudo/Ba.pbe-nsp-van.UPF
     MD5 check sum: 2b9c31dd849566dd297d80989662b7a0
     Pseudo is Ultrasoft + core correction, Zval = 10.0
     Generated by new atomic code, or converted to UPF format
     Using radial grid of  907 points,  6 beta functions with:
                l(1) =   0
                l(2) =   0
                l(3) =   1
                l(4) =   1
                l(5) =   2
                l(6) =   2
     Q(r) pseudized with  6 coefficients,  rinner =    1.200   1.200   1.200
                                                       1.200   1.200

     PseudoPot. # 2 for Ca read from file:
     ./pseudo/Ca.pbe-nsp-van.UPF
     MD5 check sum: 6471098428ff4fa451746d08035ff179
     Pseudo is Ultrasoft + core correction, Zval = 10.0
     Generated by new atomic code, or converted to UPF format
     Using radial grid of  845 points,  6 beta functions with:
                l(1) =   0
                l(2) =   0
                l(3) =   1
                l(4) =   1
                l(5) =   2
                l(6) =   2
     Q(r) pseudized with  6 coefficients,  rinner =    1.200   1.200   1.200
                                                       1.200   1.200

     PseudoPot. # 3 for Cu read from file:
     ./pseudo/Cu.pbe-n-van_ak.UPF
     MD5 check sum: 34e3282627ffb533726feb647e090d62
     Pseudo is Ultrasoft + core correction, Zval = 11.0
     Generated by new atomic code, or converted to UPF format
     Using radial grid of  867 points,  6 beta functions with:
                l(1) =   0
                l(2) =   0
                l(3) =   1
                l(4) =   1
                l(5) =   2
                l(6) =   2
     Q(r) pseudized with  8 coefficients,  rinner =    1.400   1.400   1.400
                                                       1.400   1.400

     PseudoPot. # 4 for O  read from file:
     ./pseudo/O.pbe-van_ak.UPF
     MD5 check sum: 783ce7fe4c79b6a4916957118fed0856
     Pseudo is Ultrasoft, Zval =  6.0
     Generated by new atomic code, or converted to UPF format
     Using radial grid of  737 points,  4 beta functions with:
                l(1) =   0
                l(2) =   0
                l(3) =   1
                l(4) =   1
     Q(r) pseudized with  8 coefficients,  rinner =    0.800   0.800   0.800

     atomic species   valence    mass     pseudopotential
        Ba            10.00   137.32700     Ba( 1.00)
        Ca            10.00    40.07800     Ca( 1.00)
        Cu            11.00    63.54600     Cu( 1.00)
        O              6.00    15.99900     O ( 1.00)

      4 Sym. Ops. (no inversion) found

   Cartesian axes

     site n.     atom                  positions (alat units)
         1           O   tau(   1) = (   0.0000000   0.4735409  -0.0469745  )
         2           Cu  tau(   2) = (   0.0000000   0.0000000   0.0264565  )
         3           O   tau(   3) = (   0.0000000   0.0000000   0.5030914  )
         4           Ba  tau(   4) = (   0.5000000   0.4735409   0.5690292  )
         5           Cu  tau(   5) = (   0.0000000   0.0000000   1.0374254  )
         6           O   tau(   6) = (   0.5000000   0.0000000   1.0768099  )
         7           O   tau(   7) = (   0.0000000   0.4735409   1.1116985  )
         8           Ca  tau(   8) = (   0.5000000   0.4735409   1.4976260  )
         9           O   tau(   9) = (   0.0000000   0.4735409   1.8667529  )
        10           O   tau(  10) = (   0.5000000   0.0000000   1.9044124  )
        11           Cu  tau(  11) = (   0.0000000   0.0000000   1.9512546  )
        12           Ba  tau(  12) = (   0.5000000   0.4735409   2.4295764  )
        13           O   tau(  13) = (   0.0000000   0.0000000   2.5115362  )
        14           O   tau(  14) = (   0.0000000   0.4735409   2.9918528  )
        15           Cu  tau(  15) = (   0.0000000   0.0000000   2.9919088  )
        16           O   tau(  16) = (   0.0000000   0.0000000   3.4722686  )
        17           Ba  tau(  17) = (   0.5000000   0.4735409   3.5542208  )
        18           Cu  tau(  18) = (   0.0000000   0.0000000   4.1597441  )
        19           O   tau(  19) = (   0.5000000   0.0000000   4.2065863  )
        20           O   tau(  20) = (   0.0000000   0.4735409   4.2442406  )
        21           Ca  tau(  21) = (   0.5000000   0.4735409   4.6133777  )
        22           O   tau(  22) = (   0.0000000   0.4735409   4.9993027  )
        23           O   tau(  23) = (   0.5000000   0.0000000   5.0341913  )
        24           Cu  tau(  24) = (   0.0000000   0.0000000   5.0735784  )
        25           Ba  tau(  25) = (   0.5000000   0.4735409   5.5419720  )
        26           O   tau(  26) = (   0.0000000   0.0000000   5.6078996  )
        27           Cu  tau(  27) = (   0.0000000   0.0000000   6.0845396  )
        28           O   tau(  28) = (   0.0000000   0.4735409   6.1579579  )

     number of k points=    25  Gaussian smearing, width (Ry)=  0.0100
                       cart. coord. in units 2pi/alat
        k(    1) = (   0.0000000   0.0000000   0.0000000), wk =   0.0312500
        k(    2) = (   0.0000000   0.1319845   0.0000000), wk =   0.0625000
        k(    3) = (   0.0000000   0.2639689   0.0000000), wk =   0.0625000
        k(    4) = (   0.0000000   0.3959534   0.0000000), wk =   0.0625000
        k(    5) = (   0.0000000  -0.5279378   0.0000000), wk =   0.0312500
        k(    6) = (   0.1250000   0.0000000   0.0000000), wk =   0.0625000
        k(    7) = (   0.1250000   0.1319845   0.0000000), wk =   0.1250000
        k(    8) = (   0.1250000   0.2639689   0.0000000), wk =   0.1250000
        k(    9) = (   0.1250000   0.3959534   0.0000000), wk =   0.1250000
        k(   10) = (   0.1250000  -0.5279378   0.0000000), wk =   0.0625000
        k(   11) = (   0.2500000   0.0000000   0.0000000), wk =   0.0625000
        k(   12) = (   0.2500000   0.1319845   0.0000000), wk =   0.1250000
        k(   13) = (   0.2500000   0.2639689   0.0000000), wk =   0.1250000
        k(   14) = (   0.2500000   0.3959534   0.0000000), wk =   0.1250000
        k(   15) = (   0.2500000  -0.5279378   0.0000000), wk =   0.0625000
        k(   16) = (   0.3750000   0.0000000   0.0000000), wk =   0.0625000
        k(   17) = (   0.3750000   0.1319845   0.0000000), wk =   0.1250000
        k(   18) = (   0.3750000   0.2639689   0.0000000), wk =   0.1250000
        k(   19) = (   0.3750000   0.3959534   0.0000000), wk =   0.1250000
        k(   20) = (   0.3750000  -0.5279378   0.0000000), wk =   0.0625000
        k(   21) = (  -0.5000000   0.0000000   0.0000000), wk =   0.0312500
        k(   22) = (  -0.5000000   0.1319845   0.0000000), wk =   0.0625000
        k(   23) = (  -0.5000000   0.2639689   0.0000000), wk =   0.0625000
        k(   24) = (  -0.5000000   0.3959534   0.0000000), wk =   0.0625000
        k(   25) = (  -0.5000000  -0.5279378   0.0000000), wk =   0.0312500

     Initial potential from superposition of free atoms

     starting charge  226.84630, renormalised to  227.00000

     negative rho (up, down):  3.431E-03 0.000E+00
     Starting wfcs are  195 randomized atomic wfcs

     Self-consistent Calculation

     iteration #  1     ecut=    60.00 Ry     beta= 0.70
     Davidson diagonalization with overlap
     ethr =  1.00E-02,  avg # of iterations =  2.0

     negative rho (up, down):  2.937E-04 0.000E+00

     total energy              =   -1839.47280301 Ry
     Harris-Foulkes estimate   =   -1845.34817370 Ry
     estimated scf accuracy    <      17.56059015 Ry

[...]

     iteration # 20     ecut=    60.00 Ry     beta= 0.70
     Davidson diagonalization with overlap
     c_bands:  1 eigenvalues not converged
     ethr =  2.30E-07,  avg # of iterations = 10.6

[...]

     iteration # 24     ecut=    60.00 Ry     beta= 0.70
     Davidson diagonalization with overlap
     c_bands:  1 eigenvalues not converged
     ethr =  4.99E-09,  avg # of iterations =  2.1

[...]

     End of self-consistent calculation

          k = 0.0000 0.0000 0.0000 ( 34267 PWs)   bands (ev):

   -35.5494 -35.4540 -22.9967 -22.7539 -22.7533 -22.5015 -17.0538 -16.9400
   -16.6004 -16.5892 -16.5128 -16.4996 -15.2643 -15.1854 -14.8253 -14.6344
   -14.6278 -14.5348 -14.4091 -14.1444 -14.1427 -13.9447 -13.9260 -13.7871
   -13.6652 -13.5973 -13.4526  -8.2217  -7.9317  -7.8852  -7.8833  -7.8477
    -7.8474  -7.7989  -7.6835  -7.6547  -7.6542  -7.5464  -7.3795  -2.2934
    -2.2927  -2.0514  -1.7923  -1.7897  -1.7280  -1.6312  -1.6048  -1.5779
    -1.5027  -1.4442  -1.4255  -1.3346  -1.1844  -1.1832  -1.0312  -0.8137
    -0.6824  -0.5684  -0.4224  -0.4214  -0.3427  -0.3391  -0.2709  -0.2579
    -0.2284  -0.2275  -0.2137  -0.2077  -0.1557  -0.1381  -0.1291  -0.1208
    -0.1042  -0.0750  -0.0014   0.0002   0.1350   0.1361   0.1362   0.1386
     0.1965   0.2104   0.2327   0.3461   0.3469   0.3620   0.4050   0.4276
     0.5498   0.7176   0.8318   0.9185   0.9190   0.9808   1.0131   1.2202
     1.2554   1.3859   1.3986   1.4098   1.4361   1.4912   1.5554   1.5582
     1.7257   1.8000   1.8101   1.8637   1.9288   1.9363   2.0684   2.0724
     2.0774   2.1484   2.1948   2.2938   2.3036   2.5651   2.5730   5.2451
[...]
     atom    6 type  4   force =     0.00000000    0.00000000   -0.00001150
     atom    7 type  4   force =     0.00000000    0.00000000    0.00027295
     atom    8 type  2   force =     0.00000000    0.00000000   -0.00061016
     atom    9 type  4   force =     0.00000000    0.00000000    0.00025768
     atom   10 type  4   force =     0.00000000    0.00000000    0.00020971
     atom   11 type  3   force =     0.00000000    0.00000000    0.00007371
     atom   12 type  1   force =     0.00000000    0.00000000   -0.00044628
     atom   13 type  4   force =     0.00000000    0.00000000    0.00365697
     atom   14 type  4   force =     0.00000000    0.00000000    0.00613334
     atom   15 type  3   force =     0.00000000    0.00000000   -0.00316892
     atom   16 type  4   force =     0.00000000    0.00000000    0.00440008
     atom   17 type  1   force =     0.00000000    0.00000000    0.01896705
     atom   18 type  3   force =     0.00000000    0.00000000   -0.00286379
     atom   19 type  4   force =     0.00000000    0.00000000   -0.00929510
     atom   20 type  4   force =     0.00000000    0.00000000   -0.00693877
     atom   21 type  2   force =     0.00000000    0.00000000   -0.01247429
     atom   22 type  4   force =     0.00000000    0.00000000    0.00025327
     atom   23 type  4   force =     0.00000000    0.00000000    0.00114724
     atom   24 type  3   force =     0.00000000    0.00000000   -0.00031345
     atom   25 type  1   force =     0.00000000    0.00000000    0.00027768
     atom   26 type  4   force =     0.00000000    0.00000000    0.00099438
     atom   27 type  3   force =     0.00000000    0.00000000   -0.00054479
     atom   28 type  4   force =     0.00000000    0.00000000    0.00024105

     Total force =     0.026928     Total SCF correction =     0.000023

     Computing stress (Cartesian axis) and pressure

     negative rho (up, down):  1.509E-03 0.000E+00
          total   stress  (Ry/bohr**3)                   (kbar)     P=       -5.99
  -0.00004584   0.00000000   0.00000000           -6.74        0.00        0.00
   0.00000000  -0.00002903   0.00000000            0.00       -4.27        0.00
   0.00000000   0.00000000  -0.00004723            0.00        0.00       -6.95

     BFGS Geometry Optimization

     number of scf cycles    =   1
     number of bfgs steps    =   0

     energy   new            =   -1842.8838908146 Ry

     new trust radius        =       0.0189670471 bohr
     new conv_thr            =            1.0E-10 Ry

ATOMIC_POSITIONS (angstrom)
O             0.0000000000        1.8611200000       -0.1846200000    0   0   0
Cu            0.0000000000        0.0000000000        0.1039800000    0   0   0
O             0.0000000000        0.0000000000        1.9772600000    0   0   0
Ba            1.9651100000        1.8611200000        2.2364100000    0   0   0
Cu            0.0000000000        0.0000000000        4.0773100000    0   0   0
O             1.9651100000        0.0000000000        4.2321000000    0   0   0
O             0.0000000000        1.8611200000        4.3692200000    0   0   0
Ca            1.9651100000        1.8611200000        5.8860000000    0   0   0
O             0.0000000000        1.8611200000        7.3367500000    0   0   0
O             1.9651100000        0.0000000000        7.4847600000    0   0   0
Cu            0.0000000000        0.0000000000        7.6688600000    0   0   0
Ba            1.9651100000        1.8611200000        9.5487700000    0   0   0
O             0.0000000000        0.0000000000        9.8708900000    0   0   0
O             0.0000000000        1.8611200000       11.7618856239
Cu            0.0000000000        0.0000000000       11.7571830817
O             0.0000000000        0.0000000000       13.6491084242
Ba            1.9651100000        1.8611200000       13.9789069290
Cu            0.0000000000        0.0000000000       16.3471945493
O             1.9651100000        0.0000000000       16.5278912441
O             0.0000000000        1.8611200000       16.6771281601
Ca            1.9651100000        1.8611200000       18.1249888914
O             0.0000000000        1.8611200000       19.6483600000    0   0   0
O             1.9651100000        0.0000000000       19.7854800000    0   0   0
Cu            0.0000000000        0.0000000000       19.9402800000    0   0   0
Ba            1.9651100000        1.8611200000       21.7811700000    0   0   0
O             0.0000000000        0.0000000000       22.0402800000    0   0   0
Cu            0.0000000000        0.0000000000       23.9135800000    0   0   0
O             0.0000000000        1.8611200000       24.2021300000    0   0   0

     NEW-OLD atomic charge density approx. for the potential

[...]

     energy   old            =   -1842.8838908146 Ry
     energy   new            =   -1842.8845932472 Ry

     CASE: energy  _new < energy  _old

     WARNING: bfgs curvature condition failed, Theta= 0.853
     new trust radius        =       0.0208637518 bohr
     new conv_thr            =            1.0E-12 Ry

[...]

     energy   new            =   -1842.8867910130 Ry

[...]

     WARNING: bfgs curvature condition failed, Theta= 0.833
     new trust radius        =       0.0167677384 bohr
     new conv_thr            =            1.0E-12 Ry

[...]

     number of scf cycles    =   5
     number of bfgs steps    =   4

     energy   old            =   -1842.8883599834 Ry
     energy   new            =   -1842.8892614440 Ry

     CASE: energy  _new < energy  _old

     new trust radius        =       0.0565911172 bohr
     new conv_thr            =            1.0E-12 Ry

ATOMIC_POSITIONS (angstrom)
O             0.0000000000        1.8611200000       -0.1846200000    0   0   0
Cu            0.0000000000        0.0000000000        0.1039800000    0   0   0
O             0.0000000000        0.0000000000        1.9772600000    0   0   0
Ba            1.9651100000        1.8611200000        2.2364100000    0   0   0
Cu            0.0000000000        0.0000000000        4.0773100000    0   0   0
O             1.9651100000        0.0000000000        4.2321000000    0   0   0
O             0.0000000000        1.8611200000        4.3692200000    0   0   0
Ca            1.9651100000        1.8611200000        5.8860000000    0   0   0
O             0.0000000000        1.8611200000        7.3367500000    0   0   0
O             1.9651100000        0.0000000000        7.4847600000    0   0   0
Cu            0.0000000000        0.0000000000        7.6688600000    0   0   0
Ba            1.9651100000        1.8611200000        9.5487700000    0   0   0
O             0.0000000000        0.0000000000        9.8708900000    0   0   0
O             0.0000000000        1.8611200000       11.8061446912
Cu            0.0000000000        0.0000000000       11.7670698733
O             0.0000000000        0.0000000000       13.6688176400
Ba            1.9651100000        1.8611200000       14.0950810732
Cu            0.0000000000        0.0000000000       16.3209635847
O             1.9651100000        0.0000000000       16.4609559689
O             0.0000000000        1.8611200000       16.6311312710
Ca            1.9651100000        1.8611200000       18.0698457220
O             0.0000000000        1.8611200000       19.6483600000    0   0   0
O             1.9651100000        0.0000000000       19.7854800000    0   0   0
Cu            0.0000000000        0.0000000000       19.9402800000    0   0   0
Ba            1.9651100000        1.8611200000       21.7811700000    0   0   0
O             0.0000000000        0.0000000000       22.0402800000    0   0   0
Cu            0.0000000000        0.0000000000       23.9135800000    0   0   0
O             0.0000000000        1.8611200000       24.2021300000    0   0   0

     NEW-OLD atomic charge density approx. for the potential

[...]

     Self-consistent Calculation

[...]

     total energy              =   -1842.89039976 Ry
     Harris-Foulkes estimate   =   -1842.89039976 Ry
     estimated scf accuracy    <          1.7E-12 Ry

     iteration # 32     ecut=    60.00 Ry     beta= 0.70
     Davidson diagonalization with overlap
     ethr =  1.00E-13,  avg # of iterations =  1.0

[...]

     End of self-consistent calculation

[...]

          k = 0.3750-0.5279 0.0000 ( 34192 PWs)   bands (ev):

[...]

          k =-0.5000-0.5279 0.0000 ( 34236 PWs)   bands (ev):

   -35.6022 -35.5346 -22.6408 -22.4832 -22.4667 -22.2694 -17.0087 -16.9996
   -16.9802 -16.9714 -16.6245 -16.5950 -14.5787 -14.5757 -14.4039 -14.3673
   -14.2334 -14.1933 -14.1775 -14.0617 -14.0228 -14.0193 -13.9809 -13.9458
   -13.9035 -13.7724 -13.5813  -8.7733  -8.7161  -8.7025  -8.4835  -8.4482
    -8.4350  -8.4329  -8.1357  -8.0160  -7.9808  -7.9567  -7.7572  -4.0535
    -3.9957  -3.7310  -3.6234  -3.5156  -3.1267  -3.1265  -2.6992  -2.6904
    -2.5350  -2.4917  -2.2566  -2.2516  -2.2489  -2.2340  -1.9933  -1.9455
    -1.9045  -1.6532  -1.3148  -1.3100  -1.2084  -1.1370  -1.1306  -0.9879
    -0.9807  -0.9476  -0.9474  -0.8612  -0.8448  -0.7823  -0.7615  -0.5448
    -0.4603  -0.2949  -0.2939   0.2539   0.3500   0.4794   0.7414   0.8837
     1.0974   1.3269   1.3779   1.3851   1.3889   1.3992   1.4360   1.4402
     1.4809   1.6676   1.6862   1.7330   1.7837   1.8029   1.8615   1.9244
     1.9261   1.9403   2.0192   2.0344   2.0873   2.1114   2.1623   2.1978
     2.2385   2.3331   2.3750   2.3821   2.4150   2.4616   2.5703   2.5822
     2.5917   2.6488   4.2584   4.7442   4.7626   4.8128   4.8982   5.6194
     6.0071   6.0100   6.8534   7.1518   8.5647   8.7772   8.8001   9.0703
     9.0765   9.1194   9.3543   9.5650   9.5697   9.6831   9.9337   9.9821
    10.0396

     the Fermi energy is     2.6024 ev

!    total energy              =   -1842.89039976 Ry
     Harris-Foulkes estimate   =   -1842.89039976 Ry
     estimated scf accuracy    <          7.3E-13 Ry

     The total energy is the sum of the following terms:

     one-electron contribution =  -29999.72834328 Ry
     hartree contribution      =   15153.29282463 Ry
     xc contribution           =    -621.65166401 Ry
     ewald contribution        =   13625.20495749 Ry
     smearing contrib. (-TS)   =      -0.00817458 Ry

     convergence has been achieved in  32 iterations

     negative rho (up, down):  1.505E-03 0.000E+00

     Forces acting on atoms (cartesian axes, Ry/au):

     atom    1 type  4   force =     0.00000000    0.00000000   -0.00019148
     atom    2 type  3   force =     0.00000000    0.00000000    0.00043997
     atom    3 type  4   force =     0.00000000    0.00000000   -0.00078272
     atom    4 type  1   force =     0.00000000    0.00000000   -0.00027149
     atom    5 type  3   force =     0.00000000    0.00000000    0.00057246
     atom    6 type  4   force =     0.00000000    0.00000000    0.00003526
     atom    7 type  4   force =     0.00000000    0.00000000    0.00028685
     atom    8 type  2   force =     0.00000000    0.00000000   -0.00077000
     atom    9 type  4   force =     0.00000000    0.00000000    0.00077595
     atom   10 type  4   force =     0.00000000    0.00000000    0.00057523
     atom   11 type  3   force =     0.00000000    0.00000000   -0.00020044
     atom   12 type  1   force =     0.00000000    0.00000000    0.00118128
     atom   13 type  4   force =     0.00000000    0.00000000    0.00826215
     atom   14 type  4   force =     0.00000000    0.00000000    0.00411789
     atom   15 type  3   force =     0.00000000    0.00000000    0.00140521
     atom   16 type  4   force =     0.00000000    0.00000000    0.00284698
     atom   17 type  1   force =     0.00000000    0.00000000    0.00837116
     atom   18 type  3   force =     0.00000000    0.00000000   -0.00317828
     atom   19 type  4   force =     0.00000000    0.00000000   -0.00621580
     atom   20 type  4   force =     0.00000000    0.00000000   -0.00383421
     atom   21 type  2   force =     0.00000000    0.00000000   -0.00163850
     atom   22 type  4   force =     0.00000000    0.00000000   -0.00423820
     atom   23 type  4   force =     0.00000000    0.00000000   -0.00414984
     atom   24 type  3   force =     0.00000000    0.00000000   -0.00173487
     atom   25 type  1   force =     0.00000000    0.00000000   -0.00232432
     atom   26 type  4   force =     0.00000000    0.00000000    0.00095538
     atom   27 type  3   force =     0.00000000    0.00000000   -0.00060140
     atom   28 type  4   force =     0.00000000    0.00000000    0.00030576

     Total force =     0.012776     Total SCF correction =     0.000003

     Computing stress (Cartesian axis) and pressure

     negative rho (up, down):  1.505E-03 0.000E+00
          total   stress  (Ry/bohr**3)                   (kbar)     P=       -7.06
  -0.00003732   0.00000000   0.00000000           -5.49        0.00        0.00
   0.00000000  -0.00003466   0.00000000            0.00       -5.10        0.00
   0.00000000   0.00000000  -0.00007190            0.00        0.00      -10.58

     BFGS Geometry Optimization

     bfgs converged in   1 scf cycles and   0 bfgs steps
     (criteria: energy <  1.0E-03 Ry, force <  1.0E-02 Ry/Bohr)

     End of BFGS Geometry Optimization

     Final energy   =   -1842.8903997637 Ry
Begin final coordinates

ATOMIC_POSITIONS (angstrom)
O             0.0000000000        1.8611200000       -0.1846200000    0   0   0
Cu            0.0000000000        0.0000000000        0.1039800000    0   0   0
O             0.0000000000        0.0000000000        1.9772600000    0   0   0
Ba            1.9651100000        1.8611200000        2.2364100000    0   0   0
Cu            0.0000000000        0.0000000000        4.0773100000    0   0   0
O             1.9651100000        0.0000000000        4.2321000000    0   0   0
O             0.0000000000        1.8611200000        4.3692200000    0   0   0
Ca            1.9651100000        1.8611200000        5.8860000000    0   0   0
O             0.0000000000        1.8611200000        7.3367500000    0   0   0
O             1.9651100000        0.0000000000        7.4847600000    0   0   0
Cu            0.0000000000        0.0000000000        7.6688600000    0   0   0
Ba            1.9651100000        1.8611200000        9.5487700000    0   0   0
O             0.0000000000        0.0000000000        9.8708900000    0   0   0
O             0.0000000000        1.8611200000       11.8061446912
Cu            0.0000000000        0.0000000000       11.7670698733
O             0.0000000000        0.0000000000       13.6688176400
Ba            1.9651100000        1.8611200000       14.0950810732
Cu            0.0000000000        0.0000000000       16.3209635847
O             1.9651100000        0.0000000000       16.4609559689
O             0.0000000000        1.8611200000       16.6311312710
Ca            1.9651100000        1.8611200000       18.0698457220
O             0.0000000000        1.8611200000       19.6483600000    0   0   0
O             1.9651100000        0.0000000000       19.7854800000    0   0   0
Cu            0.0000000000        0.0000000000       19.9402800000    0   0   0
Ba            1.9651100000        1.8611200000       21.7811700000    0   0   0
O             0.0000000000        0.0000000000       22.0402800000    0   0   0
Cu            0.0000000000        0.0000000000       23.9135800000    0   0   0
O             0.0000000000        1.8611200000       24.2021300000    0   0   0
End final coordinates

     General routines

     Parallel routines

   This run was terminated on:  20: 1: 9  28Jun2021

   JOB DONE.
[1624924869.472989] [holy7c04109:39286:0]          mpool.c:43   UCX  WARN  object 0x4008140 was not returned to mpool ucp_requests
[1624924869.473007] [holy7c04109:39286:0]          mpool.c:43   UCX  WARN  object 0x4008840 was not returned to mpool ucp_requests
[1624924869.471956] [holy7c04110:101249:0]          mpool.c:43   UCX  WARN  object 0x2f1b380 was not returned to mpool ucp_requests
[1624924869.478124] [holy7c04110:101248:0]          mpool.c:43   UCX  WARN  object 0x29d5c00 was not returned to mpool ucp_requests
[1624924869.475199] [holy7c04106:98928:0]          mpool.c:43   UCX  WARN  object 0x42e5e00 was not returned to mpool ucp_requests
[1624924869.482362] [holy7c04105:82891:0]          mpool.c:43   UCX  WARN  object 0x3831080 was not returned to mpool ucp_requests
[1624924869.482383] [holy7c04105:82891:0]          mpool.c:43   UCX  WARN  object 0x3831780 was not returned to mpool ucp_requests
[1624924869.480237] [holy7c04104:27207:0]          mpool.c:43   UCX  WARN  object 0x446ca40 was not returned to mpool ucp_requests
[1624924869.481498] [holy7c04104:27208:0]          mpool.c:43   UCX  WARN  object 0x2bfe700 was not returned to mpool ucp_requests