     Program PWSCF v.6.5 starts on  9Jul2021 at 17:47: 2

     R & G space division:  proc/nbgrp/npool/nimage =      20
     Reading input from CBCO_Y_cleave_0.25_sep.pwi
Warning: card &CELL ignored
Warning: card     CELL_DYNAMICS = 'BFGS' ignored
Warning: card     PRESS_CONV_THR = 0.5 ignored
Warning: card / ignored

     Current dimensions of program PWSCF are:
     Max number of different atomic species (ntypx) = 10
     Max number of k-points (npk) =  40000
     Max angular momentum in pseudopotentials (lmaxx) =  3

     Message from routine setup:
     using ibrav=0 with symmetry is DISCOURAGED, use correct ibrav instead

     bravais-lattice index     =            0
     lattice parameter (alat)  =       7.4270  a.u.
     unit-cell volume          =    4326.9901 (a.u.)^3
     number of atoms/cell      =           28
     number of atomic types    =            4
     number of electrons       =       227.00
     number of Kohn-Sham states=          137
     kinetic-energy cutoff     =      60.0000  Ry
     charge density cutoff     =     720.0000  Ry
     convergence threshold     =      1.0E-10
     mixing beta               =       0.7000
     number of iterations used =           10  local-TF  mixing
     Exchange-correlation= SLA PW PBE PBE
                           (   1   4   3   4   0   0   0)
     nstep                     =          300

     celldm(1)=   7.427040  celldm(2)=   0.000000  celldm(3)=   0.000000
     celldm(4)=   0.000000  celldm(5)=   0.000000  celldm(6)=   0.000000

     crystal axes: (cart. coord. in units of alat)
               a(1) = (   1.000000   0.000000   0.000000 )
               a(2) = (   0.000000   0.947081   0.000000 )
               a(3) = (   0.000000   0.000000  11.151966 )

     reciprocal axes: (cart. coord. in units 2 pi/alat)
               b(1) = (  1.000000  0.000000  0.000000 )
               b(2) = (  0.000000  1.055876  0.000000 )
               b(3) = (  0.000000  0.000000  0.089670 )

     PseudoPot. # 1 for Ba read from file:
     ./pseudo/Ba.pbe-nsp-van.UPF
     MD5 check sum: 2b9c31dd849566dd297d80989662b7a0
     Pseudo is Ultrasoft + core correction, Zval = 10.0
     Generated by new atomic code, or converted to UPF format
     Using radial grid of  907 points,  6 beta functions with:
                l(1) =   0
                l(2) =   0
                l(3) =   1
                l(4) =   1
                l(5) =   2
                l(6) =   2
     Q(r) pseudized with  6 coefficients,  rinner =    1.200   1.200   1.200
                                                       1.200   1.200

     PseudoPot. # 2 for Ca read from file:
     ./pseudo/Ca.pbe-nsp-van.UPF
     MD5 check sum: 6471098428ff4fa451746d08035ff179
     Pseudo is Ultrasoft + core correction, Zval = 10.0
     Generated by new atomic code, or converted to UPF format
     Using radial grid of  845 points,  6 beta functions with:
                l(1) =   0
                l(2) =   0
                l(3) =   1
                l(4) =   1
                l(5) =   2
                l(6) =   2
     Q(r) pseudized with  6 coefficients,  rinner =    1.200   1.200   1.200
                                                       1.200   1.200

     PseudoPot. # 3 for Cu read from file:
     ./pseudo/Cu.pbe-n-van_ak.UPF
     MD5 check sum: 34e3282627ffb533726feb647e090d62
     Pseudo is Ultrasoft + core correction, Zval = 11.0
     Generated by new atomic code, or converted to UPF format
     Using radial grid of  867 points,  6 beta functions with:
                l(1) =   0
                l(2) =   0
                l(3) =   1
                l(4) =   1
                l(5) =   2
                l(6) =   2
     Q(r) pseudized with  8 coefficients,  rinner =    1.400   1.400   1.400
                                                       1.400   1.400

     PseudoPot. # 4 for O  read from file:
     ./pseudo/O.pbe-van_ak.UPF
     MD5 check sum: 783ce7fe4c79b6a4916957118fed0856
     Pseudo is Ultrasoft, Zval =  6.0
     Generated by new atomic code, or converted to UPF format
     Using radial grid of  737 points,  4 beta functions with:
                l(1) =   0
                l(2) =   0
                l(3) =   1
                l(4) =   1
     Q(r) pseudized with  8 coefficients,  rinner =    0.800   0.800   0.800

     atomic species   valence    mass     pseudopotential
        Ba            10.00   137.32700     Ba( 1.00)
        Ca            10.00    40.07800     Ca( 1.00)
        Cu            11.00    63.54600     Cu( 1.00)
        O              6.00    15.99900     O ( 1.00)

      4 Sym. Ops. (no inversion) found

   Cartesian axes

     site n.     atom                  positions (alat units)
         1           O   tau(   1) = (   0.0000000   0.4735409  -0.0469745  )
         2           Cu  tau(   2) = (   0.0000000   0.0000000   0.0264565  )
         3           O   tau(   3) = (   0.0000000   0.0000000   0.5030914  )
         4           Ba  tau(   4) = (   0.5000000   0.4735409   0.5690292  )
         5           Cu  tau(   5) = (   0.0000000   0.0000000   1.0374254  )
         6           O   tau(   6) = (   0.5000000   0.0000000   1.0768099  )
         7           O   tau(   7) = (   0.0000000   0.4735409   1.1116985  )
         8           Ca  tau(   8) = (   0.5000000   0.4735409   1.4976260  )
         9           O   tau(   9) = (   0.0000000   0.4735409   1.8667529  )
        10           O   tau(  10) = (   0.5000000   0.0000000   1.9044124  )
        11           Cu  tau(  11) = (   0.0000000   0.0000000   1.9512546  )
        12           Ba  tau(  12) = (   0.5000000   0.4735409   2.4295764  )
        13           O   tau(  13) = (   0.0000000   0.0000000   2.5115362  )
        14           O   tau(  14) = (   0.0000000   0.4735409   2.9918528  )
        15           Cu  tau(  15) = (   0.0000000   0.0000000   2.9919088  )
        16           O   tau(  16) = (   0.0000000   0.0000000   3.4722686  )
        17           Ba  tau(  17) = (   0.5000000   0.4735409   3.5542208  )
        18           Cu  tau(  18) = (   0.0000000   0.0000000   4.0325248  )
        19           O   tau(  19) = (   0.5000000   0.0000000   4.0793669  )
        20           O   tau(  20) = (   0.0000000   0.4735409   4.1170213  )
        21           Ca  tau(  21) = (   0.5000000   0.4735409   4.4861584  )
        22           O   tau(  22) = (   0.0000000   0.4735409   4.8848053  )
        23           O   tau(  23) = (   0.5000000   0.0000000   4.9960255  )
        24           Cu  tau(  24) = (   0.0000000   0.0000000   5.0354126  )
        25           Ba  tau(  25) = (   0.5000000   0.4735409   5.4783624  )
        26           O   tau(  26) = (   0.0000000   0.0000000   5.5442900  )
        27           Cu  tau(  27) = (   0.0000000   0.0000000   6.0209299  )
        28           O   tau(  28) = (   0.0000000   0.4735409   6.0943482  )

     number of k points=    25  Gaussian smearing, width (Ry)=  0.0100
                       cart. coord. in units 2pi/alat
        k(    1) = (   0.0000000   0.0000000   0.0000000), wk =   0.0312500
        k(    2) = (   0.0000000   0.1319845   0.0000000), wk =   0.0625000
        k(    3) = (   0.0000000   0.2639689   0.0000000), wk =   0.0625000
        k(    4) = (   0.0000000   0.3959534   0.0000000), wk =   0.0625000
        k(    5) = (   0.0000000  -0.5279378   0.0000000), wk =   0.0312500
        k(    6) = (   0.1250000   0.0000000   0.0000000), wk =   0.0625000
        k(    7) = (   0.1250000   0.1319845   0.0000000), wk =   0.1250000
        k(    8) = (   0.1250000   0.2639689   0.0000000), wk =   0.1250000
        k(    9) = (   0.1250000   0.3959534   0.0000000), wk =   0.1250000
        k(   10) = (   0.1250000  -0.5279378   0.0000000), wk =   0.0625000
        k(   11) = (   0.2500000   0.0000000   0.0000000), wk =   0.0625000
        k(   12) = (   0.2500000   0.1319845   0.0000000), wk =   0.1250000
        k(   13) = (   0.2500000   0.2639689   0.0000000), wk =   0.1250000
        k(   14) = (   0.2500000   0.3959534   0.0000000), wk =   0.1250000
        k(   15) = (   0.2500000  -0.5279378   0.0000000), wk =   0.0625000
        k(   16) = (   0.3750000   0.0000000   0.0000000), wk =   0.0625000
        k(   17) = (   0.3750000   0.1319845   0.0000000), wk =   0.1250000
        k(   18) = (   0.3750000   0.2639689   0.0000000), wk =   0.1250000
        k(   19) = (   0.3750000   0.3959534   0.0000000), wk =   0.1250000
        k(   20) = (   0.3750000  -0.5279378   0.0000000), wk =   0.0625000
        k(   21) = (  -0.5000000   0.0000000   0.0000000), wk =   0.0312500
        k(   22) = (  -0.5000000   0.1319845   0.0000000), wk =   0.0625000
        k(   23) = (  -0.5000000   0.2639689   0.0000000), wk =   0.0625000
        k(   24) = (  -0.5000000   0.3959534   0.0000000), wk =   0.0625000
        k(   25) = (  -0.5000000  -0.5279378   0.0000000), wk =   0.0312500

     Initial potential from superposition of free atoms

     starting charge  226.84630, renormalised to  227.00000

     negative rho (up, down):  3.532E-03 0.000E+00
     Starting wfcs are  195 randomized atomic wfcs

     Self-consistent Calculation

     iteration #  1     ecut=    60.00 Ry     beta= 0.70
     Davidson diagonalization with overlap
     ethr =  1.00E-02,  avg # of iterations =  2.0

     negative rho (up, down):  2.759E-04 0.000E+00

     total energy              =   -1839.46336477 Ry
     Harris-Foulkes estimate   =   -1845.31914611 Ry
     estimated scf accuracy    <      18.74062154 Ry

[...]

     iteration # 13     ecut=    60.00 Ry     beta= 0.70
     Davidson diagonalization with overlap
     c_bands:  1 eigenvalues not converged
     ethr =  2.64E-05,  avg # of iterations =  3.0

[...]

     End of self-consistent calculation

          k = 0.0000 0.0000 0.0000 ( 34019 PWs)   bands (ev):

   -35.9456 -35.5055 -22.7812 -22.7103 -22.4921 -22.4459 -17.2498 -17.0100
   -16.9981 -16.9497 -16.5566 -16.5453 -15.2207 -15.0958 -14.7686 -14.7398
   -14.5930 -14.5905 -14.4912 -14.1714 -14.1005 -13.9012 -13.8790 -13.7427
   -13.6836 -13.6584 -13.5464  -7.9113  -7.8510  -7.8416  -7.8041  -7.6958
    -7.6775  -7.6266  -7.6111  -7.5391  -7.4870  -7.3701  -7.3244  -2.5098
    -2.2491  -2.1747  -1.7880  -1.7491  -1.7478  -1.6859  -1.5972  -1.5872
    -1.4579  -1.4549  -1.4022  -1.3360  -1.1393  -1.1233  -0.9885  -0.9581
    -0.7570  -0.5128  -0.4949  -0.4839  -0.3777  -0.2958  -0.2266  -0.1989
    -0.1882  -0.1837  -0.1750  -0.1701  -0.1650  -0.1572  -0.1142  -0.0983
    -0.0664  -0.0112   0.0437   0.0856   0.1797   0.1799   0.1972   0.1995
     0.2142   0.2543   0.2610   0.3387   0.3721   0.3904   0.4051   0.5041
     0.5043   0.8819   0.8843   0.9629   0.9691   1.0440   1.0978   1.2640
     1.3812   1.4102   1.4284   1.4669   1.4905   1.5597   1.5651   1.6112
     1.6143   1.6362   1.7702   1.8358   1.8982   1.9364   2.1174   2.2335
     2.2667   2.2962   2.3633   2.3741   2.4711   2.6170   2.7008   5.2719
     5.2978   5.8484   6.2047   6.5076   6.7371   6.8449   7.2292   7.3873
     8.0520   8.1705   8.3239   8.4075   8.4745   8.6583   8.7145   9.1480
     9.1918

[...]

[...]
     atom    8 type  2   force =     0.00000000    0.00000000   -0.00060937
     atom    9 type  4   force =     0.00000000    0.00000000    0.00022816
     atom   10 type  4   force =     0.00000000    0.00000000    0.00015694
     atom   11 type  3   force =     0.00000000    0.00000000    0.00030654
     atom   12 type  1   force =     0.00000000    0.00000000    0.00024901
     atom   13 type  4   force =     0.00000000    0.00000000    0.00120775
     atom   14 type  4   force =     0.00000000    0.00000000    0.00051429
     atom   15 type  3   force =     0.00000000    0.00000000   -0.00080806
     atom   16 type  4   force =     0.00000000    0.00000000   -0.00058594
     atom   17 type  1   force =     0.00000000    0.00000000   -0.00285969
     atom   18 type  3   force =     0.00000000    0.00000000   -0.00081694
     atom   19 type  4   force =     0.00000000    0.00000000    0.01219362
     atom   20 type  4   force =     0.00000000    0.00000000    0.00709761
     atom   21 type  2   force =     0.00000000    0.00000000    0.02127555
     atom   22 type  4   force =     0.00000000    0.00000000    0.01582742
     atom   23 type  4   force =     0.00000000    0.00000000   -0.01070073
     atom   24 type  3   force =     0.00000000    0.00000000   -0.04813431
     atom   25 type  1   force =     0.00000000    0.00000000   -0.00022123
     atom   26 type  4   force =     0.00000000    0.00000000    0.00147770
     atom   27 type  3   force =     0.00000000    0.00000000    0.00367172
     atom   28 type  4   force =     0.00000000    0.00000000    0.00044457

     Total force =     0.057763     Total SCF correction =     0.000011

     Computing stress (Cartesian axis) and pressure

     negative rho (up, down):  1.475E-03 0.000E+00
          total   stress  (Ry/bohr**3)                   (kbar)     P=       -3.34
   0.00000027   0.00000000   0.00000000            0.04        0.00        0.00
   0.00000000  -0.00002611   0.00000000            0.00       -3.84        0.00
   0.00000000   0.00000000  -0.00004230            0.00        0.00       -6.22

     BFGS Geometry Optimization

     number of scf cycles    =   1
     number of bfgs steps    =   0

     energy   new            =   -1842.8845639095 Ry

     new trust radius        =       0.0481343091 bohr
     new conv_thr            =            1.0E-10 Ry

ATOMIC_POSITIONS (angstrom)
O             0.0000000000        1.8611200000       -0.1846200000    0   0   0
Cu            0.0000000000        0.0000000000        0.1039800000    0   0   0
O             0.0000000000        0.0000000000        1.9772600000    0   0   0
Ba            1.9651100000        1.8611200000        2.2364100000    0   0   0
Cu            0.0000000000        0.0000000000        4.0773100000    0   0   0
O             1.9651100000        0.0000000000        4.2321000000    0   0   0
O             0.0000000000        1.8611200000        4.3692200000    0   0   0
Ca            1.9651100000        1.8611200000        5.8860000000    0   0   0
O             0.0000000000        1.8611200000        7.3367500000    0   0   0
O             1.9651100000        0.0000000000        7.4847600000    0   0   0
Cu            0.0000000000        0.0000000000        7.6688600000    0   0   0
Ba            1.9651100000        1.8611200000        9.5487700000    0   0   0
O             0.0000000000        0.0000000000        9.8708900000    0   0   0
O             0.0000000000        1.8611200000       11.7586400000    0   0   0
Cu            0.0000000000        0.0000000000       11.7588600000    0   0   0
O             0.0000000000        0.0000000000       13.6467800000    0   0   0
Ba            1.9651100000        1.8611200000       13.9688700000    0   0   0
Cu            0.0000000000        0.0000000000       15.8482776964
O             1.9651100000        0.0000000000       16.0392625866
O             0.0000000000        1.8611200000       16.1845558959
Ca            1.9651100000        1.8611200000       17.6428485341
O             0.0000000000        1.8611200000       19.2067355122
O             1.9651100000        0.0000000000       19.6298174199
Cu            0.0000000000        0.0000000000       19.7648084207
Ba            1.9651100000        1.8611200000       21.5310529312
O             0.0000000000        0.0000000000       21.7910619663
Cu            0.0000000000        0.0000000000       23.6635800000    0   0   0
O             0.0000000000        1.8611200000       23.9521300000    0   0   0

     NEW-OLD atomic charge density approx. for the potential

[...]

     energy   old            =   -1842.8845639095 Ry
     energy   new            =   -1842.8876366290 Ry

     CASE: energy  _new < energy  _old

     WARNING: bfgs curvature condition failed, Theta= 0.948
     new trust radius        =       0.0529477400 bohr
     new conv_thr            =            3.1E-12 Ry

[...]

     iteration #  1     ecut=    60.00 Ry     beta= 0.70
     Davidson diagonalization with overlap
     c_bands:  1 eigenvalues not converged
     ethr =  1.00E-06,  avg # of iterations =  6.1

[...]

     energy   old            =   -1842.8973587466 Ry
     energy   new            =   -1842.8984449419 Ry

     CASE: energy  _new < energy  _old

[...]

     Threshold (ethr) on eigenvalues was too large:
     Diagonalizing with lowered threshold

     Davidson diagonalization with overlap
     ethr =  5.23E-08,  avg # of iterations =  1.7

[...]

     BFGS Geometry Optimization

     number of scf cycles    =   1
     number of bfgs steps    =   0

     energy   new            =   -1842.8992065785 Ry

     new trust radius        =       0.0104081489 bohr
     new conv_thr            =            1.1E-12 Ry

ATOMIC_POSITIONS (angstrom)
O             0.0000000000        1.8611200000       -0.1846200000    0   0   0
Cu            0.0000000000        0.0000000000        0.1039800000    0   0   0
O             0.0000000000        0.0000000000        1.9772600000    0   0   0
Ba            1.9651100000        1.8611200000        2.2364100000    0   0   0
Cu            0.0000000000        0.0000000000        4.0773100000    0   0   0
O             1.9651100000        0.0000000000        4.2321000000    0   0   0
O             0.0000000000        1.8611200000        4.3692200000    0   0   0
Ca            1.9651100000        1.8611200000        5.8860000000    0   0   0
O             0.0000000000        1.8611200000        7.3367500000    0   0   0
O             1.9651100000        0.0000000000        7.4847600000    0   0   0
Cu            0.0000000000        0.0000000000        7.6688600000    0   0   0
Ba            1.9651100000        1.8611200000        9.5487700000    0   0   0
O             0.0000000000        0.0000000000        9.8708900000    0   0   0
O             0.0000000000        1.8611200000       11.7586400000    0   0   0
Cu            0.0000000000        0.0000000000       11.7588600000    0   0   0
O             0.0000000000        0.0000000000       13.6467800000    0   0   0
Ba            1.9651100000        1.8611200000       13.9688700000    0   0   0
Cu            0.0000000000        0.0000000000       15.8775401320
O             1.9651100000        0.0000000000       16.1154894174
O             0.0000000000        1.8611200000       16.2299876559
Ca            1.9651100000        1.8611200000       17.7475736284
O             0.0000000000        1.8611200000       19.2625111888
O             1.9651100000        0.0000000000       19.5131523339
Cu            0.0000000000        0.0000000000       19.5842909218
Ba            1.9651100000        1.8611200000       21.5051678710
O             0.0000000000        0.0000000000       21.7824655953
Cu            0.0000000000        0.0000000000       23.6635800000    0   0   0
O             0.0000000000        1.8611200000       23.9521300000    0   0   0

     NEW-OLD atomic charge density approx. for the potential

[...]

     Self-consistent Calculation

[...]

     Threshold (ethr) on eigenvalues was too large:
     Diagonalizing with lowered threshold

     Davidson diagonalization with overlap
     ethr =  4.00E-08,  avg # of iterations =  2.0

[...]

     total energy              =   -1842.89944592 Ry
     Harris-Foulkes estimate   =   -1842.89944592 Ry
     estimated scf accuracy    <          1.2E-12 Ry

     iteration # 30     ecut=    60.00 Ry     beta= 0.70
     Davidson diagonalization with overlap
     ethr =  1.00E-13,  avg # of iterations =  1.0

[...]

     End of self-consistent calculation

[...]

          k = 0.3750-0.5279 0.0000 ( 34004 PWs)   bands (ev):

[...]

          k =-0.5000-0.5279 0.0000 ( 34028 PWs)   bands (ev):

   -35.7147 -35.4945 -22.4464 -22.4358 -22.3070 -22.1924 -17.0790 -17.0746
   -16.9405 -16.9313 -16.7269 -16.5548 -14.5418 -14.3666 -14.3613 -14.3061
   -14.1962 -14.1941 -14.1371 -14.0347 -14.0229 -13.9831 -13.9822 -13.9578
   -13.8716 -13.8607 -13.7720  -8.6793  -8.6266  -8.5379  -8.4138  -8.4113
    -8.3960  -8.2363  -8.0133  -7.9448  -7.9024  -7.8603  -7.6473  -4.0167
    -3.8918  -3.7032  -3.6099  -3.5058  -3.0896  -3.0802  -2.6628  -2.6220
    -2.4978  -2.4123  -2.2188  -2.2148  -2.1716  -2.1221  -1.9811  -1.9118
    -1.8449  -1.6302  -1.2773  -1.2383  -1.1657  -1.0989  -1.0298  -0.9506
    -0.9267  -0.9112  -0.9108  -0.8557  -0.8125  -0.7757  -0.7320  -0.6986
    -0.4686  -0.2580  -0.2126   0.3007   0.3952   0.4714   0.8283   0.9318
     1.1635   1.3163   1.4191   1.4361   1.4741   1.4758   1.4759   1.5148
     1.5356   1.6969   1.7114   1.7174   1.7248   1.7686   1.9057   1.9399
     1.9620   2.0226   2.0445   2.0743   2.1183   2.1368   2.2025   2.2253
     2.2755   2.3508   2.4120   2.4241   2.4586   2.5017   2.5791   2.5983
     2.6184   2.6233   4.3059   4.7537   4.7869   4.8149   4.8537   5.5121
     6.0440   6.1069   7.0350   7.1987   8.8419   8.9459   9.0956   9.1039
     9.1569   9.1735   9.4936   9.6444   9.7803   9.7931   9.9206   9.9668
    10.0829

     the Fermi energy is     2.6390 ev

!    total energy              =   -1842.89944592 Ry
     Harris-Foulkes estimate   =   -1842.89944592 Ry
     estimated scf accuracy    <          5.4E-13 Ry

     The total energy is the sum of the following terms:

     one-electron contribution =  -30766.66240801 Ry
     hartree contribution      =   15537.12069727 Ry
     xc contribution           =    -621.72589269 Ry
     ewald contribution        =   14008.37617915 Ry
     smearing contrib. (-TS)   =      -0.00802165 Ry

     convergence has been achieved in  30 iterations

     negative rho (up, down):  1.482E-03 0.000E+00

     Forces acting on atoms (cartesian axes, Ry/au):

     atom    1 type  4   force =     0.00000000    0.00000000   -0.00015835
     atom    2 type  3   force =     0.00000000    0.00000000    0.00039239
     atom    3 type  4   force =     0.00000000    0.00000000   -0.00075622
     atom    4 type  1   force =     0.00000000    0.00000000   -0.00028183
     atom    5 type  3   force =     0.00000000    0.00000000    0.00054826
     atom    6 type  4   force =     0.00000000    0.00000000   -0.00003184
     atom    7 type  4   force =     0.00000000    0.00000000    0.00034158
     atom    8 type  2   force =     0.00000000    0.00000000   -0.00059721
     atom    9 type  4   force =     0.00000000    0.00000000    0.00025566
     atom   10 type  4   force =     0.00000000    0.00000000    0.00017090
     atom   11 type  3   force =     0.00000000    0.00000000    0.00023429
     atom   12 type  1   force =     0.00000000    0.00000000    0.00020117
     atom   13 type  4   force =     0.00000000    0.00000000    0.00135928
     atom   14 type  4   force =     0.00000000    0.00000000    0.00118138
     atom   15 type  3   force =     0.00000000    0.00000000   -0.00150079
     atom   16 type  4   force =     0.00000000    0.00000000    0.00274005
     atom   17 type  1   force =     0.00000000    0.00000000    0.00559050
     atom   18 type  3   force =     0.00000000    0.00000000    0.00597744
     atom   19 type  4   force =     0.00000000    0.00000000    0.00173777
     atom   20 type  4   force =     0.00000000    0.00000000    0.00170661
     atom   21 type  2   force =     0.00000000    0.00000000   -0.00147842
     atom   22 type  4   force =     0.00000000    0.00000000   -0.00236150
     atom   23 type  4   force =     0.00000000    0.00000000   -0.00943192
     atom   24 type  3   force =     0.00000000    0.00000000    0.00604210
     atom   25 type  1   force =     0.00000000    0.00000000   -0.00483936
     atom   26 type  4   force =     0.00000000    0.00000000   -0.00072325
     atom   27 type  3   force =     0.00000000    0.00000000   -0.00697863
     atom   28 type  4   force =     0.00000000    0.00000000    0.00065992

     Total force =     0.014101     Total SCF correction =     0.000002

     Computing stress (Cartesian axis) and pressure

     negative rho (up, down):  1.482E-03 0.000E+00
          total   stress  (Ry/bohr**3)                   (kbar)     P=       -4.83
  -0.00001905   0.00000000   0.00000000           -2.80        0.00        0.00
   0.00000000  -0.00002363   0.00000000            0.00       -3.48        0.00
   0.00000000   0.00000000  -0.00005580            0.00        0.00       -8.21

     bfgs converged in   3 scf cycles and   1 bfgs steps
     (criteria: energy <  1.0E-03 Ry, force <  1.0E-02 Ry/Bohr)

     End of BFGS Geometry Optimization

     Final energy   =   -1842.8994459189 Ry
Begin final coordinates

ATOMIC_POSITIONS (angstrom)
O             0.0000000000        1.8611200000       -0.1846200000    0   0   0
Cu            0.0000000000        0.0000000000        0.1039800000    0   0   0
O             0.0000000000        0.0000000000        1.9772600000    0   0   0
Ba            1.9651100000        1.8611200000        2.2364100000    0   0   0
Cu            0.0000000000        0.0000000000        4.0773100000    0   0   0
O             1.9651100000        0.0000000000        4.2321000000    0   0   0
O             0.0000000000        1.8611200000        4.3692200000    0   0   0
Ca            1.9651100000        1.8611200000        5.8860000000    0   0   0
O             0.0000000000        1.8611200000        7.3367500000    0   0   0
O             1.9651100000        0.0000000000        7.4847600000    0   0   0
Cu            0.0000000000        0.0000000000        7.6688600000    0   0   0
Ba            1.9651100000        1.8611200000        9.5487700000    0   0   0
O             0.0000000000        0.0000000000        9.8708900000    0   0   0
O             0.0000000000        1.8611200000       11.7586400000    0   0   0
Cu            0.0000000000        0.0000000000       11.7588600000    0   0   0
O             0.0000000000        0.0000000000       13.6467800000    0   0   0
Ba            1.9651100000        1.8611200000       13.9688700000    0   0   0
Cu            0.0000000000        0.0000000000       15.8775401320
O             1.9651100000        0.0000000000       16.1154894174
O             0.0000000000        1.8611200000       16.2299876559
Ca            1.9651100000        1.8611200000       17.7475736284
O             0.0000000000        1.8611200000       19.2625111888
O             1.9651100000        0.0000000000       19.5131523339
Cu            0.0000000000        0.0000000000       19.5842909218
Ba            1.9651100000        1.8611200000       21.5051678710
O             0.0000000000        0.0000000000       21.7824655953
Cu            0.0000000000        0.0000000000       23.6635800000    0   0   0
O             0.0000000000        1.8611200000       23.9521300000    0   0   0
End final coordinates

     General routines

     Parallel routines

   This run was terminated on:  19:11:33   9Jul2021

   JOB DONE.
[1625872293.763438] [holy7c04307:183139:0]          mpool.c:43   UCX  WARN  object 0x3906240 was not returned to mpool ucp_requests
[1625872293.765880] [holy7c04307:183140:0]          mpool.c:43   UCX  WARN  object 0x42d9bc0 was not returned to mpool ucp_requests
[1625872293.763864] [holy7c06106:276698:0]          mpool.c:43   UCX  WARN  object 0x3306ac0 was not returned to mpool ucp_requests
[1625872293.770514] [holy7c06106:276696:0]          mpool.c:43   UCX  WARN  object 0x2f4b7c0 was not returned to mpool ucp_requests
[1625872293.770545] [holy7c06106:276696:0]          mpool.c:43   UCX  WARN  object 0x2f4b980 was not returned to mpool ucp_requests
[1625872293.773628] [holy7c06106:276693:0]          mpool.c:43   UCX  WARN  object 0x46a0700 was not returned to mpool ucp_requests
[1625872293.771951] [holy7c06106:276697:0]          mpool.c:43   UCX  WARN  object 0x3c2e780 was not returned to mpool ucp_requests