     Program PWSCF v.6.5 starts on 28Jun2021 at 12:25:50

     R & G space division:  proc/nbgrp/npool/nimage =      20
     Reading input from CBCO_BaO_cleave_0.25_sep.pwi
Warning: card &CELL ignored
Warning: card     CELL_DYNAMICS = 'BFGS' ignored
Warning: card     PRESS_CONV_THR = 0.5 ignored
Warning: card / ignored

     Current dimensions of program PWSCF are:
     Max number of different atomic species (ntypx) = 10
     Max number of k-points (npk) =  40000
     Max angular momentum in pseudopotentials (lmaxx) =  3

     Message from routine setup:
     using ibrav=0 with symmetry is DISCOURAGED, use correct ibrav instead

     bravais-lattice index     =            0
     lattice parameter (alat)  =       7.4270  a.u.
     unit-cell volume          =    4326.9901 (a.u.)^3
     number of atoms/cell      =           28
     number of atomic types    =            4
     number of electrons       =       227.00
     number of Kohn-Sham states=          137
     kinetic-energy cutoff     =      60.0000  Ry
     charge density cutoff     =     720.0000  Ry
     convergence threshold     =      1.0E-08
     mixing beta               =       0.5000
     number of iterations used =           10  local-TF  mixing
     Exchange-correlation= SLA PW PBE PBE
                           (   1   4   3   4   0   0   0)
     nstep                     =          300

     celldm(1)=   7.427040  celldm(2)=   0.000000  celldm(3)=   0.000000
     celldm(4)=   0.000000  celldm(5)=   0.000000  celldm(6)=   0.000000

     crystal axes: (cart. coord. in units of alat)
               a(1) = (   1.000000   0.000000   0.000000 )
               a(2) = (   0.000000   0.947081   0.000000 )
               a(3) = (   0.000000   0.000000  11.151966 )

     reciprocal axes: (cart. coord. in units 2 pi/alat)
               b(1) = (  1.000000  0.000000  0.000000 )
               b(2) = (  0.000000  1.055876  0.000000 )
               b(3) = (  0.000000  0.000000  0.089670 )

     PseudoPot. # 1 for Ba read from file:
     ./pseudo/Ba.pbe-nsp-van.UPF
     MD5 check sum: 2b9c31dd849566dd297d80989662b7a0
     Pseudo is Ultrasoft + core correction, Zval = 10.0
     Generated by new atomic code, or converted to UPF format
     Using radial grid of  907 points,  6 beta functions with:
                l(1) =   0
                l(2) =   0
                l(3) =   1
                l(4) =   1
                l(5) =   2
                l(6) =   2
     Q(r) pseudized with  6 coefficients,  rinner =    1.200   1.200   1.200
                                                       1.200   1.200

     PseudoPot. # 2 for Ca read from file:
     ./pseudo/Ca.pbe-nsp-van.UPF
     MD5 check sum: 6471098428ff4fa451746d08035ff179
     Pseudo is Ultrasoft + core correction, Zval = 10.0
     Generated by new atomic code, or converted to UPF format
     Using radial grid of  845 points,  6 beta functions with:
                l(1) =   0
                l(2) =   0
                l(3) =   1
                l(4) =   1
                l(5) =   2
                l(6) =   2
     Q(r) pseudized with  6 coefficients,  rinner =    1.200   1.200   1.200
                                                       1.200   1.200

     PseudoPot. # 3 for Cu read from file:
     ./pseudo/Cu.pbe-n-van_ak.UPF
     MD5 check sum: 34e3282627ffb533726feb647e090d62
     Pseudo is Ultrasoft + core correction, Zval = 11.0
     Generated by new atomic code, or converted to UPF format
     Using radial grid of  867 points,  6 beta functions with:
                l(1) =   0
                l(2) =   0
                l(3) =   1
                l(4) =   1
                l(5) =   2
                l(6) =   2
     Q(r) pseudized with  8 coefficients,  rinner =    1.400   1.400   1.400
                                                       1.400   1.400

     PseudoPot. # 4 for O  read from file:
     ./pseudo/O.pbe-van_ak.UPF
     MD5 check sum: 783ce7fe4c79b6a4916957118fed0856
     Pseudo is Ultrasoft, Zval =  6.0
     Generated by new atomic code, or converted to UPF format
     Using radial grid of  737 points,  4 beta functions with:
                l(1) =   0
                l(2) =   0
                l(3) =   1
                l(4) =   1
     Q(r) pseudized with  8 coefficients,  rinner =    0.800   0.800   0.800

     atomic species   valence    mass     pseudopotential
        Ba            10.00   137.32700     Ba( 1.00)
        Ca            10.00    40.07800     Ca( 1.00)
        Cu            11.00    63.54600     Cu( 1.00)
        O              6.00    15.99900     O ( 1.00)

      4 Sym. Ops. (no inversion) found

   Cartesian axes

     site n.     atom                  positions (alat units)
         1           O   tau(   1) = (   0.0000000   0.4735409  -0.0469745  )
         2           Cu  tau(   2) = (   0.0000000   0.0000000   0.0264565  )
         3           O   tau(   3) = (   0.0000000   0.0000000   0.5030914  )
         4           Ba  tau(   4) = (   0.5000000   0.4735409   0.5690292  )
         5           Cu  tau(   5) = (   0.0000000   0.0000000   1.0374254  )
         6           O   tau(   6) = (   0.5000000   0.0000000   1.0768099  )
         7           O   tau(   7) = (   0.0000000   0.4735409   1.1116985  )
         8           Ca  tau(   8) = (   0.5000000   0.4735409   1.4976260  )
         9           O   tau(   9) = (   0.0000000   0.4735409   1.8667529  )
        10           O   tau(  10) = (   0.5000000   0.0000000   1.9044124  )
        11           Cu  tau(  11) = (   0.0000000   0.0000000   1.9512546  )
        12           Ba  tau(  12) = (   0.5000000   0.4735409   2.4295764  )
        13           O   tau(  13) = (   0.0000000   0.0000000   2.5115362  )
        14           O   tau(  14) = (   0.0000000   0.4735409   2.9918528  )
        15           Cu  tau(  15) = (   0.0000000   0.0000000   2.9919088  )
        16           O   tau(  16) = (   0.0000000   0.0000000   3.4722686  )
        17           Ba  tau(  17) = (   0.5000000   0.4735409   3.5542208  )
        18           Cu  tau(  18) = (   0.0000000   0.0000000   4.0961344  )
        19           O   tau(  19) = (   0.5000000   0.0000000   4.1429766  )
        20           O   tau(  20) = (   0.0000000   0.4735409   4.1806310  )
        21           Ca  tau(  21) = (   0.5000000   0.4735409   4.5497681  )
        22           O   tau(  22) = (   0.0000000   0.4735409   4.9356930  )
        23           O   tau(  23) = (   0.5000000   0.0000000   4.9705816  )
        24           Cu  tau(  24) = (   0.0000000   0.0000000   5.0099687  )
        25           Ba  tau(  25) = (   0.5000000   0.4735409   5.4783624  )
        26           O   tau(  26) = (   0.0000000   0.0000000   5.5442900  )
        27           Cu  tau(  27) = (   0.0000000   0.0000000   6.0209299  )
        28           O   tau(  28) = (   0.0000000   0.4735409   6.0943482  )

     number of k points=    25  Gaussian smearing, width (Ry)=  0.0100
                       cart. coord. in units 2pi/alat
        k(    1) = (   0.0000000   0.0000000   0.0000000), wk =   0.0312500
        k(    2) = (   0.0000000   0.1319845   0.0000000), wk =   0.0625000
        k(    3) = (   0.0000000   0.2639689   0.0000000), wk =   0.0625000
        k(    4) = (   0.0000000   0.3959534   0.0000000), wk =   0.0625000
        k(    5) = (   0.0000000  -0.5279378   0.0000000), wk =   0.0312500
        k(    6) = (   0.1250000   0.0000000   0.0000000), wk =   0.0625000
        k(    7) = (   0.1250000   0.1319845   0.0000000), wk =   0.1250000
        k(    8) = (   0.1250000   0.2639689   0.0000000), wk =   0.1250000
        k(    9) = (   0.1250000   0.3959534   0.0000000), wk =   0.1250000
        k(   10) = (   0.1250000  -0.5279378   0.0000000), wk =   0.0625000
        k(   11) = (   0.2500000   0.0000000   0.0000000), wk =   0.0625000
        k(   12) = (   0.2500000   0.1319845   0.0000000), wk =   0.1250000
        k(   13) = (   0.2500000   0.2639689   0.0000000), wk =   0.1250000
        k(   14) = (   0.2500000   0.3959534   0.0000000), wk =   0.1250000
        k(   15) = (   0.2500000  -0.5279378   0.0000000), wk =   0.0625000
        k(   16) = (   0.3750000   0.0000000   0.0000000), wk =   0.0625000
        k(   17) = (   0.3750000   0.1319845   0.0000000), wk =   0.1250000
        k(   18) = (   0.3750000   0.2639689   0.0000000), wk =   0.1250000
        k(   19) = (   0.3750000   0.3959534   0.0000000), wk =   0.1250000
        k(   20) = (   0.3750000  -0.5279378   0.0000000), wk =   0.0625000
        k(   21) = (  -0.5000000   0.0000000   0.0000000), wk =   0.0312500
        k(   22) = (  -0.5000000   0.1319845   0.0000000), wk =   0.0625000
        k(   23) = (  -0.5000000   0.2639689   0.0000000), wk =   0.0625000
        k(   24) = (  -0.5000000   0.3959534   0.0000000), wk =   0.0625000
        k(   25) = (  -0.5000000  -0.5279378   0.0000000), wk =   0.0312500

     Initial potential from superposition of free atoms

     starting charge  226.84630, renormalised to  227.00000

     negative rho (up, down):  3.559E-03 0.000E+00
     Starting wfcs are  195 randomized atomic wfcs

     Self-consistent Calculation

     iteration #  1     ecut=    60.00 Ry     beta= 0.50
     Davidson diagonalization with overlap
     ethr =  1.00E-02,  avg # of iterations =  2.0

     negative rho (up, down):  5.132E-04 0.000E+00

     total energy              =   -1840.97734911 Ry
     Harris-Foulkes estimate   =   -1845.35004089 Ry
     estimated scf accuracy    <      17.86391967 Ry

[...]

     iteration # 13     ecut=    60.00 Ry     beta= 0.50
     Davidson diagonalization with overlap
     c_bands:  1 eigenvalues not converged
     ethr =  1.18E-05,  avg # of iterations =  6.4

[...]

     End of self-consistent calculation

          k = 0.0000 0.0000 0.0000 ( 34019 PWs)   bands (ev):

   -35.5160 -35.4491 -22.7211 -22.7202 -22.7081 -22.4641 -17.0205 -16.9423
   -16.5671 -16.5558 -16.5048 -16.4926 -15.2312 -15.1763 -14.7794 -14.6015
   -14.5960 -14.5016 -14.4199 -14.1116 -14.1105 -13.9118 -13.8959 -13.7535
   -13.6342 -13.6246 -13.4526  -7.9257  -7.8524  -7.8491  -7.8149  -7.8142
    -7.6889  -7.6449  -7.6220  -7.6211  -7.5373  -7.5086  -7.3422  -2.2603
    -2.2600  -2.0580  -1.7596  -1.7568  -1.6952  -1.5981  -1.5882  -1.5763
    -1.4690  -1.4113  -1.3907  -1.3620  -1.1510  -1.1504  -0.9805  -0.7746
    -0.7660  -0.5184  -0.3891  -0.3886  -0.3088  -0.3064  -0.2413  -0.2227
    -0.1951  -0.1947  -0.1793  -0.1748  -0.1248  -0.1108  -0.0991  -0.0912
    -0.0859  -0.0231   0.0320   0.0329   0.1683   0.1689   0.1689   0.1712
     0.2305   0.2434   0.2595   0.3467   0.3804   0.3947   0.4258   0.4826
     0.5174   0.8203   0.8712   0.9517   0.9518   1.0143   1.0558   1.2534
     1.2804   1.4188   1.4327   1.4399   1.4659   1.5281   1.5891   1.5953
     1.7309   1.7479   1.8385   1.8428   1.8952   1.9499   2.1046   2.1095
     2.1977   2.2146   2.2510   2.3423   2.3480   2.6004   2.6064   5.2819
     5.2886   5.8132   6.2706   6.4876   6.8200   6.8363   7.0079   7.3427
     8.0423   8.1750   8.3372   8.3880   8.4938   8.6856   8.7730   9.1713
     9.2671

[...]

[...]
     atom   14 type  4   force =     0.00000000    0.00000000    0.00325763
     atom   15 type  3   force =     0.00000000    0.00000000   -0.00129717
     atom   16 type  4   force =     0.00000000    0.00000000    0.00325916
     atom   17 type  1   force =     0.00000000    0.00000000    0.01583237
     atom   18 type  3   force =     0.00000000    0.00000000   -0.00332014
     atom   19 type  4   force =     0.00000000    0.00000000   -0.00787568
     atom   20 type  4   force =     0.00000000    0.00000000   -0.00559778
     atom   21 type  2   force =     0.00000000    0.00000000   -0.00831275
     atom   22 type  4   force =     0.00000000    0.00000000    0.00017501
     atom   23 type  4   force =     0.00000000    0.00000000    0.00086388
     atom   24 type  3   force =     0.00000000    0.00000000   -0.00033131
     atom   25 type  1   force =     0.00000000    0.00000000    0.00025947
     atom   26 type  4   force =     0.00000000    0.00000000    0.00090924
     atom   27 type  3   force =     0.00000000    0.00000000   -0.00037090
     atom   28 type  4   force =     0.00000000    0.00000000    0.00019437

     Total force =     0.021144     Total SCF correction =     0.000212

     Computing stress (Cartesian axis) and pressure

     negative rho (up, down):  1.509E-03 0.000E+00
          total   stress  (Ry/bohr**3)                   (kbar)     P=       -3.59
  -0.00002403   0.00000000   0.00000000           -3.53        0.00        0.00
   0.00000000  -0.00001687   0.00000000            0.00       -2.48        0.00
   0.00000000   0.00000000  -0.00003234            0.00        0.00       -4.76

     BFGS Geometry Optimization

     number of scf cycles    =   1
     number of bfgs steps    =   0

     energy   new            =   -1842.8968269757 Ry

     new trust radius        =       0.0158323693 bohr
     new conv_thr            =       0.0000000100 Ry

ATOMIC_POSITIONS (angstrom)
O             0.0000000000        1.8611200000       -0.1846200000    0   0   0
Cu            0.0000000000        0.0000000000        0.1039800000    0   0   0
O             0.0000000000        0.0000000000        1.9772600000    0   0   0
Ba            1.9651100000        1.8611200000        2.2364100000    0   0   0
Cu            0.0000000000        0.0000000000        4.0773100000    0   0   0
O             1.9651100000        0.0000000000        4.2321000000    0   0   0
O             0.0000000000        1.8611200000        4.3692200000    0   0   0
Ca            1.9651100000        1.8611200000        5.8860000000    0   0   0
O             0.0000000000        1.8611200000        7.3367500000    0   0   0
O             1.9651100000        0.0000000000        7.4847600000    0   0   0
Cu            0.0000000000        0.0000000000        7.6688600000    0   0   0
Ba            1.9651100000        1.8611200000        9.5487700000    0   0   0
O             0.0000000000        0.0000000000        9.8708900000    0   0   0
O             0.0000000000        1.8611200000       11.7603638652
Cu            0.0000000000        0.0000000000       11.7581735680
O             0.0000000000        0.0000000000       13.6485046709
Ba            1.9651100000        1.8611200000       13.9772481290
Cu            0.0000000000        0.0000000000       16.0969530590
O             1.9651100000        0.0000000000       16.2786423719
O             0.0000000000        1.8611200000       16.4278377806
Ca            1.9651100000        1.8611200000       17.8771910819
O             0.0000000000        1.8611200000       19.3983600000    0   0   0
O             1.9651100000        0.0000000000       19.5354800000    0   0   0
Cu            0.0000000000        0.0000000000       19.6902800000    0   0   0
Ba            1.9651100000        1.8611200000       21.5311700000    0   0   0
O             0.0000000000        0.0000000000       21.7902800000    0   0   0
Cu            0.0000000000        0.0000000000       23.6635800000    0   0   0
O             0.0000000000        1.8611200000       23.9521300000    0   0   0

     NEW-OLD atomic charge density approx. for the potential

[...]

     energy   old            =   -1842.8972569453 Ry
     energy   new            =   -1842.8976277540 Ry

     CASE: energy  _new < energy  _old

     WARNING: bfgs curvature condition failed, Theta= 0.858
     new trust radius        =       0.0161643905 bohr
     new conv_thr            =       0.0000000004 Ry

[...]

     BFGS Geometry Optimization

[...]

     energy   new            =   -1842.8980068294 Ry

[...]

     iteration #  1     ecut=    60.00 Ry     beta= 0.50
     Davidson diagonalization with overlap
     c_bands:  1 eigenvalues not converged
     ethr =  1.00E-06,  avg # of iterations =  5.7

[...]

     Threshold (ethr) on eigenvalues was too large:
     Diagonalizing with lowered threshold

     Davidson diagonalization with overlap
     ethr =  8.99E-09,  avg # of iterations =  3.2

[...]

     WARNING: bfgs curvature condition failed, Theta= 0.931
     new trust radius        =       0.0033981519 bohr
     new conv_thr            =            1.0E-10 Ry

[...]

     number of scf cycles    =  15
     number of bfgs steps    =  14

     energy   old            =   -1842.9002430636 Ry
     energy   new            =   -1842.9002490308 Ry

     CASE: energy  _new < energy  _old

     new trust radius        =       0.0081632391 bohr
     new conv_thr            =            1.0E-10 Ry

ATOMIC_POSITIONS (angstrom)
O             0.0000000000        1.8611200000       -0.1846200000    0   0   0
Cu            0.0000000000        0.0000000000        0.1039800000    0   0   0
O             0.0000000000        0.0000000000        1.9772600000    0   0   0
Ba            1.9651100000        1.8611200000        2.2364100000    0   0   0
Cu            0.0000000000        0.0000000000        4.0773100000    0   0   0
O             1.9651100000        0.0000000000        4.2321000000    0   0   0
O             0.0000000000        1.8611200000        4.3692200000    0   0   0
Ca            1.9651100000        1.8611200000        5.8860000000    0   0   0
O             0.0000000000        1.8611200000        7.3367500000    0   0   0
O             1.9651100000        0.0000000000        7.4847600000    0   0   0
Cu            0.0000000000        0.0000000000        7.6688600000    0   0   0
Ba            1.9651100000        1.8611200000        9.5487700000    0   0   0
O             0.0000000000        0.0000000000        9.8708900000    0   0   0
O             0.0000000000        1.8611200000       11.7988229669
Cu            0.0000000000        0.0000000000       11.7822848620
O             0.0000000000        0.0000000000       13.6883804744
Ba            1.9651100000        1.8611200000       14.0761817251
Cu            0.0000000000        0.0000000000       16.0338083452
O             1.9651100000        0.0000000000       16.2095832426
O             0.0000000000        1.8611200000       16.3687851348
Ca            1.9651100000        1.8611200000       17.8383993349
O             0.0000000000        1.8611200000       19.3983600000    0   0   0
O             1.9651100000        0.0000000000       19.5354800000    0   0   0
Cu            0.0000000000        0.0000000000       19.6902800000    0   0   0
Ba            1.9651100000        1.8611200000       21.5311700000    0   0   0
O             0.0000000000        0.0000000000       21.7902800000    0   0   0
Cu            0.0000000000        0.0000000000       23.6635800000    0   0   0
O             0.0000000000        1.8611200000       23.9521300000    0   0   0

     NEW-OLD atomic charge density approx. for the potential

[...]

     Self-consistent Calculation

[...]

     Threshold (ethr) on eigenvalues was too large:
     Diagonalizing with lowered threshold

     Davidson diagonalization with overlap
     ethr =  3.64E-08,  avg # of iterations =  1.9

[...]

     total energy              =   -1842.90025823 Ry
     Harris-Foulkes estimate   =   -1842.90025823 Ry
     estimated scf accuracy    <          1.5E-10 Ry

     iteration # 16     ecut=    60.00 Ry     beta= 0.50
     Davidson diagonalization with overlap
     ethr =  1.00E-13,  avg # of iterations =  1.0

[...]

     End of self-consistent calculation

[...]

          k = 0.3750-0.5279 0.0000 ( 34004 PWs)   bands (ev):

[...]

          k =-0.5000-0.5279 0.0000 ( 34028 PWs)   bands (ev):

   -35.6437 -35.4979 -22.4478 -22.4425 -22.3046 -22.2068 -17.0321 -17.0309
   -16.9439 -16.9347 -16.6725 -16.5583 -14.5432 -14.5429 -14.3687 -14.3593
   -14.1967 -14.1781 -14.1479 -14.0352 -14.0257 -13.9854 -13.9837 -13.8709
   -13.8648 -13.8637 -13.6469  -8.6807  -8.6776  -8.4842  -8.4192  -8.4128
    -8.4093  -8.2129  -8.0340  -7.9461  -7.9364  -7.8276  -7.6590  -4.0180
    -3.9828  -3.7001  -3.6423  -3.4742  -3.0918  -3.0910  -2.6640  -2.6610
    -2.4991  -2.4655  -2.2228  -2.2162  -2.2155  -2.1927  -1.9854  -1.9142
    -1.8570  -1.5877  -1.2797  -1.2754  -1.1411  -1.1015  -1.0939  -0.9523
    -0.9507  -0.9127  -0.9121  -0.8214  -0.7991  -0.7405  -0.7224  -0.7216
    -0.3892  -0.2596  -0.2594   0.3034   0.3861   0.5039   0.8303   0.9300
     1.1679   1.3621   1.4133   1.4236   1.4342   1.4471   1.4637   1.4745
     1.4944   1.6985   1.7148   1.7195   1.7674   1.7699   1.9027   1.9424
     1.9592   1.9702   2.0631   2.0820   2.1241   2.1421   2.2071   2.2490
     2.2837   2.3291   2.4105   2.4121   2.4670   2.4983   2.5464   2.6050
     2.6192   2.6629   4.2523   4.7760   4.7909   4.8456   4.8690   5.6665
     6.0416   6.0426   7.0087   7.1922   8.8554   9.0524   9.0657   9.1017
     9.1535   9.1641   9.4812   9.6271   9.7333   9.8073   9.9602  10.0025
    10.0841

     the Fermi energy is     2.6378 ev

!    total energy              =   -1842.90025823 Ry
     Harris-Foulkes estimate   =   -1842.90025823 Ry
     estimated scf accuracy    <          7.3E-11 Ry

     The total energy is the sum of the following terms:

     one-electron contribution =  -30503.82672530 Ry
     hartree contribution      =   15405.69199210 Ry
     xc contribution           =    -621.73605678 Ry
     ewald contribution        =   13876.97875785 Ry
     smearing contrib. (-TS)   =      -0.00822611 Ry

     convergence has been achieved in  16 iterations

     negative rho (up, down):  1.517E-03 0.000E+00

     Forces acting on atoms (cartesian axes, Ry/au):

     atom    1 type  4   force =     0.00000000    0.00000000   -0.00016437
     atom    2 type  3   force =     0.00000000    0.00000000    0.00041280
     atom    3 type  4   force =     0.00000000    0.00000000   -0.00075854
     atom    4 type  1   force =     0.00000000    0.00000000   -0.00028453
     atom    5 type  3   force =     0.00000000    0.00000000    0.00056426
     atom    6 type  4   force =     0.00000000    0.00000000    0.00001289
     atom    7 type  4   force =     0.00000000    0.00000000    0.00034097
     atom    8 type  2   force =     0.00000000    0.00000000   -0.00071868
     atom    9 type  4   force =     0.00000000    0.00000000    0.00049121
     atom   10 type  4   force =     0.00000000    0.00000000    0.00025719
     atom   11 type  3   force =     0.00000000    0.00000000    0.00048759
     atom   12 type  1   force =     0.00000000    0.00000000    0.00231371
     atom   13 type  4   force =     0.00000000    0.00000000    0.01059375
     atom   14 type  4   force =     0.00000000    0.00000000    0.00067929
     atom   15 type  3   force =     0.00000000    0.00000000   -0.00046269
     atom   16 type  4   force =     0.00000000    0.00000000   -0.00072321
     atom   17 type  1   force =     0.00000000    0.00000000   -0.00030937
     atom   18 type  3   force =     0.00000000    0.00000000    0.00024542
     atom   19 type  4   force =     0.00000000    0.00000000   -0.00004807
     atom   20 type  4   force =     0.00000000    0.00000000   -0.00042651
     atom   21 type  2   force =     0.00000000    0.00000000   -0.00066960
     atom   22 type  4   force =     0.00000000    0.00000000   -0.00501243
     atom   23 type  4   force =     0.00000000    0.00000000   -0.00459108
     atom   24 type  3   force =     0.00000000    0.00000000   -0.00155445
     atom   25 type  1   force =     0.00000000    0.00000000   -0.00129143
     atom   26 type  4   force =     0.00000000    0.00000000    0.00088657
     atom   27 type  3   force =     0.00000000    0.00000000   -0.00052307
     atom   28 type  4   force =     0.00000000    0.00000000    0.00025237

     Total force =     0.001410     Total SCF correction =     0.000007

     Computing stress (Cartesian axis) and pressure

     negative rho (up, down):  1.517E-03 0.000E+00
          total   stress  (Ry/bohr**3)                   (kbar)     P=       -4.43
  -0.00001403   0.00000000   0.00000000           -2.06        0.00        0.00
   0.00000000  -0.00002041   0.00000000            0.00       -3.00        0.00
   0.00000000   0.00000000  -0.00005592            0.00        0.00       -8.23

     bfgs converged in  16 scf cycles and  15 bfgs steps
     (criteria: energy <  1.0E-04 Ry, force <  1.0E-03 Ry/Bohr)

     End of BFGS Geometry Optimization

     Final energy   =   -1842.9002582330 Ry
Begin final coordinates

ATOMIC_POSITIONS (angstrom)
O             0.0000000000        1.8611200000       -0.1846200000    0   0   0
Cu            0.0000000000        0.0000000000        0.1039800000    0   0   0
O             0.0000000000        0.0000000000        1.9772600000    0   0   0
Ba            1.9651100000        1.8611200000        2.2364100000    0   0   0
Cu            0.0000000000        0.0000000000        4.0773100000    0   0   0
O             1.9651100000        0.0000000000        4.2321000000    0   0   0
O             0.0000000000        1.8611200000        4.3692200000    0   0   0
Ca            1.9651100000        1.8611200000        5.8860000000    0   0   0
O             0.0000000000        1.8611200000        7.3367500000    0   0   0
O             1.9651100000        0.0000000000        7.4847600000    0   0   0
Cu            0.0000000000        0.0000000000        7.6688600000    0   0   0
Ba            1.9651100000        1.8611200000        9.5487700000    0   0   0
O             0.0000000000        0.0000000000        9.8708900000    0   0   0
O             0.0000000000        1.8611200000       11.7988229669
Cu            0.0000000000        0.0000000000       11.7822848620
O             0.0000000000        0.0000000000       13.6883804744
Ba            1.9651100000        1.8611200000       14.0761817251
Cu            0.0000000000        0.0000000000       16.0338083452
O             1.9651100000        0.0000000000       16.2095832426
O             0.0000000000        1.8611200000       16.3687851348
Ca            1.9651100000        1.8611200000       17.8383993349
O             0.0000000000        1.8611200000       19.3983600000    0   0   0
O             1.9651100000        0.0000000000       19.5354800000    0   0   0
Cu            0.0000000000        0.0000000000       19.6902800000    0   0   0
Ba            1.9651100000        1.8611200000       21.5311700000    0   0   0
O             0.0000000000        0.0000000000       21.7902800000    0   0   0
Cu            0.0000000000        0.0000000000       23.6635800000    0   0   0
O             0.0000000000        1.8611200000       23.9521300000    0   0   0
End final coordinates

     General routines

     Parallel routines

   This run was terminated on:  14: 0:16  28Jun2021

   JOB DONE.
[1624903216.778661] [holy7c06209:158654:0]          mpool.c:43   UCX  WARN  object 0x3fe7d40 was not returned to mpool ucp_requests
[1624903216.778694] [holy7c06209:158654:0]          mpool.c:43   UCX  WARN  object 0x3fe80c0 was not returned to mpool ucp_requests
[1624903216.782117] [holy7c06209:158656:0]          mpool.c:43   UCX  WARN  object 0x28c6980 was not returned to mpool ucp_requests
[1624903216.785918] [holy7c06209:158646:0]          mpool.c:43   UCX  WARN  object 0x476fcc0 was not returned to mpool ucp_requests
[1624903216.790413] [holy7c06209:158645:0]          mpool.c:43   UCX  WARN  object 0x37ae180 was not returned to mpool ucp_requests
[1624903216.790443] [holy7c06209:158645:0]          mpool.c:43   UCX  WARN  object 0x37ae500 was not returned to mpool ucp_requests
[1624903216.790446] [holy7c06209:158645:0]          mpool.c:43   UCX  WARN  object 0x37ae880 was not returned to mpool ucp_requests
[1624903216.796703] [holy7c06209:158651:0]          mpool.c:43   UCX  WARN  object 0x46304c0 was not returned to mpool ucp_requests
[1624903216.796801] [holy7c06209:158655:0]          mpool.c:43   UCX  WARN  object 0x331b580 was not returned to mpool ucp_requests