     Program PWSCF v.6.5 starts on  9Jul2021 at 19:18:31

     R & G space division:  proc/nbgrp/npool/nimage =      20
     Reading input from CBCO_Y_cleave_0.5_sep.pwi
Warning: card &CELL ignored
Warning: card     CELL_DYNAMICS = 'BFGS' ignored
Warning: card     PRESS_CONV_THR = 0.5 ignored
Warning: card / ignored

     Current dimensions of program PWSCF are:
     Max number of different atomic species (ntypx) = 10
     Max number of k-points (npk) =  40000
     Max angular momentum in pseudopotentials (lmaxx) =  3

     Message from routine setup:
     using ibrav=0 with symmetry is DISCOURAGED, use correct ibrav instead

     bravais-lattice index     =            0
     lattice parameter (alat)  =       7.4270  a.u.
     unit-cell volume          =    4351.6708 (a.u.)^3
     number of atoms/cell      =           28
     number of atomic types    =            4
     number of electrons       =       227.00
     number of Kohn-Sham states=          137
     kinetic-energy cutoff     =      60.0000  Ry
     charge density cutoff     =     720.0000  Ry
     convergence threshold     =      1.0E-10
     mixing beta               =       0.7000
     number of iterations used =           10  local-TF  mixing
     Exchange-correlation= SLA PW PBE PBE
                           (   1   4   3   4   0   0   0)
     nstep                     =          300

     celldm(1)=   7.427040  celldm(2)=   0.000000  celldm(3)=   0.000000
     celldm(4)=   0.000000  celldm(5)=   0.000000  celldm(6)=   0.000000

     crystal axes: (cart. coord. in units of alat)
               a(1) = (   1.000000   0.000000   0.000000 )
               a(2) = (   0.000000   0.947081   0.000000 )
               a(3) = (   0.000000   0.000000  11.215576 )

     reciprocal axes: (cart. coord. in units 2 pi/alat)
               b(1) = (  1.000000  0.000000  0.000000 )
               b(2) = (  0.000000  1.055876  0.000000 )
               b(3) = (  0.000000  0.000000  0.089162 )

     PseudoPot. # 1 for Ba read from file:
     ./pseudo/Ba.pbe-nsp-van.UPF
     MD5 check sum: 2b9c31dd849566dd297d80989662b7a0
     Pseudo is Ultrasoft + core correction, Zval = 10.0
     Generated by new atomic code, or converted to UPF format
     Using radial grid of  907 points,  6 beta functions with:
                l(1) =   0
                l(2) =   0
                l(3) =   1
                l(4) =   1
                l(5) =   2
                l(6) =   2
     Q(r) pseudized with  6 coefficients,  rinner =    1.200   1.200   1.200
                                                       1.200   1.200

     PseudoPot. # 2 for Ca read from file:
     ./pseudo/Ca.pbe-nsp-van.UPF
     MD5 check sum: 6471098428ff4fa451746d08035ff179
     Pseudo is Ultrasoft + core correction, Zval = 10.0
     Generated by new atomic code, or converted to UPF format
     Using radial grid of  845 points,  6 beta functions with:
                l(1) =   0
                l(2) =   0
                l(3) =   1
                l(4) =   1
                l(5) =   2
                l(6) =   2
     Q(r) pseudized with  6 coefficients,  rinner =    1.200   1.200   1.200
                                                       1.200   1.200

     PseudoPot. # 3 for Cu read from file:
     ./pseudo/Cu.pbe-n-van_ak.UPF
     MD5 check sum: 34e3282627ffb533726feb647e090d62
     Pseudo is Ultrasoft + core correction, Zval = 11.0
     Generated by new atomic code, or converted to UPF format
     Using radial grid of  867 points,  6 beta functions with:
                l(1) =   0
                l(2) =   0
                l(3) =   1
                l(4) =   1
                l(5) =   2
                l(6) =   2
     Q(r) pseudized with  8 coefficients,  rinner =    1.400   1.400   1.400
                                                       1.400   1.400

     PseudoPot. # 4 for O  read from file:
     ./pseudo/O.pbe-van_ak.UPF
     MD5 check sum: 783ce7fe4c79b6a4916957118fed0856
     Pseudo is Ultrasoft, Zval =  6.0
     Generated by new atomic code, or converted to UPF format
     Using radial grid of  737 points,  4 beta functions with:
                l(1) =   0
                l(2) =   0
                l(3) =   1
                l(4) =   1
     Q(r) pseudized with  8 coefficients,  rinner =    0.800   0.800   0.800

     atomic species   valence    mass     pseudopotential
        Ba            10.00   137.32700     Ba( 1.00)
        Ca            10.00    40.07800     Ca( 1.00)
        Cu            11.00    63.54600     Cu( 1.00)
        O              6.00    15.99900     O ( 1.00)

      4 Sym. Ops. (no inversion) found

   Cartesian axes

     site n.     atom                  positions (alat units)
         1           O   tau(   1) = (   0.0000000   0.4735409  -0.0472155  )
         2           Cu  tau(   2) = (   0.0000000   0.0000000   0.0265923  )
         3           O   tau(   3) = (   0.0000000   0.0000000   0.5056726  )
         4           Ba  tau(   4) = (   0.5000000   0.4735409   0.5719487  )
         5           Cu  tau(   5) = (   0.0000000   0.0000000   1.0427481  )
         6           O   tau(   6) = (   0.5000000   0.0000000   1.0823347  )
         7           O   tau(   7) = (   0.0000000   0.4735409   1.1174023  )
         8           Ca  tau(   8) = (   0.5000000   0.4735409   1.5053099  )
         9           O   tau(   9) = (   0.0000000   0.4735409   1.8763307  )
        10           O   tau(  10) = (   0.5000000   0.0000000   1.9141834  )
        11           Cu  tau(  11) = (   0.0000000   0.0000000   1.9612659  )
        12           Ba  tau(  12) = (   0.5000000   0.4735409   2.4420418  )
        13           O   tau(  13) = (   0.0000000   0.0000000   2.5244221  )
        14           O   tau(  14) = (   0.0000000   0.4735409   3.0072031  )
        15           Cu  tau(  15) = (   0.0000000   0.0000000   3.0072594  )
        16           O   tau(  16) = (   0.0000000   0.0000000   3.4900838  )
        17           Ba  tau(  17) = (   0.5000000   0.4735409   3.5724564  )
        18           Cu  tau(  18) = (   0.0000000   0.0000000   4.0297691  )
        19           O   tau(  19) = (   0.5000000   0.0000000   4.0778682  )
        20           O   tau(  20) = (   0.0000000   0.4735409   4.1624042  )
        21           Ca  tau(  21) = (   0.5000000   0.4735409   4.5334218  )
        22           O   tau(  22) = (   0.0000000   0.4735409   4.8968287  )
        23           O   tau(  23) = (   0.5000000   0.0000000   5.0012223  )
        24           Cu  tau(  24) = (   0.0000000   0.0000000   5.0886313  )
        25           Ba  tau(  25) = (   0.5000000   0.4735409   5.5381338  )
        26           O   tau(  26) = (   0.0000000   0.0000000   5.5537722  )
        27           Cu  tau(  27) = (   0.0000000   0.0000000   6.0582137  )
        28           O   tau(  28) = (   0.0000000   0.4735409   6.1320087  )

     number of k points=    25  Gaussian smearing, width (Ry)=  0.0100
                       cart. coord. in units 2pi/alat
        k(    1) = (   0.0000000   0.0000000   0.0000000), wk =   0.0312500
        k(    2) = (   0.0000000   0.1319845   0.0000000), wk =   0.0625000
        k(    3) = (   0.0000000   0.2639689   0.0000000), wk =   0.0625000
        k(    4) = (   0.0000000   0.3959534   0.0000000), wk =   0.0625000
        k(    5) = (   0.0000000  -0.5279378   0.0000000), wk =   0.0312500
        k(    6) = (   0.1250000   0.0000000   0.0000000), wk =   0.0625000
        k(    7) = (   0.1250000   0.1319845   0.0000000), wk =   0.1250000
        k(    8) = (   0.1250000   0.2639689   0.0000000), wk =   0.1250000
        k(    9) = (   0.1250000   0.3959534   0.0000000), wk =   0.1250000
        k(   10) = (   0.1250000  -0.5279378   0.0000000), wk =   0.0625000
        k(   11) = (   0.2500000   0.0000000   0.0000000), wk =   0.0625000
        k(   12) = (   0.2500000   0.1319845   0.0000000), wk =   0.1250000
        k(   13) = (   0.2500000   0.2639689   0.0000000), wk =   0.1250000
        k(   14) = (   0.2500000   0.3959534   0.0000000), wk =   0.1250000
        k(   15) = (   0.2500000  -0.5279378   0.0000000), wk =   0.0625000
        k(   16) = (   0.3750000   0.0000000   0.0000000), wk =   0.0625000
        k(   17) = (   0.3750000   0.1319845   0.0000000), wk =   0.1250000
        k(   18) = (   0.3750000   0.2639689   0.0000000), wk =   0.1250000
        k(   19) = (   0.3750000   0.3959534   0.0000000), wk =   0.1250000
        k(   20) = (   0.3750000  -0.5279378   0.0000000), wk =   0.0625000
        k(   21) = (  -0.5000000   0.0000000   0.0000000), wk =   0.0312500
        k(   22) = (  -0.5000000   0.1319845   0.0000000), wk =   0.0625000
        k(   23) = (  -0.5000000   0.2639689   0.0000000), wk =   0.0625000
        k(   24) = (  -0.5000000   0.3959534   0.0000000), wk =   0.0625000
        k(   25) = (  -0.5000000  -0.5279378   0.0000000), wk =   0.0312500

     Initial potential from superposition of free atoms

     starting charge  226.84630, renormalised to  227.00000

     negative rho (up, down):  3.546E-03 0.000E+00
     Starting wfcs are  195 randomized atomic wfcs

     Self-consistent Calculation

     iteration #  1     ecut=    60.00 Ry     beta= 0.70
     Davidson diagonalization with overlap
     ethr =  1.00E-02,  avg # of iterations =  2.0

     negative rho (up, down):  2.870E-04 0.000E+00

     total energy              =   -1839.45748179 Ry
     Harris-Foulkes estimate   =   -1845.25321151 Ry
     estimated scf accuracy    <      18.46001777 Ry

[...]

     iteration # 14     ecut=    60.00 Ry     beta= 0.70
     Davidson diagonalization with overlap
     c_bands:  1 eigenvalues not converged
     c_bands:  1 eigenvalues not converged
     ethr =  1.25E-05,  avg # of iterations =  6.7

[...]

     End of self-consistent calculation

          k = 0.0000 0.0000 0.0000 ( 34267 PWs)   bands (ev):

   -35.8292 -35.5886 -23.2802 -22.7705 -22.5474 -22.5042 -17.1160 -17.0719
   -16.8945 -16.8202 -16.6379 -16.6276 -15.2614 -15.1376 -14.9507 -14.8075
   -14.6173 -14.5483 -14.4841 -14.3044 -14.1374 -13.9410 -13.7998 -13.7851
   -13.7676 -13.5983 -13.5809  -8.4133  -8.3932  -8.1872  -7.9061  -7.8588
    -7.7014  -7.6801  -7.6662  -7.6194  -7.5430  -7.4349  -7.3788  -2.8457
    -2.2731  -2.2428  -1.8417  -1.7945  -1.7880  -1.7332  -1.6505  -1.6303
    -1.5575  -1.5029  -1.4480  -1.4457  -1.1831  -1.1095  -1.0676  -0.9972
    -0.7876  -0.6603  -0.6401  -0.5500  -0.4697  -0.3957  -0.3417  -0.3267
    -0.2827  -0.2379  -0.2128  -0.2089  -0.2010  -0.1530  -0.1440  -0.1385
    -0.1073  -0.0714   0.0034   0.1230   0.1409   0.1426   0.1748   0.2097
     0.2233   0.2317   0.2701   0.3292   0.3484   0.3525   0.4640   0.4856
     0.5656   0.8292   0.9032   0.9040   0.9189   0.9997   1.2176   1.3239
     1.3728   1.3937   1.4134   1.4226   1.4670   1.4885   1.5379   1.5785
     1.6112   1.6114   1.7968   1.8648   1.8692   1.9649   2.0649   2.1908
     2.2539   2.2867   2.3844   2.4387   2.5344   2.5619   2.7272   5.0342
     5.2411   5.8378   6.1144   6.2568   6.5061   6.7744   7.1724   7.2792
     8.0084   8.0710   8.1299   8.2926   8.4171   8.5872   8.6792   9.0243
     9.0890

[...]

[...]

     atom    1 type  4   force =     0.00000000    0.00000000    0.00034203
     atom    2 type  3   force =     0.00000000    0.00000000    0.00398795
     atom    3 type  4   force =     0.00000000    0.00000000   -0.00310111
     atom    4 type  1   force =     0.00000000    0.00000000    0.00078534
     atom    5 type  3   force =     0.00000000    0.00000000   -0.00018131
     atom    6 type  4   force =     0.00000000    0.00000000    0.00038139
     atom    7 type  4   force =     0.00000000    0.00000000    0.00100163
     atom    8 type  2   force =     0.00000000    0.00000000   -0.00055016
     atom    9 type  4   force =     0.00000000    0.00000000   -0.00028923
     atom   10 type  4   force =     0.00000000    0.00000000   -0.00039762
     atom   11 type  3   force =     0.00000000    0.00000000    0.00042459
     atom   12 type  1   force =     0.00000000    0.00000000    0.00002657
     atom   13 type  4   force =     0.00000000    0.00000000    0.00348493
     atom   14 type  4   force =     0.00000000    0.00000000    0.00035180
     atom   15 type  3   force =     0.00000000    0.00000000   -0.00255729
     atom   16 type  4   force =     0.00000000    0.00000000   -0.00066747
     atom   17 type  1   force =     0.00000000    0.00000000   -0.00330864
     atom   18 type  3   force =     0.00000000    0.00000000    0.02408673
     atom   19 type  4   force =     0.00000000    0.00000000    0.01226458
     atom   20 type  4   force =     0.00000000    0.00000000   -0.01189751
     atom   21 type  2   force =     0.00000000    0.00000000    0.00697128
     atom   22 type  4   force =     0.00000000    0.00000000    0.03207791
     atom   23 type  4   force =     0.00000000    0.00000000    0.01205613
     atom   24 type  3   force =     0.00000000    0.00000000   -0.12103909
     atom   25 type  1   force =     0.00000000    0.00000000   -0.01196936
     atom   26 type  4   force =     0.00000000    0.00000000    0.07340755
     atom   27 type  3   force =     0.00000000    0.00000000   -0.00582080
     atom   28 type  4   force =     0.00000000    0.00000000   -0.00987084

     Total force =     0.149256     Total SCF correction =     0.000022

     Computing stress (Cartesian axis) and pressure

     negative rho (up, down):  1.495E-03 0.000E+00
          total   stress  (Ry/bohr**3)                   (kbar)     P=       -6.51
  -0.00000707   0.00000000   0.00000000           -1.04        0.00        0.00
   0.00000000  -0.00006202   0.00000000            0.00       -9.12        0.00
   0.00000000   0.00000000  -0.00006357            0.00        0.00       -9.35

     BFGS Geometry Optimization

     number of scf cycles    =   1
     number of bfgs steps    =   0

     energy   new            =   -1842.8561279684 Ry

     new trust radius        =       0.1210390863 bohr
     new conv_thr            =            1.0E-10 Ry

ATOMIC_POSITIONS (angstrom)
O             0.0000000000        1.8611200000       -0.1855672318    0   0   0
Cu            0.0000000000        0.0000000000        0.1045134913    0   0   0
O             0.0000000000        0.0000000000        1.9874047485    0   0   0
Ba            1.9651100000        1.8611200000        2.2478843721    0   0   0
Cu            0.0000000000        0.0000000000        4.0982294970    0   0   0
O             1.9651100000        0.0000000000        4.2538136797    0   0   0
O             0.0000000000        1.8611200000        4.3916372027    0   0   0
Ca            1.9651100000        1.8611200000        5.9161993617    0   0   0
O             0.0000000000        1.8611200000        7.3743927398    0   0   0
O             1.9651100000        0.0000000000        7.5231621363    0   0   0
Cu            0.0000000000        0.0000000000        7.7082067001    0   0   0
Ba            1.9651100000        1.8611200000        9.5977619739    0   0   0
O             0.0000000000        0.0000000000        9.9215346784    0   0   0
O             0.0000000000        1.8611200000       11.8189701770    0   0   0
Cu            0.0000000000        0.0000000000       11.8191913058    0   0   0
O             0.0000000000        0.0000000000       13.7167976766    0   0   0
Ba            1.9651100000        1.8611200000       14.0405402272    0   0   0
Cu            0.0000000000        0.0000000000       15.8506259275
O             1.9651100000        0.0000000000       16.0334096528
O             0.0000000000        1.8611200000       16.3528689124
Ca            1.9651100000        1.8611200000       17.8210344818
O             0.0000000000        1.8611200000       19.2625895247
O             1.9651100000        0.0000000000       19.6622844399
Cu            0.0000000000        0.0000000000       19.9353898368
Ba            1.9651100000        1.8611200000       21.7597511560
O             0.0000000000        0.0000000000       21.8663930206
Cu            0.0000000000        0.0000000000       23.8101135700    0   0   0
O             0.0000000000        1.8611200000       24.1001440365    0   0   0

     NEW-OLD atomic charge density approx. for the potential

[...]

     energy   old            =   -1842.8561279684 Ry
     energy   new            =   -1842.8732363040 Ry

     CASE: energy  _new < energy  _old

[...]

     iteration #  1     ecut=    60.00 Ry     beta= 0.70
     Davidson diagonalization with overlap
     c_bands:  1 eigenvalues not converged
     c_bands:  1 eigenvalues not converged
     ethr =  1.00E-06,  avg # of iterations =  8.7

[...]

     number of scf cycles    =  11
     number of bfgs steps    =   7

     energy   old            =   -1842.8957446195 Ry
     energy   new            =   -1842.8974293370 Ry

     CASE: energy  _new < energy  _old

     new trust radius        =       0.0543028263 bohr
     new conv_thr            =            1.2E-12 Ry

ATOMIC_POSITIONS (angstrom)
O             0.0000000000        1.8611200000       -0.1855672318    0   0   0
Cu            0.0000000000        0.0000000000        0.1045134913    0   0   0
O             0.0000000000        0.0000000000        1.9874047485    0   0   0
Ba            1.9651100000        1.8611200000        2.2478843721    0   0   0
Cu            0.0000000000        0.0000000000        4.0982294970    0   0   0
O             1.9651100000        0.0000000000        4.2538136797    0   0   0
O             0.0000000000        1.8611200000        4.3916372027    0   0   0
Ca            1.9651100000        1.8611200000        5.9161993617    0   0   0
O             0.0000000000        1.8611200000        7.3743927398    0   0   0
O             1.9651100000        0.0000000000        7.5231621363    0   0   0
Cu            0.0000000000        0.0000000000        7.7082067001    0   0   0
Ba            1.9651100000        1.8611200000        9.5977619739    0   0   0
O             0.0000000000        0.0000000000        9.9215346784    0   0   0
O             0.0000000000        1.8611200000       11.8189701770    0   0   0
Cu            0.0000000000        0.0000000000       11.8191913058    0   0   0
O             0.0000000000        0.0000000000       13.7167976766    0   0   0
Ba            1.9651100000        1.8611200000       14.0405402272    0   0   0
Cu            0.0000000000        0.0000000000       16.0158376350
O             1.9651100000        0.0000000000       16.2266493607
O             0.0000000000        1.8611200000       16.3412975838
Ca            1.9651100000        1.8611200000       17.8391127077
O             0.0000000000        1.8611200000       19.3753287186
O             1.9651100000        0.0000000000       19.5595805980
Cu            0.0000000000        0.0000000000       19.6572595048
Ba            1.9651100000        1.8611200000       21.5714756968
O             0.0000000000        0.0000000000       21.9195520396
Cu            0.0000000000        0.0000000000       23.8101135700    0   0   0
O             0.0000000000        1.8611200000       24.1001440365    0   0   0

     NEW-OLD atomic charge density approx. for the potential

[...]

     Self-consistent Calculation

[...]

     total energy              =   -1842.89829313 Ry
     Harris-Foulkes estimate   =   -1842.89829313 Ry
     estimated scf accuracy    <          5.3E-12 Ry

     iteration # 32     ecut=    60.00 Ry     beta= 0.70
     Davidson diagonalization with overlap
     ethr =  1.00E-13,  avg # of iterations =  1.0

[...]

     End of self-consistent calculation

[...]

          k = 0.3750-0.5279 0.0000 ( 34192 PWs)   bands (ev):

[...]

          k =-0.5000-0.5279 0.0000 ( 34236 PWs)   bands (ev):

   -35.6795 -35.5831 -22.5140 -22.5031 -22.3818 -22.2645 -17.0662 -17.0640
   -17.0146 -17.0072 -16.7028 -16.6354 -14.5569 -14.4166 -14.3689 -14.2920
   -14.2448 -14.2384 -14.1897 -14.0837 -14.0689 -14.0368 -14.0182 -13.9552
   -13.9178 -13.8783 -13.7626  -8.7428  -8.6734  -8.5982  -8.4817  -8.4743
    -8.4296  -8.2931  -8.0821  -8.0030  -7.9648  -7.9125  -7.7094  -4.0555
    -3.9886  -3.7488  -3.6764  -3.5595  -3.1354  -3.1120  -2.7095  -2.6932
    -2.5469  -2.4966  -2.2783  -2.2436  -2.2207  -2.0969  -1.9715  -1.9116
    -1.9030  -1.6666  -1.3202  -1.3065  -1.2233  -1.1416  -1.1038  -1.0022
    -0.9702  -0.9612  -0.9554  -0.8712  -0.8526  -0.8176  -0.7873  -0.7576
    -0.4928  -0.2845  -0.2397   0.2470   0.3438   0.4331   0.7742   0.8794
     1.1024   1.3074   1.3745   1.3822   1.4051   1.4296   1.4346   1.4755
     1.5458   1.6451   1.6739   1.6789   1.7079   1.7611   1.8672   1.9095
     1.9384   1.9731   2.0038   2.0344   2.0657   2.0899   2.1492   2.1756
     2.2362   2.3099   2.3594   2.3763   2.4076   2.4582   2.5356   2.5382
     2.5503   2.5798   4.2295   4.7273   4.7687   4.7967   4.8283   5.4653
     5.9903   6.1937   6.9046   7.1092   8.7434   8.9446   8.9697   9.0078
     9.0650   9.0913   9.4442   9.5634   9.6929   9.7354   9.8734   9.9178
     9.9957

     the Fermi energy is     2.5810 ev

!    total energy              =   -1842.89829313 Ry
     Harris-Foulkes estimate   =   -1842.89829313 Ry
     estimated scf accuracy    <          8.7E-13 Ry

     The total energy is the sum of the following terms:

     one-electron contribution =  -30981.31653760 Ry
     hartree contribution      =   15644.05063166 Ry
     xc contribution           =    -621.66276237 Ry
     ewald contribution        =   14116.03865765 Ry
     smearing contrib. (-TS)   =      -0.00828247 Ry

     convergence has been achieved in  32 iterations

     negative rho (up, down):  1.523E-03 0.000E+00

     Forces acting on atoms (cartesian axes, Ry/au):

     atom    1 type  4   force =     0.00000000    0.00000000    0.00030294
     atom    2 type  3   force =     0.00000000    0.00000000    0.00402218
     atom    3 type  4   force =     0.00000000    0.00000000   -0.00310447
     atom    4 type  1   force =     0.00000000    0.00000000    0.00079890
     atom    5 type  3   force =     0.00000000    0.00000000   -0.00016649
     atom    6 type  4   force =     0.00000000    0.00000000    0.00037947
     atom    7 type  4   force =     0.00000000    0.00000000    0.00095563
     atom    8 type  2   force =     0.00000000    0.00000000   -0.00054834
     atom    9 type  4   force =     0.00000000    0.00000000   -0.00029732
     atom   10 type  4   force =     0.00000000    0.00000000   -0.00033461
     atom   11 type  3   force =     0.00000000    0.00000000    0.00023567
     atom   12 type  1   force =     0.00000000    0.00000000   -0.00028390
     atom   13 type  4   force =     0.00000000    0.00000000    0.00442927
     atom   14 type  4   force =     0.00000000    0.00000000    0.00131881
     atom   15 type  3   force =     0.00000000    0.00000000   -0.00068303
     atom   16 type  4   force =     0.00000000    0.00000000   -0.00097095
     atom   17 type  1   force =     0.00000000    0.00000000    0.00819674
     atom   18 type  3   force =     0.00000000    0.00000000   -0.00048053
     atom   19 type  4   force =     0.00000000    0.00000000   -0.00110864
     atom   20 type  4   force =     0.00000000    0.00000000    0.00166816
     atom   21 type  2   force =     0.00000000    0.00000000   -0.00152486
     atom   22 type  4   force =     0.00000000    0.00000000   -0.00245031
     atom   23 type  4   force =     0.00000000    0.00000000   -0.00402293
     atom   24 type  3   force =     0.00000000    0.00000000    0.00776675
     atom   25 type  1   force =     0.00000000    0.00000000   -0.00042026
     atom   26 type  4   force =     0.00000000    0.00000000   -0.00038398
     atom   27 type  3   force =     0.00000000    0.00000000   -0.01502837
     atom   28 type  4   force =     0.00000000    0.00000000    0.00173448

     Total force =     0.009455     Total SCF correction =     0.000002

     Computing stress (Cartesian axis) and pressure

     negative rho (up, down):  1.523E-03 0.000E+00
          total   stress  (Ry/bohr**3)                   (kbar)     P=       -7.42
  -0.00003446   0.00000000   0.00000000           -5.07        0.00        0.00
   0.00000000  -0.00003466   0.00000000            0.00       -5.10        0.00
   0.00000000   0.00000000  -0.00008213            0.00        0.00      -12.08

     bfgs converged in  12 scf cycles and   8 bfgs steps
     (criteria: energy <  1.0E-03 Ry, force <  1.0E-02 Ry/Bohr)

     End of BFGS Geometry Optimization

     Final energy   =   -1842.8982931331 Ry
Begin final coordinates

ATOMIC_POSITIONS (angstrom)
O             0.0000000000        1.8611200000       -0.1855672318    0   0   0
Cu            0.0000000000        0.0000000000        0.1045134913    0   0   0
O             0.0000000000        0.0000000000        1.9874047485    0   0   0
Ba            1.9651100000        1.8611200000        2.2478843721    0   0   0
Cu            0.0000000000        0.0000000000        4.0982294970    0   0   0
O             1.9651100000        0.0000000000        4.2538136797    0   0   0
O             0.0000000000        1.8611200000        4.3916372027    0   0   0
Ca            1.9651100000        1.8611200000        5.9161993617    0   0   0
O             0.0000000000        1.8611200000        7.3743927398    0   0   0
O             1.9651100000        0.0000000000        7.5231621363    0   0   0
Cu            0.0000000000        0.0000000000        7.7082067001    0   0   0
Ba            1.9651100000        1.8611200000        9.5977619739    0   0   0
O             0.0000000000        0.0000000000        9.9215346784    0   0   0
O             0.0000000000        1.8611200000       11.8189701770    0   0   0
Cu            0.0000000000        0.0000000000       11.8191913058    0   0   0
O             0.0000000000        0.0000000000       13.7167976766    0   0   0
Ba            1.9651100000        1.8611200000       14.0405402272    0   0   0
Cu            0.0000000000        0.0000000000       16.0158376350
O             1.9651100000        0.0000000000       16.2266493607
O             0.0000000000        1.8611200000       16.3412975838
Ca            1.9651100000        1.8611200000       17.8391127077
O             0.0000000000        1.8611200000       19.3753287186
O             1.9651100000        0.0000000000       19.5595805980
Cu            0.0000000000        0.0000000000       19.6572595048
Ba            1.9651100000        1.8611200000       21.5714756968
O             0.0000000000        0.0000000000       21.9195520396
Cu            0.0000000000        0.0000000000       23.8101135700    0   0   0
O             0.0000000000        1.8611200000       24.1001440365    0   0   0
End final coordinates

     General routines

     Parallel routines

   This run was terminated on:  20:36:23   9Jul2021

   JOB DONE.
[1625877384.058123] [holy7c06302:236889:0]          mpool.c:43   UCX  WARN  object 0x2c6b4c0 was not returned to mpool ucp_requests
[1625877384.062252] [holy7c06302:236893:0]          mpool.c:43   UCX  WARN  object 0x2961a00 was not returned to mpool ucp_requests
[1625877384.066486] [holy7c06302:236888:0]          mpool.c:43   UCX  WARN  object 0x3cf5a40 was not returned to mpool ucp_requests
[1625877384.067894] [holy7c06302:236892:0]          mpool.c:43   UCX  WARN  object 0x2bd4380 was not returned to mpool ucp_requests
[1625877384.067917] [holy7c06302:236892:0]          mpool.c:43   UCX  WARN  object 0x2bd48c0 was not returned to mpool ucp_requests
[1625877384.068063] [holy7c06302:236894:0]          mpool.c:43   UCX  WARN  object 0x4813680 was not returned to mpool ucp_requests
[1625877384.606794] [holy7c06203:240500:0]          mpool.c:43   UCX  WARN  object 0x4585540 was not returned to mpool ucp_requests
[1625877384.618804] [holy7c06203:240501:0]          mpool.c:43   UCX  WARN  object 0x2d77900 was not returned to mpool ucp_requests