     Program PWSCF v.6.5 starts on 28Jun2021 at 23:26:13

     R & G space division:  proc/nbgrp/npool/nimage =      20
     Reading input from CBCO_CuO_cleave_0.25_sep.pwi
Warning: card &CELL ignored
Warning: card     CELL_DYNAMICS = 'BFGS' ignored
Warning: card     PRESS_CONV_THR = 0.5 ignored
Warning: card / ignored

     Current dimensions of program PWSCF are:
     Max number of different atomic species (ntypx) = 10
     Max number of k-points (npk) =  40000
     Max angular momentum in pseudopotentials (lmaxx) =  3

     Message from routine setup:
     using ibrav=0 with symmetry is DISCOURAGED, use correct ibrav instead

     bravais-lattice index     =            0
     lattice parameter (alat)  =       7.4270  a.u.
     unit-cell volume          =    4326.9901 (a.u.)^3
     number of atoms/cell      =           28
     number of atomic types    =            4
     number of electrons       =       227.00
     number of Kohn-Sham states=          137
     kinetic-energy cutoff     =      60.0000  Ry
     charge density cutoff     =     720.0000  Ry
     convergence threshold     =      1.0E-10
     mixing beta               =       0.7000
     number of iterations used =           10  local-TF  mixing
     Exchange-correlation= SLA PW PBE PBE
                           (   1   4   3   4   0   0   0)
     nstep                     =          300

     celldm(1)=   7.427040  celldm(2)=   0.000000  celldm(3)=   0.000000
     celldm(4)=   0.000000  celldm(5)=   0.000000  celldm(6)=   0.000000

     crystal axes: (cart. coord. in units of alat)
               a(1) = (   1.000000   0.000000   0.000000 )
               a(2) = (   0.000000   0.947081   0.000000 )
               a(3) = (   0.000000   0.000000  11.151966 )

     reciprocal axes: (cart. coord. in units 2 pi/alat)
               b(1) = (  1.000000  0.000000  0.000000 )
               b(2) = (  0.000000  1.055876  0.000000 )
               b(3) = (  0.000000  0.000000  0.089670 )

     PseudoPot. # 1 for Ba read from file:
     ./pseudo/Ba.pbe-nsp-van.UPF
     MD5 check sum: 2b9c31dd849566dd297d80989662b7a0
     Pseudo is Ultrasoft + core correction, Zval = 10.0
     Generated by new atomic code, or converted to UPF format
     Using radial grid of  907 points,  6 beta functions with:
                l(1) =   0
                l(2) =   0
                l(3) =   1
                l(4) =   1
                l(5) =   2
                l(6) =   2
     Q(r) pseudized with  6 coefficients,  rinner =    1.200   1.200   1.200
                                                       1.200   1.200

     PseudoPot. # 2 for Ca read from file:
     ./pseudo/Ca.pbe-nsp-van.UPF
     MD5 check sum: 6471098428ff4fa451746d08035ff179
     Pseudo is Ultrasoft + core correction, Zval = 10.0
     Generated by new atomic code, or converted to UPF format
     Using radial grid of  845 points,  6 beta functions with:
                l(1) =   0
                l(2) =   0
                l(3) =   1
                l(4) =   1
                l(5) =   2
                l(6) =   2
     Q(r) pseudized with  6 coefficients,  rinner =    1.200   1.200   1.200
                                                       1.200   1.200

     PseudoPot. # 3 for Cu read from file:
     ./pseudo/Cu.pbe-n-van_ak.UPF
     MD5 check sum: 34e3282627ffb533726feb647e090d62
     Pseudo is Ultrasoft + core correction, Zval = 11.0
     Generated by new atomic code, or converted to UPF format
     Using radial grid of  867 points,  6 beta functions with:
                l(1) =   0
                l(2) =   0
                l(3) =   1
                l(4) =   1
                l(5) =   2
                l(6) =   2
     Q(r) pseudized with  8 coefficients,  rinner =    1.400   1.400   1.400
                                                       1.400   1.400

     PseudoPot. # 4 for O  read from file:
     ./pseudo/O.pbe-van_ak.UPF
     MD5 check sum: 783ce7fe4c79b6a4916957118fed0856
     Pseudo is Ultrasoft, Zval =  6.0
     Generated by new atomic code, or converted to UPF format
     Using radial grid of  737 points,  4 beta functions with:
                l(1) =   0
                l(2) =   0
                l(3) =   1
                l(4) =   1
     Q(r) pseudized with  8 coefficients,  rinner =    0.800   0.800   0.800

     atomic species   valence    mass     pseudopotential
        Ba            10.00   137.32700     Ba( 1.00)
        Ca            10.00    40.07800     Ca( 1.00)
        Cu            11.00    63.54600     Cu( 1.00)
        O              6.00    15.99900     O ( 1.00)

      4 Sym. Ops. (no inversion) found

   Cartesian axes

     site n.     atom                  positions (alat units)
         1           O   tau(   1) = (   0.0000000   0.4735409  -0.0469745  )
         2           Cu  tau(   2) = (   0.0000000   0.0000000   0.0264565  )
         3           O   tau(   3) = (   0.0000000   0.0000000   0.5030914  )
         4           Ba  tau(   4) = (   0.5000000   0.4735409   0.5690292  )
         5           Cu  tau(   5) = (   0.0000000   0.0000000   1.0374254  )
         6           O   tau(   6) = (   0.5000000   0.0000000   1.0768099  )
         7           O   tau(   7) = (   0.0000000   0.4735409   1.1116985  )
         8           Ca  tau(   8) = (   0.5000000   0.4735409   1.4976260  )
         9           O   tau(   9) = (   0.0000000   0.4735409   1.8667529  )
        10           O   tau(  10) = (   0.5000000   0.0000000   1.9044124  )
        11           Cu  tau(  11) = (   0.0000000   0.0000000   1.9512546  )
        12           Ba  tau(  12) = (   0.5000000   0.4735409   2.4295764  )
        13           O   tau(  13) = (   0.0000000   0.0000000   2.5115362  )
        14           O   tau(  14) = (   0.0000000   0.4735409   2.9918528  )
        15           Cu  tau(  15) = (   0.0000000   0.0000000   2.9919088  )
        16           O   tau(  16) = (   0.0000000   0.0000000   3.5358783  )
        17           Ba  tau(  17) = (   0.5000000   0.4735409   3.6178304  )
        18           Cu  tau(  18) = (   0.0000000   0.0000000   4.0961344  )
        19           O   tau(  19) = (   0.5000000   0.0000000   4.1429766  )
        20           O   tau(  20) = (   0.0000000   0.4735409   4.1806310  )
        21           Ca  tau(  21) = (   0.5000000   0.4735409   4.5497681  )
        22           O   tau(  22) = (   0.0000000   0.4735409   4.9356930  )
        23           O   tau(  23) = (   0.5000000   0.0000000   4.9705816  )
        24           Cu  tau(  24) = (   0.0000000   0.0000000   5.0099687  )
        25           Ba  tau(  25) = (   0.5000000   0.4735409   5.4783624  )
        26           O   tau(  26) = (   0.0000000   0.0000000   5.5442900  )
        27           Cu  tau(  27) = (   0.0000000   0.0000000   6.0209299  )
        28           O   tau(  28) = (   0.0000000   0.4735409   6.0943482  )

     number of k points=    25  Gaussian smearing, width (Ry)=  0.0100
                       cart. coord. in units 2pi/alat
        k(    1) = (   0.0000000   0.0000000   0.0000000), wk =   0.0312500
        k(    2) = (   0.0000000   0.1319845   0.0000000), wk =   0.0625000
        k(    3) = (   0.0000000   0.2639689   0.0000000), wk =   0.0625000
        k(    4) = (   0.0000000   0.3959534   0.0000000), wk =   0.0625000
        k(    5) = (   0.0000000  -0.5279378   0.0000000), wk =   0.0312500
        k(    6) = (   0.1250000   0.0000000   0.0000000), wk =   0.0625000
        k(    7) = (   0.1250000   0.1319845   0.0000000), wk =   0.1250000
        k(    8) = (   0.1250000   0.2639689   0.0000000), wk =   0.1250000
        k(    9) = (   0.1250000   0.3959534   0.0000000), wk =   0.1250000
        k(   10) = (   0.1250000  -0.5279378   0.0000000), wk =   0.0625000
        k(   11) = (   0.2500000   0.0000000   0.0000000), wk =   0.0625000
        k(   12) = (   0.2500000   0.1319845   0.0000000), wk =   0.1250000
        k(   13) = (   0.2500000   0.2639689   0.0000000), wk =   0.1250000
        k(   14) = (   0.2500000   0.3959534   0.0000000), wk =   0.1250000
        k(   15) = (   0.2500000  -0.5279378   0.0000000), wk =   0.0625000
        k(   16) = (   0.3750000   0.0000000   0.0000000), wk =   0.0625000
        k(   17) = (   0.3750000   0.1319845   0.0000000), wk =   0.1250000
        k(   18) = (   0.3750000   0.2639689   0.0000000), wk =   0.1250000
        k(   19) = (   0.3750000   0.3959534   0.0000000), wk =   0.1250000
        k(   20) = (   0.3750000  -0.5279378   0.0000000), wk =   0.0625000
        k(   21) = (  -0.5000000   0.0000000   0.0000000), wk =   0.0312500
        k(   22) = (  -0.5000000   0.1319845   0.0000000), wk =   0.0625000
        k(   23) = (  -0.5000000   0.2639689   0.0000000), wk =   0.0625000
        k(   24) = (  -0.5000000   0.3959534   0.0000000), wk =   0.0625000
        k(   25) = (  -0.5000000  -0.5279378   0.0000000), wk =   0.0312500

     Initial potential from superposition of free atoms

     starting charge  226.84630, renormalised to  227.00000

     negative rho (up, down):  3.526E-03 0.000E+00
     Starting wfcs are  195 randomized atomic wfcs

     Self-consistent Calculation

     iteration #  1     ecut=    60.00 Ry     beta= 0.70
     Davidson diagonalization with overlap
     ethr =  1.00E-02,  avg # of iterations =  2.0

     negative rho (up, down):  2.814E-04 0.000E+00

     total energy              =   -1839.41057180 Ry
     Harris-Foulkes estimate   =   -1845.34353357 Ry
     estimated scf accuracy    <      19.10050645 Ry

[...]

     iteration # 17     ecut=    60.00 Ry     beta= 0.70
     Davidson diagonalization with overlap
     c_bands:  1 eigenvalues not converged
     ethr =  1.83E-06,  avg # of iterations =  9.8

[...]

     End of self-consistent calculation

          k = 0.0000 0.0000 0.0000 ( 34019 PWs)   bands (ev):

   -35.5388 -35.5290 -22.7312 -22.7302 -22.4842 -22.4269 -17.0424 -17.0334
   -16.5903 -16.5808 -16.5788 -16.5686 -15.2497 -15.2426 -14.6423 -14.6117
   -14.6088 -14.5220 -14.5128 -14.1209 -14.1200 -13.9266 -13.9225 -13.7785
   -13.7654 -13.6805 -13.2122  -7.8626  -7.8615  -7.8249  -7.8240  -7.6594
    -7.6320  -7.6310  -7.6226  -7.5361  -7.4430  -7.3668  -7.2701  -2.2689
    -2.2684  -1.9060  -1.7717  -1.7705  -1.7276  -1.7183  -1.6146  -1.6081
    -1.4928  -1.4794  -1.4356  -1.4285  -1.1596  -1.1584  -0.8659  -0.8044
    -0.4521  -0.3978  -0.3971  -0.3155  -0.3155  -0.2693  -0.2601  -0.2383
    -0.2067  -0.2044  -0.2039  -0.2033  -0.1980  -0.1862  -0.1218  -0.1024
     0.0236   0.0239   0.0656   0.0920   0.1582   0.1592   0.1598   0.1607
     0.1858   0.2163   0.2305   0.2331   0.3388   0.3549   0.3736   0.3840
     0.6773   0.8037   0.8729   0.9424   0.9432   1.0038   1.0419   1.2379
     1.2414   1.4028   1.4094   1.4267   1.4401   1.5463   1.5570   1.5741
     1.5875   1.6085   1.6126   1.8595   1.8782   1.9640   2.0963   2.0986
     2.2189   2.2399   2.3300   2.3354   2.3451   2.5945   2.6015   5.2729
     5.2796   5.7908   6.2583   6.4717   6.8182   6.8266   7.1908   7.2973
     8.0296   8.1523   8.3221   8.3690   8.5666   8.6811   8.7576   9.1592
     9.3491

[...]

[...]
     atom    3 type  4   force =     0.00000000    0.00000000   -0.00078083
     atom    4 type  1   force =     0.00000000    0.00000000   -0.00032655
     atom    5 type  3   force =     0.00000000    0.00000000    0.00053197
     atom    6 type  4   force =     0.00000000    0.00000000    0.00024211
     atom    7 type  4   force =     0.00000000    0.00000000    0.00055179
     atom    8 type  2   force =     0.00000000    0.00000000   -0.00121167
     atom    9 type  4   force =     0.00000000    0.00000000    0.00105323
     atom   10 type  4   force =     0.00000000    0.00000000    0.00085652
     atom   11 type  3   force =     0.00000000    0.00000000    0.00069207
     atom   12 type  1   force =     0.00000000    0.00000000    0.00408480
     atom   13 type  4   force =     0.00000000    0.00000000   -0.00280883
     atom   14 type  4   force =     0.00000000    0.00000000    0.01014922
     atom   15 type  3   force =     0.00000000    0.00000000    0.04082438
     atom   16 type  4   force =     0.00000000    0.00000000   -0.03851917
     atom   17 type  1   force =     0.00000000    0.00000000   -0.01068733
     atom   18 type  3   force =     0.00000000    0.00000000   -0.00631129
     atom   19 type  4   force =     0.00000000    0.00000000    0.00090763
     atom   20 type  4   force =     0.00000000    0.00000000   -0.00011694
     atom   21 type  2   force =     0.00000000    0.00000000    0.00094197
     atom   22 type  4   force =     0.00000000    0.00000000   -0.00055347
     atom   23 type  4   force =     0.00000000    0.00000000   -0.00004071
     atom   24 type  3   force =     0.00000000    0.00000000   -0.00051179
     atom   25 type  1   force =     0.00000000    0.00000000    0.00031588
     atom   26 type  4   force =     0.00000000    0.00000000    0.00069873
     atom   27 type  3   force =     0.00000000    0.00000000   -0.00032973
     atom   28 type  4   force =     0.00000000    0.00000000    0.00012151

     Total force =     0.058590     Total SCF correction =     0.000029

     Computing stress (Cartesian axis) and pressure

     negative rho (up, down):  1.527E-03 0.000E+00
          total   stress  (Ry/bohr**3)                   (kbar)     P=       -4.07
   0.00000331   0.00000000   0.00000000            0.49        0.00        0.00
   0.00000000  -0.00002553   0.00000000            0.00       -3.76        0.00
   0.00000000   0.00000000  -0.00006075            0.00        0.00       -8.94

     BFGS Geometry Optimization

     number of scf cycles    =   1
     number of bfgs steps    =   0

     energy   new            =   -1842.8869342712 Ry

     new trust radius        =       0.0408243755 bohr
     new conv_thr            =            1.0E-10 Ry

ATOMIC_POSITIONS (angstrom)
O             0.0000000000        1.8611200000       -0.1846200000    0   0   0
Cu            0.0000000000        0.0000000000        0.1039800000    0   0   0
O             0.0000000000        0.0000000000        1.9772600000    0   0   0
Ba            1.9651100000        1.8611200000        2.2364100000    0   0   0
Cu            0.0000000000        0.0000000000        4.0773100000    0   0   0
O             1.9651100000        0.0000000000        4.2321000000    0   0   0
O             0.0000000000        1.8611200000        4.3692200000    0   0   0
Ca            1.9651100000        1.8611200000        5.8860000000    0   0   0
O             0.0000000000        1.8611200000        7.3367500000    0   0   0
O             1.9651100000        0.0000000000        7.4847600000    0   0   0
Cu            0.0000000000        0.0000000000        7.6688600000    0   0   0
Ba            1.9651100000        1.8611200000        9.5509315834
O             0.0000000000        0.0000000000        9.8694036290
O             0.0000000000        1.8611200000       11.7640107340
Cu            0.0000000000        0.0000000000       11.7804633291
O             0.0000000000        0.0000000000       13.8763965317
Ba            1.9651100000        1.8611200000       14.2132145099
Cu            0.0000000000        0.0000000000       16.0953702093
O             1.9651100000        0.0000000000       16.2832902952
O             0.0000000000        1.8611200000       16.4307381206
Ca            1.9651100000        1.8611200000       17.8815900000    0   0   0
O             0.0000000000        1.8611200000       19.3983600000    0   0   0
O             1.9651100000        0.0000000000       19.5354800000    0   0   0
Cu            0.0000000000        0.0000000000       19.6902800000    0   0   0
Ba            1.9651100000        1.8611200000       21.5311700000    0   0   0
O             0.0000000000        0.0000000000       21.7902800000    0   0   0
Cu            0.0000000000        0.0000000000       23.6635800000    0   0   0
O             0.0000000000        1.8611200000       23.9521300000    0   0   0

     NEW-OLD atomic charge density approx. for the potential

[...]

     energy   old            =   -1842.8869342713 Ry
     energy   new            =   -1842.8901462644 Ry

     CASE: energy  _new < energy  _old

     WARNING: bfgs curvature condition failed, Theta= 0.921
     new trust radius        =       0.0449068131 bohr
     new conv_thr            =            3.2E-12 Ry

[...]

     iteration #  1     ecut=    60.00 Ry     beta= 0.70
     Davidson diagonalization with overlap
     c_bands:  1 eigenvalues not converged
     c_bands:  1 eigenvalues not converged
     c_bands:  1 eigenvalues not converged
     c_bands:  1 eigenvalues not converged
     ethr =  1.00E-06,  avg # of iterations = 12.8

[...]

     number of scf cycles    =  18
     number of bfgs steps    =   6

     energy   old            =   -1842.8990733025 Ry
     energy   new            =   -1842.8998259656 Ry

     CASE: energy  _new < energy  _old

     new trust radius        =       0.0450786907 bohr
     new conv_thr            =            1.0E-12 Ry

ATOMIC_POSITIONS (angstrom)
O             0.0000000000        1.8611200000       -0.1846200000    0   0   0
Cu            0.0000000000        0.0000000000        0.1039800000    0   0   0
O             0.0000000000        0.0000000000        1.9772600000    0   0   0
Ba            1.9651100000        1.8611200000        2.2364100000    0   0   0
Cu            0.0000000000        0.0000000000        4.0773100000    0   0   0
O             1.9651100000        0.0000000000        4.2321000000    0   0   0
O             0.0000000000        1.8611200000        4.3692200000    0   0   0
Ca            1.9651100000        1.8611200000        5.8860000000    0   0   0
O             0.0000000000        1.8611200000        7.3367500000    0   0   0
O             1.9651100000        0.0000000000        7.4847600000    0   0   0
Cu            0.0000000000        0.0000000000        7.6688600000    0   0   0
Ba            1.9651100000        1.8611200000        9.5626719760
O             0.0000000000        0.0000000000        9.8978258614
O             0.0000000000        1.8611200000       11.7703090210
Cu            0.0000000000        0.0000000000       11.8125959685
O             0.0000000000        0.0000000000       13.7103805364
Ba            1.9651100000        1.8611200000       14.0734728547
Cu            0.0000000000        0.0000000000       15.9707922632
O             1.9651100000        0.0000000000       16.1630953334
O             0.0000000000        1.8611200000       16.3096641759
Ca            1.9651100000        1.8611200000       17.7640128599    0   0   0
O             0.0000000000        1.8611200000       19.3949463103    0   0   0
O             1.9651100000        0.0000000000       19.5322598001    0   0   0
Cu            0.0000000000        0.0000000000       19.6893469323    0   0   0
Ba            1.9651100000        1.8611200000       21.5311700000    0   0   0
O             0.0000000000        0.0000000000       21.7902800000    0   0   0
Cu            0.0000000000        0.0000000000       23.6635800000    0   0   0
O             0.0000000000        1.8611200000       23.9521300000    0   0   0

     NEW-OLD atomic charge density approx. for the potential

[...]

     Self-consistent Calculation

[...]

     total energy              =   -1842.89964099 Ry
     Harris-Foulkes estimate   =   -1842.89964099 Ry
     estimated scf accuracy    <          1.3E-12 Ry

     iteration # 33     ecut=    60.00 Ry     beta= 0.70
     Davidson diagonalization with overlap
     ethr =  1.00E-13,  avg # of iterations =  1.0

[...]

     End of self-consistent calculation

[...]

          k = 0.3750-0.5279 0.0000 ( 34004 PWs)   bands (ev):

[...]

          k =-0.5000-0.5279 0.0000 ( 34028 PWs)   bands (ev):

   -35.7682 -35.4848 -22.4436 -22.4260 -22.3103 -22.1691 -17.1332 -17.1239
   -16.9312 -16.9217 -16.7849 -16.5441 -14.5391 -14.5373 -14.3598 -14.3572
   -14.1860 -14.1700 -14.1529 -14.0933 -14.0112 -13.9819 -13.9789 -13.9293
   -13.8725 -13.8445 -13.6956  -8.6765  -8.6641  -8.5039  -8.4086  -8.3960
    -8.3816  -8.2232  -8.0022  -7.9418  -7.9100  -7.8447  -7.6403  -4.0099
    -3.9530  -3.7100  -3.6635  -3.4730  -3.0876  -3.0869  -2.6604  -2.6389
    -2.4919  -2.4786  -2.2166  -2.2122  -2.2072  -2.1803  -2.0154  -1.9193
    -1.8548  -1.5881  -1.2744  -1.2658  -1.1372  -1.0957  -1.0841  -0.9470
    -0.9356  -0.9085  -0.9081  -0.8343  -0.7966  -0.7774  -0.7565  -0.7106
    -0.3995  -0.2553  -0.2551   0.3109   0.3928   0.4980   0.8391   0.9397
     1.1727   1.3454   1.4211   1.4291   1.4405   1.4455   1.4683   1.4811
     1.4955   1.6825   1.6979   1.7179   1.7414   1.7580   1.9017   1.9370
     1.9652   1.9766   2.0533   2.0845   2.1269   2.1442   2.2017   2.2527
     2.2881   2.3304   2.4122   2.4150   2.4680   2.5157   2.5365   2.6097
     2.6231   2.6558   4.2520   4.7777   4.7954   4.8348   4.8626   5.6479
     6.0458   6.0467   6.9743   7.1921   8.8788   9.0539   9.0762   9.1062
     9.1694   9.1711   9.4731   9.6501   9.7723   9.7790   9.9079   9.9555
    10.0887

     the Fermi energy is     2.6416 ev

!    total energy              =   -1842.89964099 Ry
     Harris-Foulkes estimate   =   -1842.89964099 Ry
     estimated scf accuracy    <          4.8E-13 Ry

     The total energy is the sum of the following terms:

     one-electron contribution =  -30571.29478602 Ry
     hartree contribution      =   15439.40608565 Ry
     xc contribution           =    -621.73891275 Ry
     ewald contribution        =   13910.73615359 Ry
     smearing contrib. (-TS)   =      -0.00818146 Ry

     convergence has been achieved in  33 iterations

     negative rho (up, down):  1.523E-03 0.000E+00

     Forces acting on atoms (cartesian axes, Ry/au):

     atom    1 type  4   force =     0.00000000    0.00000000   -0.00013855
     atom    2 type  3   force =     0.00000000    0.00000000    0.00037557
     atom    3 type  4   force =     0.00000000    0.00000000   -0.00076335
     atom    4 type  1   force =     0.00000000    0.00000000   -0.00028647
     atom    5 type  3   force =     0.00000000    0.00000000    0.00052630
     atom    6 type  4   force =     0.00000000    0.00000000   -0.00012079
     atom    7 type  4   force =     0.00000000    0.00000000    0.00029564
     atom    8 type  2   force =     0.00000000    0.00000000    0.00018248
     atom    9 type  4   force =     0.00000000    0.00000000    0.00077281
     atom   10 type  4   force =     0.00000000    0.00000000    0.00061306
     atom   11 type  3   force =     0.00000000    0.00000000    0.00126662
     atom   12 type  1   force =     0.00000000    0.00000000    0.00275238
     atom   13 type  4   force =     0.00000000    0.00000000    0.00713729
     atom   14 type  4   force =     0.00000000    0.00000000   -0.00071482
     atom   15 type  3   force =     0.00000000    0.00000000   -0.00104314
     atom   16 type  4   force =     0.00000000    0.00000000   -0.00229176
     atom   17 type  1   force =     0.00000000    0.00000000   -0.00315554
     atom   18 type  3   force =     0.00000000    0.00000000    0.00188399
     atom   19 type  4   force =     0.00000000    0.00000000    0.00244805
     atom   20 type  4   force =     0.00000000    0.00000000    0.00291486
     atom   21 type  2   force =     0.00000000    0.00000000    0.01162276
     atom   22 type  4   force =     0.00000000    0.00000000   -0.00889989
     atom   23 type  4   force =     0.00000000    0.00000000   -0.00799378
     atom   24 type  3   force =     0.00000000    0.00000000   -0.00323364
     atom   25 type  1   force =     0.00000000    0.00000000   -0.00448250
     atom   26 type  4   force =     0.00000000    0.00000000    0.00060585
     atom   27 type  3   force =     0.00000000    0.00000000   -0.00052033
     atom   28 type  4   force =     0.00000000    0.00000000    0.00024689

     Total force =     0.009663     Total SCF correction =     0.000002

     Computing stress (Cartesian axis) and pressure

     negative rho (up, down):  1.523E-03 0.000E+00
          total   stress  (Ry/bohr**3)                   (kbar)     P=       -4.37
  -0.00001213   0.00000000   0.00000000           -1.78        0.00        0.00
   0.00000000  -0.00001665   0.00000000            0.00       -2.45        0.00
   0.00000000   0.00000000  -0.00006025            0.00        0.00       -8.86

     bfgs converged in  19 scf cycles and   7 bfgs steps
     (criteria: energy <  1.0E-03 Ry, force <  1.0E-02 Ry/Bohr)

     End of BFGS Geometry Optimization

     Final energy   =   -1842.8996409930 Ry
Begin final coordinates

ATOMIC_POSITIONS (angstrom)
O             0.0000000000        1.8611200000       -0.1846200000    0   0   0
Cu            0.0000000000        0.0000000000        0.1039800000    0   0   0
O             0.0000000000        0.0000000000        1.9772600000    0   0   0
Ba            1.9651100000        1.8611200000        2.2364100000    0   0   0
Cu            0.0000000000        0.0000000000        4.0773100000    0   0   0
O             1.9651100000        0.0000000000        4.2321000000    0   0   0
O             0.0000000000        1.8611200000        4.3692200000    0   0   0
Ca            1.9651100000        1.8611200000        5.8860000000    0   0   0
O             0.0000000000        1.8611200000        7.3367500000    0   0   0
O             1.9651100000        0.0000000000        7.4847600000    0   0   0
Cu            0.0000000000        0.0000000000        7.6688600000    0   0   0
Ba            1.9651100000        1.8611200000        9.5626719760
O             0.0000000000        0.0000000000        9.8978258614
O             0.0000000000        1.8611200000       11.7703090210
Cu            0.0000000000        0.0000000000       11.8125959685
O             0.0000000000        0.0000000000       13.7103805364
Ba            1.9651100000        1.8611200000       14.0734728547
Cu            0.0000000000        0.0000000000       15.9707922632
O             1.9651100000        0.0000000000       16.1630953334
O             0.0000000000        1.8611200000       16.3096641759
Ca            1.9651100000        1.8611200000       17.7640128599    0   0   0
O             0.0000000000        1.8611200000       19.3949463103    0   0   0
O             1.9651100000        0.0000000000       19.5322598001    0   0   0
Cu            0.0000000000        0.0000000000       19.6893469323    0   0   0
Ba            1.9651100000        1.8611200000       21.5311700000    0   0   0
O             0.0000000000        0.0000000000       21.7902800000    0   0   0
Cu            0.0000000000        0.0000000000       23.6635800000    0   0   0
O             0.0000000000        1.8611200000       23.9521300000    0   0   0
End final coordinates

     General routines

     Parallel routines

   This run was terminated on:   0:17:57  29Jun2021

   JOB DONE.
[1624940277.817108] [holy7c04306:235222:0]          mpool.c:43   UCX  WARN  object 0x3b80a00 was not returned to mpool ucp_requests
[1624940277.824412] [holy7c04303:221233:0]          mpool.c:43   UCX  WARN  object 0x324ecc0 was not returned to mpool ucp_requests
[1624940277.830328] [holy7c04101:201166:0]          mpool.c:43   UCX  WARN  object 0x3a1b500 was not returned to mpool ucp_requests
[1624940277.828346] [holy7c04303:221228:0]          mpool.c:43   UCX  WARN  object 0x2a7c480 was not returned to mpool ucp_requests
[1624940277.828941] [holy7c04303:221232:0]          mpool.c:43   UCX  WARN  object 0x2cf19c0 was not returned to mpool ucp_requests
[1624940277.828961] [holy7c04303:221232:0]          mpool.c:43   UCX  WARN  object 0x2cf1f00 was not returned to mpool ucp_requests
[1624940277.838515] [holy7c04101:201167:0]          mpool.c:43   UCX  WARN  object 0x2980200 was not returned to mpool ucp_requests