     Program PWSCF v.6.5 starts on  4May2021 at 21:16:37

     R & G space division:  proc/nbgrp/npool/nimage =      80
     Reading input from dYBCO_rt2_112_20vac_NOcleave_0sep.pwi

     Current dimensions of program PWSCF are:
     Max number of different atomic species (ntypx) = 10
     Max number of k-points (npk) =  40000
     Max angular momentum in pseudopotentials (lmaxx) =  3
     Message from routine volume:
     axis vectors are left-handed

     Message from routine setup:
     using ibrav=0 with symmetry is DISCOURAGED, use correct ibrav instead

     bravais-lattice index     =            0
     lattice parameter (alat)  =      20.5724  a.u.
     unit-cell volume          =   34773.4313 (a.u.)^3
     number of atoms/cell      =          224
     number of atomic types    =            5
     number of electrons       =      1830.00
     number of Kohn-Sham states=         1098
     kinetic-energy cutoff     =      60.0000  Ry
     charge density cutoff     =     720.0000  Ry
     convergence threshold     =      1.0E-08
     mixing beta               =       0.5000
     number of iterations used =           10  local-TF  mixing
     Exchange-correlation= SLA PW PBE PBE
                           (   1   4   3   4   0   0   0)
     nstep                     =          300

     celldm(1)=  20.572363  celldm(2)=   0.000000  celldm(3)=   0.000000
     celldm(4)=   0.000000  celldm(5)=   0.000000  celldm(6)=   0.000000

     crystal axes: (cart. coord. in units of alat)
               a(1) = (  -0.696925   0.717144   0.000000 )
               a(2) = (   0.696925   0.717144   0.000000 )
               a(3) = (   0.000000   0.000000   3.995513 )

     reciprocal axes: (cart. coord. in units 2 pi/alat)
               b(1) = ( -0.717437  0.697210  0.000000 )
               b(2) = (  0.717437  0.697210  0.000000 )
               b(3) = (  0.000000  0.000000  0.250281 )

     PseudoPot. # 1 for Ba read from file:
     ./pseudo/Ba.pbe-nsp-van.UPF
     MD5 check sum: 2b9c31dd849566dd297d80989662b7a0
     Pseudo is Ultrasoft + core correction, Zval = 10.0
     Generated by new atomic code, or converted to UPF format
     Using radial grid of  907 points,  6 beta functions with:
                l(1) =   0
                l(2) =   0
                l(3) =   1
                l(4) =   1
                l(5) =   2
                l(6) =   2
     Q(r) pseudized with  6 coefficients,  rinner =    1.200   1.200   1.200
                                                       1.200   1.200

     PseudoPot. # 2 for Ca read from file:
     ./pseudo/Ca.pbe-nsp-van.UPF
     MD5 check sum: 6471098428ff4fa451746d08035ff179
     Pseudo is Ultrasoft + core correction, Zval = 10.0
     Generated by new atomic code, or converted to UPF format
     Using radial grid of  845 points,  6 beta functions with:
                l(1) =   0
                l(2) =   0
                l(3) =   1
                l(4) =   1
                l(5) =   2
                l(6) =   2
     Q(r) pseudized with  6 coefficients,  rinner =    1.200   1.200   1.200
                                                       1.200   1.200

     PseudoPot. # 3 for Cu read from file:
     ./pseudo/Cu.pbe-n-van_ak.UPF
     MD5 check sum: 34e3282627ffb533726feb647e090d62
     Pseudo is Ultrasoft + core correction, Zval = 11.0
     Generated by new atomic code, or converted to UPF format
     Using radial grid of  867 points,  6 beta functions with:
                l(1) =   0
                l(2) =   0
                l(3) =   1
                l(4) =   1
                l(5) =   2
                l(6) =   2
     Q(r) pseudized with  8 coefficients,  rinner =    1.400   1.400   1.400
                                                       1.400   1.400

     PseudoPot. # 4 for O  read from file:
     ./pseudo/O.pbe-van_ak.UPF
     MD5 check sum: 783ce7fe4c79b6a4916957118fed0856
     Pseudo is Ultrasoft, Zval =  6.0
     Generated by new atomic code, or converted to UPF format
     Using radial grid of  737 points,  4 beta functions with:
                l(1) =   0
                l(2) =   0
                l(3) =   1
                l(4) =   1
     Q(r) pseudized with  8 coefficients,  rinner =    0.800   0.800   0.800

     PseudoPot. # 5 for Y  read from file:
     ./pseudo/Y.pbe-nsp-van.UPF
     MD5 check sum: 4412fed3ab108fed87a1b7d6a69a4a38
     Pseudo is Ultrasoft + core correction, Zval = 11.0
     Generated by new atomic code, or converted to UPF format
     Using radial grid of  885 points,  6 beta functions with:
                l(1) =   0
                l(2) =   0
                l(3) =   1
                l(4) =   1
                l(5) =   2
                l(6) =   2
     Q(r) pseudized with  6 coefficients,  rinner =    1.200   1.200   1.200
                                                       1.200   1.200

     atomic species   valence    mass     pseudopotential
        Ba            10.00   137.32700     Ba( 1.00)
        Ca            10.00    40.07800     Ca( 1.00)
        Cu            11.00    63.54600     Cu( 1.00)
        O              6.00    15.99900     O ( 1.00)
        Y             11.00    88.90584     Y ( 1.00)

      4 Sym. Ops. (no inversion) found ( 3 have fractional translation)

   Cartesian axes

     site n.     atom                  positions (alat units)
         1           O   tau(   1) = (   0.3475374   0.8964301  -0.0000156  )
         2           O   tau(   2) = (   0.0009250   0.8964301  -0.0000156  )
         3           Cu  tau(   3) = (   0.0000386   0.0001194  -0.0000147  )
         4           Cu  tau(   4) = (   0.0000386   0.3584519  -0.0000147  )
         5           Cu  tau(   5) = (   0.3484238   0.3584519  -0.0000147  )
         6           Cu  tau(   6) = (  -0.3485010   0.7172639  -0.0000147  )
         7           Cu  tau(   7) = (   0.3484413   0.7171537  -0.0000147  )
         8           Cu  tau(   8) = (   0.0000211   1.0757066  -0.0000147  )
         9           Cu  tau(   9) = (  -0.3484844   0.3585621  -0.0000147  )
        10           Cu  tau(  10) = (   0.0000211   0.7171537  -0.0000147  )
        11           O   tau(  11) = (  -0.0003463   0.5378184  -0.0000138  )
        12           O   tau(  12) = (   0.3488087   0.5378184  -0.0000138  )
        13           O   tau(  13) = (  -0.0003463   1.2550419  -0.0000138  )
        14           O   tau(  14) = (  -0.3481170   0.5378974  -0.0000138  )
        15           O   tau(  15) = (  -0.3479902   0.8964301  -0.0000101  )
        16           O   tau(  16) = (  -0.0004721   0.1792857  -0.0000101  )
        17           O   tau(  17) = (   0.3487664   0.3587945   0.1724285  )
        18           O   tau(  18) = (  -0.0003040   0.3587945   0.1724285  )
        19           O   tau(  19) = (  -0.0003040  -0.0002223   0.1724285  )
        20           O   tau(  20) = (  -0.3481583   0.7169213   0.1724285  )
        21           O   tau(  21) = (   0.3484780   0.7170691   0.1728749  )
        22           O   tau(  22) = (  -0.3484477   0.3586476   0.1728749  )
        23           O   tau(  23) = (  -0.0000156   0.7170691   0.1728749  )
        24           O   tau(  24) = (  -0.0000156   1.0757911   0.1728749  )
        25           Ba  tau(  25) = (   0.1742317   0.8964301   0.1925774  )
        26           Ba  tau(  26) = (   0.5226941   0.5378579   0.1929182  )
        27           Ba  tau(  27) = (  -0.1742317   0.5378579   0.1929182  )
        28           Ba  tau(  28) = (  -0.1750648   0.8964301   0.1932471  )
        29           Ba  tau(  29) = (  -0.1733985   0.1792857   0.1932471  )
        30           Ba  tau(  30) = (   0.1742317   0.5371276   0.1935171  )
        31           Ba  tau(  31) = (  -0.5226941   0.5385882   0.1935171  )
        32           Ba  tau(  32) = (   0.1742317   0.1792857   0.1962086  )
        33           Cu  tau(  33) = (  -0.3483953   0.3585621   0.3764045  )
        34           Cu  tau(  34) = (   0.3485295   0.7171546   0.3764045  )
        35           Cu  tau(  35) = (  -0.0000671   0.7171546   0.3764045  )
        36           Cu  tau(  36) = (  -0.0000671   1.0757057   0.3764045  )
        37           Cu  tau(  37) = (  -0.3487756   0.7176552   0.3766948  )
        38           Cu  tau(  38) = (   0.3481492   0.3580606   0.3766948  )
        39           Cu  tau(  39) = (   0.0003132   0.0005116   0.3766948  )
        40           Cu  tau(  40) = (   0.0003132   0.3580606   0.3766948  )
        41           O   tau(  41) = (  -0.0050375   0.1792857   0.3994883  )
        42           O   tau(  42) = (  -0.3434249   0.8964301   0.3994883  )
        43           O   tau(  43) = (  -0.5226941   0.7118232   0.4023488  )
        44           O   tau(  44) = (   0.1742317   0.3638926   0.4023488  )
        45           O   tau(  45) = (   0.3484422   0.8964301   0.4045708  )
        46           O   tau(  46) = (   0.0000202   0.8964301   0.4045708  )
        47           O   tau(  47) = (  -0.0007349   0.5378478   0.4046241  )
        48           O   tau(  48) = (   0.3491973   0.5378478   0.4046241  )
        49           O   tau(  49) = (  -0.3477275   0.5378689   0.4046241  )
        50           O   tau(  50) = (  -0.0007349   1.2550125   0.4046241  )
        51           O   tau(  51) = (   0.1742317   1.0757231   0.4074441  )
        52           O   tau(  52) = (   0.1742317   0.7171362   0.4074441  )
        53           O   tau(  53) = (  -0.1743217   0.7165235   0.4076398  )
        54           O   tau(  54) = (  -0.1741407   0.3591923   0.4076398  )
        55           O   tau(  55) = (  -0.1743217   1.0763367   0.4076398  )
        56           O   tau(  56) = (   0.5227841   0.7165235   0.4076398  )
        57           Ca  tau(  57) = (   0.1742317   0.1792857   0.5372847  )
        58           Y   tau(  58) = (  -0.1759687   0.8964301   0.5372884  )
        59           Y   tau(  59) = (  -0.1724937   0.1792857   0.5372884  )
        60           Y   tau(  60) = (   0.1742317   0.8964301   0.5372948  )
[...]
       210           O   tau( 210) = (   0.0009250   0.8964301   2.1491774  )
       211           Cu  tau( 211) = (   0.0000386   0.0001194   2.1491774  )
       212           Cu  tau( 212) = (   0.0000386   0.3584519   2.1491774  )
       213           Cu  tau( 213) = (   0.3484238   0.3584519   2.1491774  )
       214           Cu  tau( 214) = (  -0.3485010   0.7172639   2.1491774  )
       215           Cu  tau( 215) = (   0.3484413   0.7171537   2.1491774  )
       216           Cu  tau( 216) = (   0.0000211   1.0757066   2.1491774  )
       217           Cu  tau( 217) = (  -0.3484844   0.3585621   2.1491774  )
       218           Cu  tau( 218) = (   0.0000211   0.7171537   2.1491774  )
       219           O   tau( 219) = (  -0.0003463   0.5378184   2.1491774  )
       220           O   tau( 220) = (   0.3488087   0.5378184   2.1491774  )
       221           O   tau( 221) = (  -0.0003463   1.2550419   2.1491774  )
       222           O   tau( 222) = (  -0.3481170   0.5378974   2.1491774  )
       223           O   tau( 223) = (  -0.3479902   0.8964301   2.1491774  )
       224           O   tau( 224) = (  -0.0004721   0.1792857   2.1491774  )

[...]
   -37.7678 -37.7675 -37.7545 -37.7542 -37.7528 -37.7525 -35.3415 -35.3411
   -22.4303 -22.4302 -22.3844 -22.3842 -22.3728 -22.3728 -22.3649 -22.3648
   -22.2819 -22.2817 -22.2798 -22.2797 -22.2747 -22.2747 -22.2352 -22.2352
   -22.2227 -22.2056 -22.1914 -22.1666 -22.1491 -22.1293 -22.1141 -22.0971
   -22.0912 -22.0728 -21.9932 -21.9688 -21.9589 -21.9371 -21.8887 -21.8598
   -18.3836 -18.3832 -18.3112 -18.3107 -18.3054 -18.3050 -18.2810 -18.2806
   -18.2565 -18.2560 -18.2175 -18.2171 -18.1795 -18.1790 -18.1693 -18.1689
   -18.1135 -18.1132 -18.1068 -18.1064 -18.0872 -18.0868 -18.0852 -18.0848
   -18.0773 -18.0770 -18.0046 -18.0041 -17.9784 -17.9780 -17.9431 -17.9427
   -17.9181 -17.9177 -17.8988 -17.8984 -17.8952 -17.8948 -17.8249 -17.8245
   -17.7718 -17.7714 -16.6011 -16.6006 -16.5722 -16.5717 -16.5664 -16.5660
   -14.9517 -14.9501 -14.7642 -14.7631 -14.6951 -14.6932 -14.5697 -14.5692
   -14.4357 -14.4268 -14.4256 -14.4238 -14.3962 -14.3935 -14.3622 -14.3560
   -14.3295 -14.2779 -14.2769 -14.2664 -14.2652 -14.2578 -14.2441 -14.2381
   -14.2377 -14.2366 -14.2153 -14.2079 -14.1921 -14.1907 -14.1851 -14.1749
   -14.1718 -14.1441 -14.1341 -14.1307 -14.1152 -14.0784 -14.0696 -14.0691
   -14.0677 -14.0652 -14.0615 -14.0409 -14.0403 -14.0387 -14.0384 -14.0362
   -14.0279 -14.0204 -14.0163 -13.9892 -13.9860 -13.9630 -13.9448 -13.9432
   -13.9113 -13.9109 -13.8941 -13.8922 -13.8782 -13.8705 -13.8670 -13.8640
   -13.8490 -13.8478 -13.8335 -13.8328 -13.7997 -13.7957 -13.7901 -13.7886
   -13.7812 -13.7776 -13.7704 -13.7617 -13.7581 -13.7552 -13.7268 -13.7248
   -13.7155 -13.7134 -13.6954 -13.6891 -13.6779 -13.6693 -13.6681 -13.6647
   -13.5407 -13.4952 -13.4951 -13.4901 -13.4900 -13.4739 -13.4739 -13.4733
   -13.4732 -13.4561 -13.4236 -13.4235 -13.4205 -13.4204 -13.3992 -13.3911
   -13.3875 -13.3874 -13.3809 -13.3808 -13.3564 -13.3554 -13.3035 -13.3000
   -13.2992 -13.2837 -13.2481 -13.2422 -13.2153 -13.1685 -13.1279 -13.0796
    -8.2102  -8.2101  -7.9313  -7.9301  -7.9301  -7.9245  -7.9245  -7.9209
    -7.9208  -7.8947  -7.7701  -7.7700  -7.7317  -7.7228  -7.7224  -7.7082
    -7.7075  -7.6839  -7.6829  -7.6784  -7.6720  -7.6718  -7.6627  -7.6613
    -7.6607  -7.6395  -7.6307  -7.6302  -7.6271  -7.6269  -7.6162  -7.6160
    -7.6132  -7.6088  -7.6087  -7.6057  -7.6057  -7.5969  -7.5967  -7.5917
    -7.5916  -7.5824  -7.5821  -7.5629  -7.5486  -7.5309  -7.5279  -7.5206
    -7.5105  -7.4912  -7.4794  -7.4753  -7.4362  -7.4361  -7.4313  -7.4188
    -7.4015  -7.3998  -7.3997  -7.3896  -7.3736  -7.3640  -7.3597  -7.3596
    -7.3473  -7.3371  -7.3361  -7.3146  -7.3082  -7.3078  -7.3076  -7.2758
    -7.2618  -7.2534  -7.2533  -7.2448  -7.2446  -7.2442  -7.2383  -7.2349
    -7.2349  -7.1993  -7.1721  -7.1320  -7.1044  -7.0812  -7.0603  -7.0538
    -7.0340  -7.0024  -6.9641  -6.9622  -6.9534  -6.9223  -6.9177  -6.8478
    -3.6095  -3.6001  -3.1884  -3.1829  -3.1394  -3.1320  -3.1132  -3.0850
    -3.0641  -3.0530  -2.8387  -2.7401  -2.7308  -2.7267  -2.7143  -2.6987
    -2.6956  -2.6800  -2.5424  -2.5422  -2.5036  -2.5034  -2.4468  -2.4440
    -2.3898  -2.3806  -2.3750  -2.3665  -2.2835  -2.2688  -2.2189  -2.1986
    -2.1811  -2.1495  -2.0392  -2.0390  -1.9847  -1.9766  -1.9641  -1.9631
    -1.9606  -1.9604  -1.9435  -1.9406  -1.9403  -1.9229  -1.8904  -1.8821
    -1.8746  -1.8619  -1.8531  -1.8423  -1.8013  -1.8003  -1.7933  -1.7896
    -1.7544  -1.7541  -1.7510  -1.7510  -1.7370  -1.7358  -1.6987  -1.6982
    -1.6938  -1.6932  -1.6673  -1.6670  -1.6668  -1.6624  -1.6528  -1.6477
    -1.6422  -1.6334  -1.6280  -1.5958  -1.5909  -1.5900  -1.5889  -1.5833
    -1.5814  -1.5768  -1.5597  -1.5562  -1.5524  -1.5519  -1.5486  -1.5484
    -1.5411  -1.5408  -1.5248  -1.5181  -1.5066  -1.5048  -1.5047  -1.5010
    -1.5009  -1.4971  -1.4931  -1.4888  -1.4747  -1.4686  -1.4601  -1.4596
    -1.4341  -1.4300  -1.4251  -1.4215  -1.4076  -1.3996  -1.3990  -1.3858
    -1.3730  -1.3682  -1.3630  -1.3588  -1.3477  -1.3474  -1.3313  -1.3221
    -1.3209  -1.3171  -1.3092  -1.2906  -1.2880  -1.2681  -1.2583  -1.2320
    -1.2265  -1.2049  -1.1721  -1.1272  -0.9541  -0.9422  -0.9203  -0.9111
    -0.9030  -0.9010  -0.8754  -0.8608  -0.8599  -0.8536  -0.8441  -0.8348
    -0.7444  -0.7380  -0.7033  -0.6868  -0.6833  -0.6473  -0.6130  -0.6029
    -0.5907  -0.5712  -0.5685  -0.5684  -0.5567  -0.5472  -0.5468  -0.5423
    -0.5376  -0.5361  -0.5267  -0.5256  -0.5210  -0.5168  -0.5135  -0.4940
[...]
     7.4021   7.4068   7.4408   7.4708   7.4801   7.4853   7.6203   7.6320
     7.7297   7.7503   7.7859   7.9939   8.2140   8.2397   8.2411   8.2414
     8.2438   8.2460   8.2641   8.2663   8.2665   8.2957   8.3011   8.3024
     8.3122   8.3183   8.3206   8.4037   8.4342   8.4346   8.4641   8.4960
     8.5326   8.5913   8.6686   8.6694   8.7065   8.7146   8.7192   8.7222
     8.7248   8.7308   8.7379   8.7381   8.7421   8.7753   8.8045   8.8528
     8.8693   8.8884   8.9831   9.0428   9.0557   9.0830   9.0927   9.0945
     9.1079   9.1173   9.1221   9.1279   9.1943   9.2065   9.2114   9.2500
     9.2993   9.3180   9.3189   9.3586   9.3804   9.3834   9.4461   9.4625
     9.4810   9.4825   9.4926   9.4929   9.5082   9.5259   9.5333   9.5394
     9.5489   9.5555   9.5788   9.5920   9.6163   9.6300   9.6473   9.6535
     9.6692   9.6757   9.6810   9.7211   9.7456   9.7501   9.7608   9.7645
     9.7650   9.7668   9.8015   9.8121   9.8208   9.8335   9.8468   9.8683
     9.8797   9.9058   9.9112   9.9425   9.9473   9.9478   9.9528   9.9700
     9.9761   9.9763

     the Fermi energy is     3.2327 ev

!    total energy              =  -14924.92178127 Ry
     Harris-Foulkes estimate   =  -14924.92178127 Ry
     estimated scf accuracy    <          5.7E-11 Ry

     The total energy is the sum of the following terms:

     one-electron contribution = -252246.27757880 Ry
     hartree contribution      =  127377.73108926 Ry
     xc contribution           =   -5119.02621999 Ry
     ewald contribution        =  115062.70387453 Ry
     smearing contrib. (-TS)   =      -0.05294627 Ry

     convergence has been achieved in  43 iterations

     negative rho (up, down):  6.350E-01 0.000E+00

     Forces acting on atoms (cartesian axes, Ry/au):

     atom    1 type  4   force =     0.00011032    0.00000000    0.00021763
     atom    2 type  4   force =    -0.00011032    0.00000000    0.00021763
     atom    3 type  3   force =     0.00008700   -0.00006661   -0.00018840
     atom    4 type  3   force =     0.00008700    0.00006661   -0.00018840
     atom    5 type  3   force =    -0.00008700    0.00006661   -0.00018840
     atom    6 type  3   force =    -0.00008700   -0.00006661   -0.00018840
     atom    7 type  3   force =    -0.00000973   -0.00001874   -0.00033480
     atom    8 type  3   force =     0.00000973    0.00001874   -0.00033480
     atom    9 type  3   force =    -0.00000973    0.00001874   -0.00033480
     atom   10 type  3   force =     0.00000973   -0.00001874   -0.00033480
     atom   11 type  4   force =    -0.00010448    0.00008004    0.00014239
     atom   12 type  4   force =     0.00010448    0.00008004    0.00014239
     atom   13 type  4   force =    -0.00010448   -0.00008004    0.00014239
     atom   14 type  4   force =     0.00010448   -0.00008004    0.00014239
     atom   15 type  4   force =    -0.00016890    0.00000000    0.00015820
     atom   16 type  4   force =     0.00016890    0.00000000    0.00015820
     atom   17 type  4   force =     0.00002906    0.00004684    0.00040118
     atom   18 type  4   force =    -0.00002906    0.00004684    0.00040118
     atom   19 type  4   force =    -0.00002906   -0.00004684    0.00040118
     atom   20 type  4   force =     0.00002906   -0.00004684    0.00040118
     atom   21 type  4   force =     0.00002667    0.00008397    0.00052443
     atom   22 type  4   force =     0.00002667   -0.00008397    0.00052443
     atom   23 type  4   force =    -0.00002667    0.00008397    0.00052443
     atom   24 type  4   force =    -0.00002667   -0.00008397    0.00052443
     atom   25 type  1   force =     0.00000000    0.00000000    0.00001797
     atom   26 type  1   force =     0.00000000    0.00000000   -0.00007112
     atom   27 type  1   force =     0.00000000    0.00000000   -0.00007112
     atom   28 type  1   force =    -0.00018879    0.00000000    0.00003868
     atom   29 type  1   force =     0.00018879    0.00000000    0.00003868
     atom   30 type  1   force =     0.00000000    0.00009788   -0.00020490
     atom   31 type  1   force =     0.00000000   -0.00009788   -0.00020490
     atom   32 type  1   force =     0.00000000    0.00000000   -0.00009282
     atom   33 type  3   force =    -0.00003909   -0.00000196   -0.00015768
     atom   34 type  3   force =    -0.00003909    0.00000196   -0.00015768
     atom   35 type  3   force =     0.00003909    0.00000196   -0.00015768
     atom   36 type  3   force =     0.00003909   -0.00000196   -0.00015768
     atom   37 type  3   force =     0.00003855    0.00002071   -0.00022458
     atom   38 type  3   force =     0.00003855   -0.00002071   -0.00022458
     atom   39 type  3   force =    -0.00003855    0.00002071   -0.00022458
     atom   40 type  3   force =    -0.00003855   -0.00002071   -0.00022458
     atom   41 type  4   force =    -0.00013158    0.00000000   -0.00028117
     atom   42 type  4   force =     0.00013158    0.00000000   -0.00028117
     atom   43 type  4   force =     0.00000000    0.00002941   -0.00006019
     atom   44 type  4   force =     0.00000000   -0.00002941   -0.00006019
     atom   45 type  4   force =     0.00005626    0.00000000   -0.00016971
     atom   46 type  4   force =    -0.00005626    0.00000000   -0.00016971
     atom   47 type  4   force =    -0.00002619    0.00001096   -0.00014535
     atom   48 type  4   force =     0.00002619    0.00001096   -0.00014535
     atom   49 type  4   force =     0.00002619   -0.00001096   -0.00014535
     atom   50 type  4   force =    -0.00002619   -0.00001096   -0.00014535
     atom   51 type  4   force =     0.00000000   -0.00003480   -0.00013846
     atom   52 type  4   force =     0.00000000    0.00003480   -0.00013846
     atom   53 type  4   force =     0.00009659    0.00001194    0.00001538
     atom   54 type  4   force =    -0.00009659   -0.00001194    0.00001538
     atom   55 type  4   force =     0.00009659   -0.00001194    0.00001538
     atom   56 type  4   force =    -0.00009659    0.00001194    0.00001538
     atom   57 type  2   force =     0.00000000    0.00000000    0.00016051
     atom   58 type  5   force =     0.00027529    0.00000000    0.00004024
     atom   59 type  5   force =    -0.00027529    0.00000000    0.00004024
     atom   60 type  5   force =     0.00000000    0.00000000    0.00045705
[...]
     atom  210 type  4   force =    -0.00011139    0.00000000   -0.00019631
     atom  211 type  3   force =     0.00008518   -0.00006839    0.00018516
     atom  212 type  3   force =     0.00008518    0.00006839    0.00018516
     atom  213 type  3   force =    -0.00008518    0.00006839    0.00018516
     atom  214 type  3   force =    -0.00008518   -0.00006839    0.00018516
     atom  215 type  3   force =    -0.00000935   -0.00001798    0.00032853
     atom  216 type  3   force =     0.00000935    0.00001798    0.00032853
     atom  217 type  3   force =    -0.00000935    0.00001798    0.00032853
     atom  218 type  3   force =     0.00000935   -0.00001798    0.00032853
     atom  219 type  4   force =    -0.00010314    0.00007637   -0.00012787
     atom  220 type  4   force =     0.00010314    0.00007637   -0.00012787
     atom  221 type  4   force =    -0.00010314   -0.00007637   -0.00012787
     atom  222 type  4   force =     0.00010314   -0.00007637   -0.00012787
     atom  223 type  4   force =    -0.00016731    0.00000000   -0.00014698
     atom  224 type  4   force =     0.00016731    0.00000000   -0.00014698

     Total force =     0.004333     Total SCF correction =     0.000036

     Computing stress (Cartesian axis) and pressure

     negative rho (up, down):  6.350E-01 0.000E+00
          total   stress  (Ry/bohr**3)                   (kbar)     P=        0.26
   0.00000238   0.00000000   0.00000000            0.35        0.00        0.00
   0.00000000   0.00000180   0.00000000            0.00        0.26        0.00
   0.00000000   0.00000000   0.00000117            0.00        0.00        0.17

     General routines

     Parallel routines

   This run was terminated on:   4:19:45   7May2021

   JOB DONE.
[1620375585.472448] [holy7c04307:215401:0]          mpool.c:43   UCX  WARN  object 0x5a2bcc0 was not returned to mpool ucp_requests
[1620375585.483049] [holy7c04212:245881:0]          mpool.c:43   UCX  WARN  object 0x620fec0 was not returned to mpool ucp_requests
[1620375585.484049] [holy7c04310:156668:0]          mpool.c:43   UCX  WARN  object 0x2b02e00 was not returned to mpool ucp_requests
[1620375585.482617] [holy7c04405:266102:0]          mpool.c:43   UCX  WARN  object 0x2d6dcc0 was not returned to mpool ucp_requests
[1620375585.484784] [holy7c04304:128415:0]          mpool.c:43   UCX  WARN  object 0x448b340 was not returned to mpool ucp_requests
[1620375585.493618] [holy7c04201:100931:0]          mpool.c:43   UCX  WARN  object 0x406b980 was not returned to mpool ucp_requests
[1620375585.472810] [holy7c04307:215409:0]          mpool.c:43   UCX  WARN  object 0x4c24600 was not returned to mpool ucp_requests
[1620375585.472747] [holy7c04307:215402:0]          mpool.c:43   UCX  WARN  object 0x342e540 was not returned to mpool ucp_requests
[1620375585.481034] [holy7c04307:215410:0]          mpool.c:43   UCX  WARN  object 0x37b70c0 was not returned to mpool ucp_requests
[1620375585.481060] [holy7c04307:215408:0]          mpool.c:43   UCX  WARN  object 0x44e3c80 was not returned to mpool ucp_requests
[1620375585.481823] [holy7c04307:215403:0]          mpool.c:43   UCX  WARN  object 0x328ae00 was not returned to mpool ucp_requests
[1620375585.487843] [holy7c04405:266104:0]          mpool.c:43   UCX  WARN  object 0x4683340 was not returned to mpool ucp_requests
[1620375585.480069] [holy7c04212:245889:0]          mpool.c:43   UCX  WARN  object 0x31eb500 was not returned to mpool ucp_requests
[1620375585.493112] [holy7c04310:156674:0]          mpool.c:43   UCX  WARN  object 0x3b0b400 was not returned to mpool ucp_requests
[1620375585.503991] [holy7c04212:245883:0]          mpool.c:43   UCX  WARN  object 0x4691580 was not returned to mpool ucp_requests
[1620375585.479912] [holy7c04212:245890:0]          mpool.c:43   UCX  WARN  object 0x3a83280 was not returned to mpool ucp_requests
[1620375585.493406] [holy7c04405:266103:0]          mpool.c:43   UCX  WARN  object 0x287a8c0 was not returned to mpool ucp_requests
[1620375585.498366] [holy7c04212:245882:0]          mpool.c:43   UCX  WARN  object 0x4576cc0 was not returned to mpool ucp_requests
[1620375585.477614] [holy7c04310:156673:0]          mpool.c:43   UCX  WARN  object 0x3b46540 was not returned to mpool ucp_requests
[1620375585.498650] [holy7c04212:245880:0]          mpool.c:43   UCX  WARN  object 0x33216c0 was not returned to mpool ucp_requests
[1620375585.499094] [holy7c04405:266101:0]          mpool.c:43   UCX  WARN  object 0x446ef40 was not returned to mpool ucp_requests
[1620375585.489715] [holy7c04212:245891:0]          mpool.c:43   UCX  WARN  object 0x32f9340 was not returned to mpool ucp_requests
[1620375585.485708] [holy7c04304:128416:0]          mpool.c:43   UCX  WARN  object 0x43f6e40 was not returned to mpool ucp_requests
[1620375585.494937] [holy7c04304:128413:0]          mpool.c:43   UCX  WARN  object 0x3b14700 was not returned to mpool ucp_requests
[1620375585.488358] [holy7c04307:215400:0]          mpool.c:43   UCX  WARN  object 0x34e4800 was not returned to mpool ucp_requests
[1620375585.512240] [holy7c04201:100933:0]          mpool.c:43   UCX  WARN  object 0x42e9c00 was not returned to mpool ucp_requests
[1620375585.492095] [holy7c04212:245888:0]          mpool.c:43   UCX  WARN  object 0x450ce00 was not returned to mpool ucp_requests
[1620375585.486002] [holy7c04310:156676:0]          mpool.c:43   UCX  WARN  object 0x45a09c0 was not returned to mpool ucp_requests
[1620375585.498508] [holy7c04310:156675:0]          mpool.c:43   UCX  WARN  object 0x410b280 was not returned to mpool ucp_requests
[1620375585.538927] [holy7c04201:100932:0]          mpool.c:43   UCX  WARN  object 0x3268440 was not returned to mpool ucp_requests
[1620375585.532787] [holy7c04304:128414:0]          mpool.c:43   UCX  WARN  object 0x424d480 was not returned to mpool ucp_requests
[1620375585.532809] [holy7c04304:128414:0]          mpool.c:43   UCX  WARN  object 0x2a63880 was not returned to mpool ucp_requests