     Program PWSCF v.6.5 starts on  4May2021 at 15:37:49

     R & G space division:  proc/nbgrp/npool/nimage =      80
     Reading input from dYBCO_rt2_111_0vac_NOcleave_0sep_333_rn2.pwi

     Current dimensions of program PWSCF are:
     Max number of different atomic species (ntypx) = 10
     Max number of k-points (npk) =  40000
     Max angular momentum in pseudopotentials (lmaxx) =  3
     Message from routine volume:
     axis vectors are left-handed

     Message from routine setup:
     using ibrav=0 with symmetry is DISCOURAGED, use correct ibrav instead

     bravais-lattice index     =            0
     lattice parameter (alat)  =      20.4729  a.u.
     unit-cell volume          =    9248.1095 (a.u.)^3
     number of atoms/cell      =          104
     number of atomic types    =            5
     number of electrons       =       847.00
     number of Kohn-Sham states=          509
     kinetic-energy cutoff     =      60.0000  Ry
     charge density cutoff     =     720.0000  Ry
     convergence threshold     =      1.0E-08
     mixing beta               =       0.5000
     number of iterations used =           10  local-TF  mixing
     Exchange-correlation= SLA PW PBE PBE
                           (   1   4   3   4   0   0   0)
     nstep                     =          300

     celldm(1)=  20.472913  celldm(2)=   0.000000  celldm(3)=   0.000000
     celldm(4)=   0.000000  celldm(5)=   0.000000  celldm(6)=   0.000000

     crystal axes: (cart. coord. in units of alat)
               a(1) = (  -0.697816   0.716277   0.000000 )
               a(2) = (   0.697816   0.716277   0.000000 )
               a(3) = (   0.000000   0.000000   1.078108 )

     reciprocal axes: (cart. coord. in units 2 pi/alat)
               b(1) = ( -0.716521  0.698054  0.000000 )
               b(2) = (  0.716521  0.698054  0.000000 )
               b(3) = (  0.000000  0.000000  0.927551 )

     PseudoPot. # 1 for Ba read from file:
     ./pseudo/Ba.pbe-nsp-van.UPF
     MD5 check sum: 2b9c31dd849566dd297d80989662b7a0
     Pseudo is Ultrasoft + core correction, Zval = 10.0
     Generated by new atomic code, or converted to UPF format
     Using radial grid of  907 points,  6 beta functions with:
                l(1) =   0
                l(2) =   0
                l(3) =   1
                l(4) =   1
                l(5) =   2
                l(6) =   2
     Q(r) pseudized with  6 coefficients,  rinner =    1.200   1.200   1.200
                                                       1.200   1.200

     PseudoPot. # 2 for Ca read from file:
     ./pseudo/Ca.pbe-nsp-van.UPF
     MD5 check sum: 6471098428ff4fa451746d08035ff179
     Pseudo is Ultrasoft + core correction, Zval = 10.0
     Generated by new atomic code, or converted to UPF format
     Using radial grid of  845 points,  6 beta functions with:
                l(1) =   0
                l(2) =   0
                l(3) =   1
                l(4) =   1
                l(5) =   2
                l(6) =   2
     Q(r) pseudized with  6 coefficients,  rinner =    1.200   1.200   1.200
                                                       1.200   1.200

     PseudoPot. # 3 for Cu read from file:
     ./pseudo/Cu.pbe-n-van_ak.UPF
     MD5 check sum: 34e3282627ffb533726feb647e090d62
     Pseudo is Ultrasoft + core correction, Zval = 11.0
     Generated by new atomic code, or converted to UPF format
     Using radial grid of  867 points,  6 beta functions with:
                l(1) =   0
                l(2) =   0
                l(3) =   1
                l(4) =   1
                l(5) =   2
                l(6) =   2
     Q(r) pseudized with  8 coefficients,  rinner =    1.400   1.400   1.400
                                                       1.400   1.400

     PseudoPot. # 4 for O  read from file:
     ./pseudo/O.pbe-van_ak.UPF
     MD5 check sum: 783ce7fe4c79b6a4916957118fed0856
     Pseudo is Ultrasoft, Zval =  6.0
     Generated by new atomic code, or converted to UPF format
     Using radial grid of  737 points,  4 beta functions with:
                l(1) =   0
                l(2) =   0
                l(3) =   1
                l(4) =   1
     Q(r) pseudized with  8 coefficients,  rinner =    0.800   0.800   0.800

     PseudoPot. # 5 for Y  read from file:
     ./pseudo/Y.pbe-nsp-van.UPF
     MD5 check sum: 4412fed3ab108fed87a1b7d6a69a4a38
     Pseudo is Ultrasoft + core correction, Zval = 11.0
     Generated by new atomic code, or converted to UPF format
     Using radial grid of  885 points,  6 beta functions with:
                l(1) =   0
                l(2) =   0
                l(3) =   1
                l(4) =   1
                l(5) =   2
                l(6) =   2
     Q(r) pseudized with  6 coefficients,  rinner =    1.200   1.200   1.200
                                                       1.200   1.200

     atomic species   valence    mass     pseudopotential
        Ba            10.00   137.32700     Ba( 1.00)
        Ca            10.00    40.07800     Ca( 1.00)
        Cu            11.00    63.54600     Cu( 1.00)
        O              6.00    15.99900     O ( 1.00)
        Y             11.00    88.90584     Y ( 1.00)

      4 Sym. Ops. (no inversion) found ( 3 have fractional translation)

   Cartesian axes

     site n.     atom                  positions (alat units)
         1           Cu  tau(   1) = (   0.0000000   0.0000000   0.0000000  )
         2           Cu  tau(   2) = (   0.0000000   0.3581385   0.0000000  )
         3           O   tau(   3) = (   0.0000000   0.1790692   0.0000000  )
         4           O   tau(   4) = (   0.0000000   0.5372077   0.0000000  )
         5           O   tau(   5) = (   0.0000000   0.0000000   0.1716129  )
         6           O   tau(   6) = (   0.0000000   0.3581385   0.1716129  )
         7           Ba  tau(   7) = (  -0.1744540   0.1790692   0.1947166  )
         8           Ba  tau(   8) = (   0.1744540   0.1790692   0.1947166  )
         9           Cu  tau(   9) = (   0.0000000   0.0000000   0.3809172  )
        10           Cu  tau(  10) = (   0.0000000   0.3581385   0.3809172  )
        11           O   tau(  11) = (   0.0000000   0.1790692   0.4079022  )
        12           O   tau(  12) = (   0.0000000   0.5372077   0.4079022  )
        13           O   tau(  13) = (   0.1744540   0.3581385   0.4089803  )
        14           O   tau(  14) = (  -0.1744540   0.3581385   0.4089803  )
        15           Y   tau(  15) = (  -0.1744540   0.1790692   0.5390538  )
        16           Ca  tau(  16) = (   0.1744540   0.1790692   0.5390538  )
        17           O   tau(  17) = (   0.0000000   0.1790692   0.6691272  )
        18           O   tau(  18) = (   0.0000000   0.5372077   0.6691272  )
        19           O   tau(  19) = (   0.1744540   0.3581385   0.6702053  )
        20           O   tau(  20) = (  -0.1744540   0.3581385   0.6702053  )
        21           Cu  tau(  21) = (   0.0000000   0.0000000   0.6971903  )
        22           Cu  tau(  22) = (   0.0000000   0.3581385   0.6971903  )
        23           Ba  tau(  23) = (  -0.1744540   0.1790692   0.8833910  )
        24           Ba  tau(  24) = (   0.1744540   0.1790692   0.8833910  )
        25           O   tau(  25) = (   0.0000000   0.0000000   0.9064946  )
        26           O   tau(  26) = (   0.0000000   0.3581385   0.9064946  )
        27           Cu  tau(  27) = (   0.3489081   0.3581385   0.0000000  )
        28           Cu  tau(  28) = (   0.3489081   0.7162769   0.0000000  )
        29           O   tau(  29) = (   0.3489081   0.5372077   0.0000000  )
        30           O   tau(  30) = (   0.3489081   0.8953461   0.0000000  )
        31           O   tau(  31) = (   0.3489081   0.3581385   0.1716129  )
        32           O   tau(  32) = (   0.3489081   0.7162769   0.1716129  )
        33           Ba  tau(  33) = (   0.1744540   0.5372077   0.1947166  )
        34           Ba  tau(  34) = (   0.5233621   0.5372077   0.1947166  )
        35           Cu  tau(  35) = (   0.3489081   0.3581385   0.3809172  )
        36           Cu  tau(  36) = (   0.3489081   0.7162769   0.3809172  )
        37           O   tau(  37) = (   0.3489081   0.5372077   0.4079022  )
        38           O   tau(  38) = (   0.3489081   0.8953461   0.4079022  )
        39           O   tau(  39) = (   0.5233621   0.7162769   0.4089803  )
        40           O   tau(  40) = (   0.1744540   0.7162769   0.4089803  )
        41           Y   tau(  41) = (   0.1744540   0.5372077   0.5390538  )
        42           Y   tau(  42) = (   0.5233621   0.5372077   0.5390538  )
        43           O   tau(  43) = (   0.3489081   0.5372077   0.6691272  )
        44           O   tau(  44) = (   0.3489081   0.8953461   0.6691272  )
        45           O   tau(  45) = (   0.5233621   0.7162769   0.6702053  )
        46           O   tau(  46) = (   0.1744540   0.7162769   0.6702053  )
        47           Cu  tau(  47) = (   0.3489081   0.3581385   0.6971903  )
        48           Cu  tau(  48) = (   0.3489081   0.7162769   0.6971903  )
        49           Ba  tau(  49) = (   0.1744540   0.5372077   0.8833910  )
        50           Ba  tau(  50) = (   0.5233621   0.5372077   0.8833910  )
        51           O   tau(  51) = (   0.3489081   0.3581385   0.9064946  )
        52           O   tau(  52) = (   0.3489081   0.7162769   0.9064946  )
        53           Cu  tau(  53) = (  -0.3489081   0.3581385   0.0000000  )
        54           Cu  tau(  54) = (  -0.3489081   0.7162769   0.0000000  )
        55           O   tau(  55) = (  -0.3489081   0.5372077   0.0000000  )
        56           O   tau(  56) = (  -0.3489081   0.8953461   0.0000000  )
        57           O   tau(  57) = (  -0.3489081   0.3581385   0.1716129  )
        58           O   tau(  58) = (  -0.3489081   0.7162769   0.1716129  )
        59           Ba  tau(  59) = (  -0.5233621   0.5372077   0.1947166  )
        60           Ba  tau(  60) = (  -0.1744540   0.5372077   0.1947166  )
[...]
        90           O   tau(  90) = (   0.0000000   1.2534846   0.4079022  )
        91           O   tau(  91) = (   0.1744540   1.0744154   0.4089803  )
        92           O   tau(  92) = (  -0.1744540   1.0744154   0.4089803  )
        93           Y   tau(  93) = (  -0.1744540   0.8953461   0.5390538  )
        94           Y   tau(  94) = (   0.1744540   0.8953461   0.5390538  )
        95           O   tau(  95) = (   0.0000000   0.8953461   0.6691272  )
        96           O   tau(  96) = (   0.0000000   1.2534846   0.6691272  )
        97           O   tau(  97) = (   0.1744540   1.0744154   0.6702053  )
        98           O   tau(  98) = (  -0.1744540   1.0744154   0.6702053  )
        99           Cu  tau(  99) = (   0.0000000   0.7162769   0.6971903  )
       100           Cu  tau( 100) = (   0.0000000   1.0744154   0.6971903  )
       101           Ba  tau( 101) = (  -0.1744540   0.8953461   0.8833910  )
       102           Ba  tau( 102) = (   0.1744540   0.8953461   0.8833910  )
       103           O   tau( 103) = (   0.0000000   0.7162769   0.9064946  )
[...]

   JOB DONE.
[1620163289.658689] [holy7c08110:248742:0]          mpool.c:43   UCX  WARN  object 0x4747a80 was not returned to mpool ucp_requests
[1620163289.658716] [holy7c08110:248742:0]          mpool.c:43   UCX  WARN  object 0x474e700 was not returned to mpool ucp_requests
[1620163289.658720] [holy7c08110:248742:0]          mpool.c:43   UCX  WARN  object 0x474f500 was not returned to mpool ucp_requests
[1620163289.657630] [holy7c08102:52086:0]          mpool.c:43   UCX  WARN  object 0x4825800 was not returned to mpool ucp_requests
[1620163289.657658] [holy7c08102:52086:0]          mpool.c:43   UCX  WARN  object 0x4831180 was not returned to mpool ucp_requests
[1620163289.659426] [holy7c08102:52088:0]          mpool.c:43   UCX  WARN  object 0x3cb5700 was not returned to mpool ucp_requests
[1620163289.659453] [holy7c08102:52088:0]          mpool.c:43   UCX  WARN  object 0x3cb6500 was not returned to mpool ucp_requests
[1620163289.665639] [holy7c08203:144901:0]          mpool.c:43   UCX  WARN  object 0x429d380 was not returned to mpool ucp_requests
[1620163289.665669] [holy7c08203:144901:0]          mpool.c:43   UCX  WARN  object 0x42a1600 was not returned to mpool ucp_requests
[1620163289.667922] [holy7c08203:144897:0]          mpool.c:43   UCX  WARN  object 0x3282040 was not returned to mpool ucp_requests
[1620163289.667950] [holy7c08203:144897:0]          mpool.c:43   UCX  WARN  object 0x3289740 was not returned to mpool ucp_requests
[1620163289.666420] [holy7c08102:52090:0]          mpool.c:43   UCX  WARN  object 0x414d200 was not returned to mpool ucp_requests
[1620163289.666447] [holy7c08102:52090:0]          mpool.c:43   UCX  WARN  object 0x414fc00 was not returned to mpool ucp_requests
[1620163289.671400] [holy7c08203:144899:0]          mpool.c:43   UCX  WARN  object 0x3a83d40 was not returned to mpool ucp_requests
[1620163289.671429] [holy7c08203:144899:0]          mpool.c:43   UCX  WARN  object 0x3a8a800 was not returned to mpool ucp_requests
[1620163289.671433] [holy7c08203:144899:0]          mpool.c:43   UCX  WARN  object 0x3a8b0c0 was not returned to mpool ucp_requests
[1620163289.672466] [holy7c08203:144895:0]          mpool.c:43   UCX  WARN  object 0x370f600 was not returned to mpool ucp_requests
[1620163289.672494] [holy7c08203:144895:0]          mpool.c:43   UCX  WARN  object 0x3715100 was not returned to mpool ucp_requests
[1620163289.668693] [holy7c08102:52084:0]          mpool.c:43   UCX  WARN  object 0x421f500 was not returned to mpool ucp_requests
[1620163289.668720] [holy7c08102:52084:0]          mpool.c:43   UCX  WARN  object 0x42251c0 was not returned to mpool ucp_requests
[1620163289.664613] [holy7c08110:248740:0]          mpool.c:43   UCX  WARN  object 0x95aeac0 was not returned to mpool ucp_requests
[1620163289.664641] [holy7c08110:248740:0]          mpool.c:43   UCX  WARN  object 0x36b3880 was not returned to mpool ucp_requests
[1620163289.664646] [holy7c08110:248740:0]          mpool.c:43   UCX  WARN  object 0x36b7240 was not returned to mpool ucp_requests
[1620163289.664649] [holy7c08110:248740:0]          mpool.c:43   UCX  WARN  object 0x36b8040 was not returned to mpool ucp_requests
[1620163289.675880] [holy7c08203:144891:0]          mpool.c:43   UCX  WARN  object 0x41fcd40 was not returned to mpool ucp_requests
[1620163289.675908] [holy7c08203:144891:0]          mpool.c:43   UCX  WARN  object 0x41ffc80 was not returned to mpool ucp_requests
[1620163289.668407] [holy7c08110:248745:0]          mpool.c:43   UCX  WARN  object 0x28d35c0 was not returned to mpool ucp_requests
[1620163289.668434] [holy7c08110:248745:0]          mpool.c:43   UCX  WARN  object 0x28d7f40 was not returned to mpool ucp_requests
[1620163289.670447] [holy7c08102:52083:0]          mpool.c:43   UCX  WARN  object 0x43b17c0 was not returned to mpool ucp_requests
[1620163289.670479] [holy7c08102:52083:0]          mpool.c:43   UCX  WARN  object 0x43b7f00 was not returned to mpool ucp_requests
[1620163289.675909] [holy7c08203:144893:0]          mpool.c:43   UCX  WARN  object 0x42b0780 was not returned to mpool ucp_requests
[1620163289.675938] [holy7c08203:144893:0]          mpool.c:43   UCX  WARN  object 0x42b6980 was not returned to mpool ucp_requests
[1620163289.668793] [holy7c08110:248739:0]          mpool.c:43   UCX  WARN  object 0x348dc80 was not returned to mpool ucp_requests
[1620163289.675008] [holy7c08110:248743:0]          mpool.c:43   UCX  WARN  object 0x2c90600 was not returned to mpool ucp_requests
[1620163289.674736] [holy7c08102:52089:0]          mpool.c:43   UCX  WARN  object 0x42937c0 was not returned to mpool ucp_requests
[1620163289.674629] [holy7c08102:52085:0]          mpool.c:43   UCX  WARN  object 0xb03bb40 was not returned to mpool ucp_requests
[1620163289.674655] [holy7c08102:52085:0]          mpool.c:43   UCX  WARN  object 0x42f7ec0 was not returned to mpool ucp_requests
[1620163289.674658] [holy7c08102:52085:0]          mpool.c:43   UCX  WARN  object 0x42fb500 was not returned to mpool ucp_requests
[1620163289.675256] [holy7c08110:248741:0]          mpool.c:43   UCX  WARN  object 0x325dd80 was not returned to mpool ucp_requests
[1620163289.675278] [holy7c08110:248741:0]          mpool.c:43   UCX  WARN  object 0x3260400 was not returned to mpool ucp_requests
[1620163289.679268] [holy7c08102:52087:0]          mpool.c:43   UCX  WARN  object 0x2873e40 was not returned to mpool ucp_requests
[1620163289.679288] [holy7c08102:52087:0]          mpool.c:43   UCX  WARN  object 0x2876140 was not returned to mpool ucp_requests
[1620163289.679290] [holy7c08102:52087:0]          mpool.c:43   UCX  WARN  object 0x2876d80 was not returned to mpool ucp_requests
[1620163289.684622] [holy7c08102:52091:0]          mpool.c:43   UCX  WARN  object 0x3c97300 was not returned to mpool ucp_requests
[1620163289.685159] [holy7c08203:144892:0]          mpool.c:43   UCX  WARN  object 0x3778e40 was not returned to mpool ucp_requests
[1620163289.687131] [holy7c08203:144896:0]          mpool.c:43   UCX  WARN  object 0x432f200 was not returned to mpool ucp_requests
[1620163289.687153] [holy7c08203:144896:0]          mpool.c:43   UCX  WARN  object 0x4330540 was not returned to mpool ucp_requests
[1620163289.686221] [holy7c08203:144898:0]          mpool.c:43   UCX  WARN  object 0x3684740 was not returned to mpool ucp_requests
[1620163289.686241] [holy7c08203:144898:0]          mpool.c:43   UCX  WARN  object 0x3686180 was not returned to mpool ucp_requests
[1620163289.686153] [holy7c08203:144900:0]          mpool.c:43   UCX  WARN  object 0x42b1280 was not returned to mpool ucp_requests
[1620163289.686175] [holy7c08203:144900:0]          mpool.c:43   UCX  WARN  object 0x42ba200 was not returned to mpool ucp_requests
[1620163289.688796] [holy7c08203:144894:0]          mpool.c:43   UCX  WARN  object 0x3bf9180 was not returned to mpool ucp_requests
[1620163289.688812] [holy7c08203:144894:0]          mpool.c:43   UCX  WARN  object 0x3bfaa00 was not returned to mpool ucp_requests
[1620163289.771829] [holy7c06508:273636:0]          mpool.c:43   UCX  WARN  object 0x2acbb40 was not returned to mpool ucp_requests
[1620163289.771857] [holy7c06508:273636:0]          mpool.c:43   UCX  WARN  object 0x2acc400 was not returned to mpool ucp_requests
[1620163289.771861] [holy7c06508:273636:0]          mpool.c:43   UCX  WARN  object 0x2acce80 was not returned to mpool ucp_requests
[1620163289.771864] [holy7c06508:273636:0]          mpool.c:43   UCX  WARN  object 0x2acea80 was not returned to mpool ucp_requests
[1620163289.771501] [holy7c06508:273642:0]          mpool.c:43   UCX  WARN  object 0x322a3c0 was not returned to mpool ucp_requests
[1620163289.771532] [holy7c06508:273642:0]          mpool.c:43   UCX  WARN  object 0x3230240 was not returned to mpool ucp_requests
[1620163289.781170] [holy7c06508:273631:0]          mpool.c:43   UCX  WARN  object 0x46ac080 was not returned to mpool ucp_requests
[1620163289.781197] [holy7c06508:273631:0]          mpool.c:43   UCX  WARN  object 0x46ad040 was not returned to mpool ucp_requests
[1620163289.781201] [holy7c06508:273631:0]          mpool.c:43   UCX  WARN  object 0x46af180 was not returned to mpool ucp_requests
[1620163289.781204] [holy7c06508:273631:0]          mpool.c:43   UCX  WARN  object 0x46b04c0 was not returned to mpool ucp_requests
[1620163289.782676] [holy7c06508:273620:0]          mpool.c:43   UCX  WARN  object 0x48966c0 was not returned to mpool ucp_requests
[1620163289.782705] [holy7c06508:273620:0]          mpool.c:43   UCX  WARN  object 0x4897300 was not returned to mpool ucp_requests
[1620163289.782709] [holy7c06508:273620:0]          mpool.c:43   UCX  WARN  object 0x4897a00 was not returned to mpool ucp_requests
[1620163289.782713] [holy7c06508:273620:0]          mpool.c:43   UCX  WARN  object 0x489f2c0 was not returned to mpool ucp_requests
[1620163289.778617] [holy7c06508:273637:0]          mpool.c:43   UCX  WARN  object 0x48998c0 was not returned to mpool ucp_requests
[1620163289.788704] [holy7c06508:273625:0]          mpool.c:43   UCX  WARN  object 0x3c41340 was not returned to mpool ucp_requests
[1620163289.788731] [holy7c06508:273625:0]          mpool.c:43   UCX  WARN  object 0x3c46580 was not returned to mpool ucp_requests
[1620163289.788734] [holy7c06508:273625:0]          mpool.c:43   UCX  WARN  object 0x3c46e40 was not returned to mpool ucp_requests
[1620163289.788737] [holy7c06508:273625:0]          mpool.c:43   UCX  WARN  object 0x3c4ad40 was not returned to mpool ucp_requests
[1620163289.791269] [holy7c06508:273635:0]          mpool.c:43   UCX  WARN  object 0x443d500 was not returned to mpool ucp_requests
[1620163289.791296] [holy7c06508:273635:0]          mpool.c:43   UCX  WARN  object 0x443ff00 was not returned to mpool ucp_requests
[1620163289.791300] [holy7c06508:273635:0]          mpool.c:43   UCX  WARN  object 0x4442900 was not returned to mpool ucp_requests
[1620163289.791303] [holy7c06508:273635:0]          mpool.c:43   UCX  WARN  object 0x4443000 was not returned to mpool ucp_requests
[1620163289.790947] [holy7c06508:273626:0]          mpool.c:43   UCX  WARN  object 0x42c3580 was not returned to mpool ucp_requests
[1620163289.790975] [holy7c06508:273626:0]          mpool.c:43   UCX  WARN  object 0x42c5180 was not returned to mpool ucp_requests
[1620163289.795208] [holy7c06508:273628:0]          mpool.c:43   UCX  WARN  object 0x3a0b8c0 was not returned to mpool ucp_requests
[1620163289.795237] [holy7c06508:273628:0]          mpool.c:43   UCX  WARN  object 0x3a0ed40 was not returned to mpool ucp_requests
[1620163289.795241] [holy7c06508:273628:0]          mpool.c:43   UCX  WARN  object 0x3a0fec0 was not returned to mpool ucp_requests
[1620163289.795244] [holy7c06508:273628:0]          mpool.c:43   UCX  WARN  object 0x3a10240 was not returned to mpool ucp_requests
[1620163289.788761] [holy7c06508:273638:0]          mpool.c:43   UCX  WARN  object 0x3b55b00 was not returned to mpool ucp_requests
[1620163289.788791] [holy7c06508:273638:0]          mpool.c:43   UCX  WARN  object 0x3b56900 was not returned to mpool ucp_requests
[1620163289.788795] [holy7c06508:273638:0]          mpool.c:43   UCX  WARN  object 0x3b58880 was not returned to mpool ucp_requests
[1620163289.788799] [holy7c06508:273638:0]          mpool.c:43   UCX  WARN  object 0x3b5b600 was not returned to mpool ucp_requests
[1620163289.788801] [holy7c06508:273638:0]          mpool.c:43   UCX  WARN  object 0x3b5ea80 was not returned to mpool ucp_requests
[1620163289.801932] [holy7c06508:273623:0]          mpool.c:43   UCX  WARN  object 0x3d66400 was not returned to mpool ucp_requests
[1620163289.801960] [holy7c06508:273623:0]          mpool.c:43   UCX  WARN  object 0x3d6f380 was not returned to mpool ucp_requests
[1620163289.802774] [holy7c06508:273641:0]          mpool.c:43   UCX  WARN  object 0x484c380 was not returned to mpool ucp_requests
[1620163289.802801] [holy7c06508:273641:0]          mpool.c:43   UCX  WARN  object 0x484e300 was not returned to mpool ucp_requests
[1620163289.802805] [holy7c06508:273641:0]          mpool.c:43   UCX  WARN  object 0x4851b00 was not returned to mpool ucp_requests
[1620163289.802809] [holy7c06508:273641:0]          mpool.c:43   UCX  WARN  object 0x48546c0 was not returned to mpool ucp_requests
[1620163289.805240] [holy7c06508:273640:0]          mpool.c:43   UCX  WARN  object 0x42bea40 was not returned to mpool ucp_requests
[1620163289.808003] [holy7c06508:273651:0]          mpool.c:43   UCX  WARN  object 0x2fa4c80 was not returned to mpool ucp_requests
[1620163289.808031] [holy7c06508:273651:0]          mpool.c:43   UCX  WARN  object 0x2fa6a40 was not returned to mpool ucp_requests
[1620163289.810104] [holy7c06508:273619:0]          mpool.c:43   UCX  WARN  object 0x350c840 was not returned to mpool ucp_requests
[1620163289.810132] [holy7c06508:273619:0]          mpool.c:43   UCX  WARN  object 0x350cbc0 was not returned to mpool ucp_requests
[1620163289.810136] [holy7c06508:273619:0]          mpool.c:43   UCX  WARN  object 0x350d480 was not returned to mpool ucp_requests
[1620163289.809240] [holy7c06508:273622:0]          mpool.c:43   UCX  WARN  object 0x48a21c0 was not returned to mpool ucp_requests
[1620163289.809267] [holy7c06508:273622:0]          mpool.c:43   UCX  WARN  object 0x48a28c0 was not returned to mpool ucp_requests
[1620163289.809271] [holy7c06508:273622:0]          mpool.c:43   UCX  WARN  object 0x48a5640 was not returned to mpool ucp_requests
[1620163289.812775] [holy7c06508:273639:0]          mpool.c:43   UCX  WARN  object 0x40729c0 was not returned to mpool ucp_requests
[1620163289.812798] [holy7c06508:273639:0]          mpool.c:43   UCX  WARN  object 0x407a440 was not returned to mpool ucp_requests
[1620163289.812801] [holy7c06508:273639:0]          mpool.c:43   UCX  WARN  object 0x407a980 was not returned to mpool ucp_requests
[1620163289.813208] [holy7c06508:273632:0]          mpool.c:43   UCX  WARN  object 0x3c98c40 was not returned to mpool ucp_requests
[1620163289.814228] [holy7c06508:273649:0]          mpool.c:43   UCX  WARN  object 0x2fcbdc0 was not returned to mpool ucp_requests
[1620163289.814255] [holy7c06508:273649:0]          mpool.c:43   UCX  WARN  object 0x2fcd640 was not returned to mpool ucp_requests
[1620163289.816137] [holy7c06508:273633:0]          mpool.c:43   UCX  WARN  object 0x4579a00 was not returned to mpool ucp_requests
[1620163289.816201] [holy7c06508:273633:0]          mpool.c:43   UCX  WARN  object 0x457a2c0 was not returned to mpool ucp_requests
[1620163289.816205] [holy7c06508:273633:0]          mpool.c:43   UCX  WARN  object 0x457b440 was not returned to mpool ucp_requests
[1620163289.816208] [holy7c06508:273633:0]          mpool.c:43   UCX  WARN  object 0x457c400 was not returned to mpool ucp_requests
[1620163289.816211] [holy7c06508:273633:0]          mpool.c:43   UCX  WARN  object 0x457d200 was not returned to mpool ucp_requests
[1620163289.816345] [holy7c06508:273634:0]          mpool.c:43   UCX  WARN  object 0x3708b00 was not returned to mpool ucp_requests
[1620163289.815731] [holy7c06508:273648:0]          mpool.c:43   UCX  WARN  object 0x4680f80 was not returned to mpool ucp_requests
[1620163289.813927] [holy7c06508:273644:0]          mpool.c:43   UCX  WARN  object 0x35c7d00 was not returned to mpool ucp_requests
[1620163289.813950] [holy7c06508:273644:0]          mpool.c:43   UCX  WARN  object 0x35ca8c0 was not returned to mpool ucp_requests
[1620163289.813954] [holy7c06508:273644:0]          mpool.c:43   UCX  WARN  object 0x35cafc0 was not returned to mpool ucp_requests
[1620163289.824947] [holy7c06508:273652:0]          mpool.c:43   UCX  WARN  object 0x2b6ee00 was not returned to mpool ucp_requests
[1620163289.824971] [holy7c06508:273652:0]          mpool.c:43   UCX  WARN  object 0x2b75380 was not returned to mpool ucp_requests
[1620163289.824975] [holy7c06508:273652:0]          mpool.c:43   UCX  WARN  object 0x2b766c0 was not returned to mpool ucp_requests
[1620163289.824977] [holy7c06508:273652:0]          mpool.c:43   UCX  WARN  object 0x2b774c0 was not returned to mpool ucp_requests
[1620163289.825909] [holy7c06508:273647:0]          mpool.c:43   UCX  WARN  object 0x34f87c0 was not returned to mpool ucp_requests
[1620163289.825930] [holy7c06508:273647:0]          mpool.c:43   UCX  WARN  object 0x34fd680 was not returned to mpool ucp_requests
[1620163289.825933] [holy7c06508:273647:0]          mpool.c:43   UCX  WARN  object 0x34ff440 was not returned to mpool ucp_requests
[1620163289.825935] [holy7c06508:273647:0]          mpool.c:43   UCX  WARN  object 0x35005c0 was not returned to mpool ucp_requests
[1620163289.818660] [holy7c06508:273630:0]          mpool.c:43   UCX  WARN  object 0x42f5d40 was not returned to mpool ucp_requests