     Program PWSCF v.6.5 starts on  1May2021 at 23:14:28

     R & G space division:  proc/nbgrp/npool/nimage =      20
     Reading input from YBCO_BaO_cleave_4_sep.pwi
Warning: card &CELL ignored
Warning: card     CELL_DYNAMICS = 'BFGS' ignored
Warning: card / ignored

     Current dimensions of program PWSCF are:
     Max number of different atomic species (ntypx) = 10
     Max number of k-points (npk) =  40000
     Max angular momentum in pseudopotentials (lmaxx) =  3

     Message from routine setup:
     using ibrav=0 with symmetry is DISCOURAGED, use correct ibrav instead

     bravais-lattice index     =            0
     lattice parameter (alat)  =       7.3477  a.u.
     unit-cell volume          =    4754.8956 (a.u.)^3
     number of atoms/cell      =           28
     number of atomic types    =            4
     number of electrons       =       229.00
     number of Kohn-Sham states=          138
     kinetic-energy cutoff     =      60.0000  Ry
     charge density cutoff     =     720.0000  Ry
     convergence threshold     =      1.0E-06
     mixing beta               =       0.2000
     number of iterations used =           10  local-TF  mixing
     Exchange-correlation= SLA PW PBE PBE
                           (   1   4   3   4   0   0   0)
     nstep                     =          300

     celldm(1)=   7.347715  celldm(2)=   0.000000  celldm(3)=   0.000000
     celldm(4)=   0.000000  celldm(5)=   0.000000  celldm(6)=   0.000000

     crystal axes: (cart. coord. in units of alat)
               a(1) = (   1.000000   0.000000   0.000000 )
               a(2) = (   0.000000   0.975577   0.000000 )
               a(3) = (   0.000000   0.000000  12.286335 )

     reciprocal axes: (cart. coord. in units 2 pi/alat)
               b(1) = (  1.000000  0.000000  0.000000 )
               b(2) = (  0.000000  1.025034  0.000000 )
               b(3) = (  0.000000  0.000000  0.081391 )

     PseudoPot. # 1 for Ba read from file:
     /n/holyscratch01/hoffman_lab/ruizhe/YBCO_Project/pseudo/Ba.pbe-nsp-van.UPF
     MD5 check sum: 2b9c31dd849566dd297d80989662b7a0
     Pseudo is Ultrasoft + core correction, Zval = 10.0
     Generated by new atomic code, or converted to UPF format
     Using radial grid of  907 points,  6 beta functions with:
                l(1) =   0
                l(2) =   0
                l(3) =   1
                l(4) =   1
                l(5) =   2
                l(6) =   2
     Q(r) pseudized with  6 coefficients,  rinner =    1.200   1.200   1.200
                                                       1.200   1.200

     PseudoPot. # 2 for Cu read from file:
     /n/holyscratch01/hoffman_lab/ruizhe/YBCO_Project/pseudo/Cu.pbe-n-van_ak.UPF
     MD5 check sum: 34e3282627ffb533726feb647e090d62
     Pseudo is Ultrasoft + core correction, Zval = 11.0
     Generated by new atomic code, or converted to UPF format
     Using radial grid of  867 points,  6 beta functions with:
                l(1) =   0
                l(2) =   0
                l(3) =   1
                l(4) =   1
                l(5) =   2
                l(6) =   2
     Q(r) pseudized with  8 coefficients,  rinner =    1.400   1.400   1.400
                                                       1.400   1.400

     PseudoPot. # 3 for O  read from file:
     /n/holyscratch01/hoffman_lab/ruizhe/YBCO_Project/pseudo/O.pbe-van_ak.UPF
     MD5 check sum: 783ce7fe4c79b6a4916957118fed0856
     Pseudo is Ultrasoft, Zval =  6.0
     Generated by new atomic code, or converted to UPF format
     Using radial grid of  737 points,  4 beta functions with:
                l(1) =   0
                l(2) =   0
                l(3) =   1
                l(4) =   1
     Q(r) pseudized with  8 coefficients,  rinner =    0.800   0.800   0.800

     PseudoPot. # 4 for Y  read from file:
     /n/holyscratch01/hoffman_lab/ruizhe/YBCO_Project/pseudo/Y.pbe-nsp-van.UPF
     MD5 check sum: 4412fed3ab108fed87a1b7d6a69a4a38
     Pseudo is Ultrasoft + core correction, Zval = 11.0
     Generated by new atomic code, or converted to UPF format
     Using radial grid of  885 points,  6 beta functions with:
                l(1) =   0
                l(2) =   0
                l(3) =   1
                l(4) =   1
                l(5) =   2
                l(6) =   2
     Q(r) pseudized with  6 coefficients,  rinner =    1.200   1.200   1.200
                                                       1.200   1.200

     atomic species   valence    mass     pseudopotential
        Ba            10.00   137.32700     Ba( 1.00)
        Cu            11.00    63.54600     Cu( 1.00)
        O              6.00    15.99900     O ( 1.00)
        Y             11.00    88.90584     Y ( 1.00)

      4 Sym. Ops. (no inversion) found

   Cartesian axes

     site n.     atom                  positions (alat units)
         1           O   tau(   1) = (   0.0000000   0.4877884  -0.0257983  )
         2           Cu  tau(   2) = (   0.0000000   0.0000000   0.0215779  )
         3           O   tau(   3) = (   0.0000000   0.0000000   0.5073114  )
         4           Ba  tau(   4) = (   0.4999996   0.4877884   0.5319677  )
         5           Cu  tau(   5) = (   0.0000000   0.0000000   1.0495845  )
         6           O   tau(   6) = (   0.4999996   0.0000000   1.1181579  )
         7           O   tau(   7) = (   0.0000000   0.4877884   1.1273137  )
         8           Y   tau(   8) = (   0.4999996   0.4877884   1.4938777  )
         9           O   tau(   9) = (   0.0000000   0.4877884   1.8497402  )
        10           O   tau(  10) = (   0.4999996   0.0000000   1.8692709  )
        11           Cu  tau(  11) = (   0.0000000   0.0000000   1.9417560  )
        12           Ba  tau(  12) = (   0.4999996   0.4877884   2.4526063  )
        13           O   tau(  13) = (   0.0000000   0.0000000   2.5103470  )
        14           O   tau(  14) = (   0.0000000   0.4877884   2.9968469  )
        15           Cu  tau(  15) = (   0.0000000   0.0000000   2.9968521  )
        16           O   tau(  16) = (   0.0000000   0.0000000   3.4833288  )
        17           Ba  tau(  17) = (   0.4999996   0.4877884   3.5410618  )
        18           Cu  tau(  18) = (   0.0000000   0.0000000   5.0806774  )
        19           O   tau(  19) = (   0.4999996   0.0000000   5.1531497  )
        20           O   tau(  20) = (   0.0000000   0.4877884   5.1726624  )
        21           Y   tau(  21) = (   0.4999996   0.4877884   5.5671053  )
        22           O   tau(  22) = (   0.0000000   0.4877884   5.8950914  )
        23           O   tau(  23) = (   0.4999996   0.0000000   5.9042601  )
        24           Cu  tau(  24) = (   0.0000000   0.0000000   5.9728386  )
        25           Ba  tau(  25) = (   0.4999996   0.4877884   6.4904400  )
        26           O   tau(  26) = (   0.0000000   0.0000000   6.5150964  )
        27           Cu  tau(  27) = (   0.0000000   0.0000000   7.0008016  )
        28           O   tau(  28) = (   0.0000000   0.4877884   7.0481829  )

     number of k points=    25  Gaussian smearing, width (Ry)=  0.0100
                       cart. coord. in units 2pi/alat
        k(    1) = (   0.0000000   0.0000000   0.0000000), wk =   0.0312500
        k(    2) = (   0.0000000   0.1281293   0.0000000), wk =   0.0625000
        k(    3) = (   0.0000000   0.2562585   0.0000000), wk =   0.0625000
        k(    4) = (   0.0000000   0.3843878   0.0000000), wk =   0.0625000
        k(    5) = (   0.0000000  -0.5125170   0.0000000), wk =   0.0312500
        k(    6) = (   0.1250000   0.0000000   0.0000000), wk =   0.0625000
        k(    7) = (   0.1250000   0.1281293   0.0000000), wk =   0.1250000
        k(    8) = (   0.1250000   0.2562585   0.0000000), wk =   0.1250000
        k(    9) = (   0.1250000   0.3843878   0.0000000), wk =   0.1250000
        k(   10) = (   0.1250000  -0.5125170   0.0000000), wk =   0.0625000
        k(   11) = (   0.2500000   0.0000000   0.0000000), wk =   0.0625000
        k(   12) = (   0.2500000   0.1281293   0.0000000), wk =   0.1250000
        k(   13) = (   0.2500000   0.2562585   0.0000000), wk =   0.1250000
        k(   14) = (   0.2500000   0.3843878   0.0000000), wk =   0.1250000
        k(   15) = (   0.2500000  -0.5125170   0.0000000), wk =   0.0625000
        k(   16) = (   0.3750000   0.0000000   0.0000000), wk =   0.0625000
        k(   17) = (   0.3750000   0.1281293   0.0000000), wk =   0.1250000
        k(   18) = (   0.3750000   0.2562585   0.0000000), wk =   0.1250000
        k(   19) = (   0.3750000   0.3843878   0.0000000), wk =   0.1250000
        k(   20) = (   0.3750000  -0.5125170   0.0000000), wk =   0.0625000
        k(   21) = (  -0.5000000   0.0000000   0.0000000), wk =   0.0312500
        k(   22) = (  -0.5000000   0.1281293   0.0000000), wk =   0.0625000
        k(   23) = (  -0.5000000   0.2562585   0.0000000), wk =   0.0625000
        k(   24) = (  -0.5000000   0.3843878   0.0000000), wk =   0.0625000
        k(   25) = (  -0.5000000  -0.5125170   0.0000000), wk =   0.0312500

     Initial potential from superposition of free atoms

     starting charge  228.84827, renormalised to  229.00000

     negative rho (up, down):  8.955E-02 0.000E+00
     Starting wfcs are  201 randomized atomic wfcs

     Self-consistent Calculation

     iteration #  1     ecut=    60.00 Ry     beta= 0.20
     Davidson diagonalization with overlap
     ethr =  1.00E-02,  avg # of iterations =  2.0

     negative rho (up, down):  8.743E-02 0.000E+00

     total energy              =   -1869.51599877 Ry
     Harris-Foulkes estimate   =   -1871.17377535 Ry
     estimated scf accuracy    <      16.18679690 Ry

[...]

     iteration # 18     ecut=    60.00 Ry     beta= 0.20
     Davidson diagonalization with overlap
     c_bands:  1 eigenvalues not converged
     ethr =  4.38E-06,  avg # of iterations =  5.0

[...]

     End of self-consistent calculation

          k = 0.0000 0.0000 0.0000 ( 37185 PWs)   bands (ev):

   -38.3926 -38.1116 -24.2428 -23.1456 -23.0463 -22.9460 -18.9276 -18.6751
   -18.3970 -18.3876 -18.1450 -18.1327 -15.7230 -15.5013 -15.0017 -14.7636
   -14.6787 -14.5651 -14.5308 -14.5083 -14.3048 -14.2470 -14.0415 -14.0290
   -13.9194 -13.7649 -13.5302  -9.5496  -9.0750  -9.0530  -8.3936  -8.2703
    -8.2212  -8.1281  -8.1030  -8.0385  -8.0119  -7.8993  -7.8768  -2.3857
    -2.3698  -2.3515  -2.3174  -2.1835  -2.1624  -2.1301  -2.0765  -2.0619
    -2.0263  -1.9864  -1.5718  -1.4362  -1.2085  -1.1534  -1.0193  -0.8189
    -0.7466  -0.7355  -0.7288  -0.6814  -0.3784  -0.3578  -0.3396  -0.3189
    -0.3030  -0.1969  -0.1631  -0.1397  -0.1391  -0.1373  -0.0469  -0.0397
     0.0140   0.0197   0.0613   0.0873   0.0910   0.1126   0.1263   0.1402
     0.2633   0.2729   0.2747   0.2822   0.2913   0.3769   0.3915   0.5985
     0.6735   0.6809   0.7951   0.8110   0.8647   0.9072   0.9600   0.9964
     1.0543   1.0843   1.0998   1.1266   1.2095   1.2332   1.2554   1.2706
     1.5017   1.5623   1.6706   1.6883   1.7153   1.8764   1.9138   1.9397
     1.9495   2.0660   2.0824   2.1186   2.1596   2.3759   2.3992   4.1616
     4.9764   5.0113   5.1409   5.5561   5.7252   6.1531   6.3524   6.4135
[...]
     atom   28 type  3   force =     0.00000000    0.00000000   -0.00129727

     Total force =     0.120678     Total SCF correction =     0.001573

     Computing stress (Cartesian axis) and pressure

     negative rho (up, down):  9.054E-02 0.000E+00
          total   stress  (Ry/bohr**3)                   (kbar)     P=       -6.14
  -0.00008227   0.00000000   0.00000000          -12.10        0.00        0.00
   0.00000000  -0.00003328   0.00000000            0.00       -4.90        0.00
   0.00000000   0.00000000  -0.00000966            0.00        0.00       -1.42

     BFGS Geometry Optimization

     number of scf cycles    =   1
     number of bfgs steps    =   0

     energy   new            =   -1868.7530955318 Ry

     new trust radius        =       0.1027381402 bohr
     new conv_thr            =       0.0000010000 Ry

ATOMIC_POSITIONS (angstrom)
O             0.0000000000        1.8966400000       -0.1003100000    0   0   0
Cu            0.0000000000        0.0000000000        0.0839000000    0   0   0
O             0.0000000000        0.0000000000        1.9725500000    0   0   0
Ba            1.9441200000        1.8966400000        2.0684200000    0   0   0
Cu            0.0000000000        0.0000000000        4.0810400000    0   0   0
O             1.9441200000        0.0000000000        4.3476700000    0   0   0
O             0.0000000000        1.8966400000        4.3832700000    0   0   0
Y             1.9441200000        1.8966400000        5.8085600000    0   0   0
O             0.0000000000        1.8966400000        7.1922400000    0   0   0
O             1.9441200000        0.0000000000        7.2681800000    0   0   0
Cu            0.0000000000        0.0000000000        7.5500200000    0   0   0
Ba            1.9441200000        1.8966400000        9.5363300000    0   0   0
O             0.0000000000        0.0000000000        9.7608400000    0   0   0
O             0.0000000000        1.8966400000       11.6608162951
Cu            0.0000000000        0.0000000000       11.6451206444
O             0.0000000000        0.0000000000       13.5630254566
Ba            1.9441200000        1.8966400000       13.7504749232
Cu            0.0000000000        0.0000000000       19.7562967599
O             1.9441200000        0.0000000000       20.0514368171
O             0.0000000000        1.8966400000       20.1222252123
Y             1.9441200000        1.8966400000       21.5918933178
O             0.0000000000        1.8966400000       22.9215500000    0   0   0
O             1.9441200000        0.0000000000       22.9572000000    0   0   0
Cu            0.0000000000        0.0000000000       23.2238500000    0   0   0
Ba            1.9441200000        1.8966400000       25.2364100000    0   0   0
O             0.0000000000        0.0000000000       25.3322800000    0   0   0
Cu            0.0000000000        0.0000000000       27.2208200000    0   0   0
O             0.0000000000        1.8966400000       27.4050500000    0   0   0

     NEW-OLD atomic charge density approx. for the potential

[...]

     Total force =     0.091081     Total SCF correction =     0.005483

[...]

     energy   old            =   -1868.7530955318 Ry
     energy   new            =   -1868.7659012298 Ry

     CASE: energy  _new < energy  _old

[...]

     Total force =     0.060427     Total SCF correction =     0.007418
     SCF correction compared to forces is large: reduce conv_thr to get better values

[...]

     iteration #  7     ecut=    60.00 Ry     beta= 0.20
     Davidson diagonalization with overlap
     c_bands:  1 eigenvalues not converged
     ethr =  5.66E-07,  avg # of iterations =  5.6

[...]

     WARNING: bfgs curvature condition failed, Theta= 0.957
     new trust radius        =       0.0099429750 bohr
     new conv_thr            =       0.0000000588 Ry

[...]

     BFGS Geometry Optimization

[...]

     energy   new            =   -1868.7858084072 Ry

[...]

     Threshold (ethr) on eigenvalues was too large:
     Diagonalizing with lowered threshold

     Davidson diagonalization with overlap
     ethr =  3.22E-08,  avg # of iterations =  2.5

[...]

     WARNING: info= 54 for Hessian
     new trust radius        =       0.0006363812 bohr
     new conv_thr            =       0.0000000100 Ry

[...]

     CASE: energy  _new > energy  _old

[...]

     WARNING: info= 63 for Hessian
     new trust radius        =       0.0001933644 bohr
     new conv_thr            =       0.0000000100 Ry

[...]

     CASE: energy  _new > energy  _old

     new trust radius        =       0.0000187926 bohr

     trust_radius < trust_radius_min

     resetting bfgs history

     new conv_thr            =       0.0000000100 Ry

[...]

     WARNING: bfgs curvature condition failed, Theta= 0.350
     new trust radius        =       0.0002251927 bohr
     new conv_thr            =       0.0000000100 Ry

[...]

     number of scf cycles    =  35
     number of bfgs steps    =  32

     energy   old            =   -1868.7859393648 Ry
     energy   new            =   -1868.7859395426 Ry

     CASE: energy  _new < energy  _old

     new trust radius        =       0.0006796452 bohr
     new conv_thr            =       0.0000000100 Ry

ATOMIC_POSITIONS (angstrom)
O             0.0000000000        1.8966400000       -0.1003100000    0   0   0
Cu            0.0000000000        0.0000000000        0.0839000000    0   0   0
O             0.0000000000        0.0000000000        1.9725500000    0   0   0
Ba            1.9441200000        1.8966400000        2.0684200000    0   0   0
Cu            0.0000000000        0.0000000000        4.0810400000    0   0   0
O             1.9441200000        0.0000000000        4.3476700000    0   0   0
O             0.0000000000        1.8966400000        4.3832700000    0   0   0
Y             1.9441200000        1.8966400000        5.8085600000    0   0   0
O             0.0000000000        1.8966400000        7.1922400000    0   0   0
O             1.9441200000        0.0000000000        7.2681800000    0   0   0
Cu            0.0000000000        0.0000000000        7.5500200000    0   0   0
Ba            1.9441200000        1.8966400000        9.5363300000    0   0   0
O             0.0000000000        0.0000000000        9.7608400000    0   0   0
O             0.0000000000        1.8966400000       11.7402894116
Cu            0.0000000000        0.0000000000       11.6687232638
O             0.0000000000        0.0000000000       13.6064913454
Ba            1.9441200000        1.8966400000       13.6279482102
Cu            0.0000000000        0.0000000000       19.7729059874
O             1.9441200000        0.0000000000       20.0787792111
O             0.0000000000        1.8966400000       20.1192696419
Y             1.9441200000        1.8966400000       21.4084214151
O             0.0000000000        1.8966400000       22.9215500000    0   0   0
O             1.9441200000        0.0000000000       22.9572000000    0   0   0
Cu            0.0000000000        0.0000000000       23.2238500000    0   0   0
Ba            1.9441200000        1.8966400000       25.2364100000    0   0   0
O             0.0000000000        0.0000000000       25.3322800000    0   0   0
Cu            0.0000000000        0.0000000000       27.2208200000    0   0   0
O             0.0000000000        1.8966400000       27.4050500000    0   0   0

     NEW-OLD atomic charge density approx. for the potential

[...]

     Self-consistent Calculation

[...]

     Threshold (ethr) on eigenvalues was too large:
     Diagonalizing with lowered threshold

     Davidson diagonalization with overlap
     ethr =  3.93E-08,  avg # of iterations =  1.0

[...]

     total energy              =   -1868.78593974 Ry
     Harris-Foulkes estimate   =   -1868.78593973 Ry
     estimated scf accuracy    <       0.00000001 Ry

     iteration # 10     ecut=    60.00 Ry     beta= 0.20
     Davidson diagonalization with overlap
     ethr =  4.60E-12,  avg # of iterations =  2.0

[...]

     End of self-consistent calculation

[...]

          k = 0.3750-0.5125 0.0000 ( 37434 PWs)   bands (ev):

[...]

          k =-0.5000-0.5125 0.0000 ( 37436 PWs)   bands (ev):

   -38.4294 -37.9692 -23.4477 -22.9051 -22.8592 -22.7628 -19.0112 -18.9841
   -18.6380 -18.6022 -18.5116 -18.0289 -14.8419 -14.8302 -14.7354 -14.5769
   -14.5588 -14.5492 -14.4868 -14.3275 -14.2754 -14.1212 -13.9695 -13.9649
   -13.9231 -13.7954 -13.7796  -9.5273  -9.1355  -9.0533  -9.0308  -9.0190
    -8.9646  -8.7641  -8.6907  -8.6800  -8.3609  -8.2951  -8.1831  -4.5227
    -4.2641  -3.9417  -3.6432  -3.6346  -3.0565  -3.0519  -2.8544  -2.6619
    -2.5785  -2.5654  -2.5433  -2.3736  -2.1692  -2.1597  -2.1469  -2.0147
    -1.8601  -1.6053  -1.3862  -1.3521  -1.2565  -1.2468  -1.0975  -1.0682
    -1.0418  -1.0014  -0.9173  -0.8320  -0.8299  -0.6636  -0.5995  -0.5776
    -0.3966  -0.1883  -0.1881   0.0854   0.2933   0.3302   0.5656   0.7632
     1.0653   1.0740   1.1545   1.1878   1.2378   1.2657   1.2741   1.3019
     1.3027   1.3270   1.4504   1.4567   1.5115   1.5768   1.6816   1.6865
     1.6911   1.7072   1.7156   1.7341   1.7359   1.7512   1.7798   1.7899
     1.8127   2.0510   2.1093   2.1769   2.2350   2.2372   2.3433   2.3448
     2.6824   2.6827   3.9921   4.1723   4.4434   4.5335   4.5537   4.6445
     5.4807   5.5160   6.2009   6.2911   7.2081   7.3653   7.9856   8.1822
     8.3733   8.6398   8.6460   8.6893   8.7864   8.8439   8.9288   8.9904
     9.1085   9.3069

     the Fermi energy is     2.6427 ev

!    total energy              =   -1868.78593975 Ry
     Harris-Foulkes estimate   =   -1868.78593974 Ry
     estimated scf accuracy    <          3.1E-09 Ry

     The total energy is the sum of the following terms:

     one-electron contribution =  -26021.32097267 Ry
     hartree contribution      =   13162.16522715 Ry
     xc contribution           =    -642.25657645 Ry
     ewald contribution        =   11632.63498909 Ry
     smearing contrib. (-TS)   =      -0.00860687 Ry

     convergence has been achieved in  10 iterations

     negative rho (up, down):  9.054E-02 0.000E+00

     Forces acting on atoms (cartesian axes, Ry/au):

     atom    1 type  3   force =     0.00000000    0.00000000    0.00002644
     atom    2 type  2   force =     0.00000000    0.00000000   -0.00023686
     atom    3 type  3   force =     0.00000000    0.00000000    0.00001130
     atom    4 type  1   force =     0.00000000    0.00000000   -0.00019294
     atom    5 type  2   force =     0.00000000    0.00000000   -0.00019151
     atom    6 type  3   force =     0.00000000    0.00000000    0.00071622
     atom    7 type  3   force =     0.00000000    0.00000000    0.00013869
     atom    8 type  4   force =     0.00000000    0.00000000   -0.00164087
     atom    9 type  3   force =     0.00000000    0.00000000    0.00241308
     atom   10 type  3   force =     0.00000000    0.00000000    0.00274855
     atom   11 type  2   force =     0.00000000    0.00000000   -0.00289412
     atom   12 type  1   force =     0.00000000    0.00000000   -0.00942099
     atom   13 type  3   force =     0.00000000    0.00000000    0.00979369
     atom   14 type  3   force =     0.00000000    0.00000000   -0.00005102
     atom   15 type  2   force =     0.00000000    0.00000000    0.00000477
     atom   16 type  3   force =     0.00000000    0.00000000    0.00008931
     atom   17 type  1   force =     0.00000000    0.00000000   -0.00003596
     atom   18 type  2   force =     0.00000000    0.00000000    0.00000756
     atom   19 type  3   force =     0.00000000    0.00000000   -0.00002162
     atom   20 type  3   force =     0.00000000    0.00000000   -0.00002644
     atom   21 type  4   force =     0.00000000    0.00000000   -0.00004527
     atom   22 type  3   force =     0.00000000    0.00000000    0.00011565
     atom   23 type  3   force =     0.00000000    0.00000000    0.00461973
     atom   24 type  2   force =     0.00000000    0.00000000    0.00073460
     atom   25 type  1   force =     0.00000000    0.00000000   -0.00849524
     atom   26 type  3   force =     0.00000000    0.00000000    0.00226394
     atom   27 type  2   force =     0.00000000    0.00000000   -0.00182749
     atom   28 type  3   force =     0.00000000    0.00000000    0.00139679

     Total force =     0.000123     Total SCF correction =     0.000318
     SCF correction compared to forces is large: reduce conv_thr to get better values

     Computing stress (Cartesian axis) and pressure

     negative rho (up, down):  9.054E-02 0.000E+00
          total   stress  (Ry/bohr**3)                   (kbar)     P=       -4.72
  -0.00006017   0.00000000   0.00000000           -8.85        0.00        0.00
   0.00000000  -0.00002309   0.00000000            0.00       -3.40        0.00
   0.00000000   0.00000000  -0.00001297            0.00        0.00       -1.91

     bfgs converged in  36 scf cycles and  33 bfgs steps
     (criteria: energy <  1.0E-05 Ry, force <  1.0E-04 Ry/Bohr)

     End of BFGS Geometry Optimization

     Final energy   =   -1868.7859397456 Ry
Begin final coordinates

ATOMIC_POSITIONS (angstrom)
O             0.0000000000        1.8966400000       -0.1003100000    0   0   0
Cu            0.0000000000        0.0000000000        0.0839000000    0   0   0
O             0.0000000000        0.0000000000        1.9725500000    0   0   0
Ba            1.9441200000        1.8966400000        2.0684200000    0   0   0
Cu            0.0000000000        0.0000000000        4.0810400000    0   0   0
O             1.9441200000        0.0000000000        4.3476700000    0   0   0
O             0.0000000000        1.8966400000        4.3832700000    0   0   0
Y             1.9441200000        1.8966400000        5.8085600000    0   0   0
O             0.0000000000        1.8966400000        7.1922400000    0   0   0
O             1.9441200000        0.0000000000        7.2681800000    0   0   0
Cu            0.0000000000        0.0000000000        7.5500200000    0   0   0
Ba            1.9441200000        1.8966400000        9.5363300000    0   0   0
O             0.0000000000        0.0000000000        9.7608400000    0   0   0
O             0.0000000000        1.8966400000       11.7402894116
Cu            0.0000000000        0.0000000000       11.6687232638
O             0.0000000000        0.0000000000       13.6064913454
Ba            1.9441200000        1.8966400000       13.6279482102
Cu            0.0000000000        0.0000000000       19.7729059874
O             1.9441200000        0.0000000000       20.0787792111
O             0.0000000000        1.8966400000       20.1192696419
Y             1.9441200000        1.8966400000       21.4084214151
O             0.0000000000        1.8966400000       22.9215500000    0   0   0
O             1.9441200000        0.0000000000       22.9572000000    0   0   0
Cu            0.0000000000        0.0000000000       23.2238500000    0   0   0
Ba            1.9441200000        1.8966400000       25.2364100000    0   0   0
O             0.0000000000        0.0000000000       25.3322800000    0   0   0
Cu            0.0000000000        0.0000000000       27.2208200000    0   0   0
O             0.0000000000        1.8966400000       27.4050500000    0   0   0
End final coordinates

     General routines

     Parallel routines

   This run was terminated on:   2:17:43   2May2021

   JOB DONE.
[1619936263.497905] [holy7c02602:112370:0]          mpool.c:43   UCX  WARN  object 0x3630d80 was not returned to mpool ucp_requests
[1619936263.497603] [holy7c04103:237666:0]          mpool.c:43   UCX  WARN  object 0x3a7b540 was not returned to mpool ucp_requests
[1619936263.498416] [holy7c04112:272972:0]          mpool.c:43   UCX  WARN  object 0x33318c0 was not returned to mpool ucp_requests
[1619936263.498448] [holy7c04112:272972:0]          mpool.c:43   UCX  WARN  object 0x3331a80 was not returned to mpool ucp_requests
[1619936263.498850] [holy7c04111:265086:0]          mpool.c:43   UCX  WARN  object 0x3be9bc0 was not returned to mpool ucp_requests
[1619936263.498883] [holy7c04111:265086:0]          mpool.c:43   UCX  WARN  object 0x3bea2c0 was not returned to mpool ucp_requests
[1619936263.498712] [holy7c04107:268494:0]          mpool.c:43   UCX  WARN  object 0x29471c0 was not returned to mpool ucp_requests
[1619936263.498742] [holy7c04107:268494:0]          mpool.c:43   UCX  WARN  object 0x2947c40 was not returned to mpool ucp_requests
[1619936263.497976] [holy7c02602:112371:0]          mpool.c:43   UCX  WARN  object 0x2826540 was not returned to mpool ucp_requests
[1619936263.498181] [holy7c04112:272971:0]          mpool.c:43   UCX  WARN  object 0x424e600 was not returned to mpool ucp_requests