     Program PWSCF v.6.5 starts on  2May2021 at 10:57:56

     R & G space division:  proc/nbgrp/npool/nimage =      20
     Reading input from YBCO_BaO_cleave_5_sep.pwi
Warning: card &CELL ignored
Warning: card     CELL_DYNAMICS = 'BFGS' ignored
Warning: card / ignored

     Current dimensions of program PWSCF are:
     Max number of different atomic species (ntypx) = 10
     Max number of k-points (npk) =  40000
     Max angular momentum in pseudopotentials (lmaxx) =  3

     Message from routine setup:
     using ibrav=0 with symmetry is DISCOURAGED, use correct ibrav instead

     bravais-lattice index     =            0
     lattice parameter (alat)  =       7.3477  a.u.
     unit-cell volume          =    4854.4281 (a.u.)^3
     number of atoms/cell      =           28
     number of atomic types    =            4
     number of electrons       =       229.00
     number of Kohn-Sham states=          138
     kinetic-energy cutoff     =      60.0000  Ry
     charge density cutoff     =     720.0000  Ry
     convergence threshold     =      1.0E-06
     mixing beta               =       0.2000
     number of iterations used =           10  local-TF  mixing
     Exchange-correlation= SLA PW PBE PBE
                           (   1   4   3   4   0   0   0)
     nstep                     =          300

     celldm(1)=   7.347715  celldm(2)=   0.000000  celldm(3)=   0.000000
     celldm(4)=   0.000000  celldm(5)=   0.000000  celldm(6)=   0.000000

     crystal axes: (cart. coord. in units of alat)
               a(1) = (   1.000000   0.000000   0.000000 )
               a(2) = (   0.000000   0.975577   0.000000 )
               a(3) = (   0.000000   0.000000  12.543521 )

     reciprocal axes: (cart. coord. in units 2 pi/alat)
               b(1) = (  1.000000  0.000000  0.000000 )
               b(2) = (  0.000000  1.025034  0.000000 )
               b(3) = (  0.000000  0.000000  0.079722 )

     PseudoPot. # 1 for Ba read from file:
     /n/holyscratch01/hoffman_lab/ruizhe/YBCO_Project/pseudo/Ba.pbe-nsp-van.UPF
     MD5 check sum: 2b9c31dd849566dd297d80989662b7a0
     Pseudo is Ultrasoft + core correction, Zval = 10.0
     Generated by new atomic code, or converted to UPF format
     Using radial grid of  907 points,  6 beta functions with:
                l(1) =   0
                l(2) =   0
                l(3) =   1
                l(4) =   1
                l(5) =   2
                l(6) =   2
     Q(r) pseudized with  6 coefficients,  rinner =    1.200   1.200   1.200
                                                       1.200   1.200

     PseudoPot. # 2 for Cu read from file:
     /n/holyscratch01/hoffman_lab/ruizhe/YBCO_Project/pseudo/Cu.pbe-n-van_ak.UPF
     MD5 check sum: 34e3282627ffb533726feb647e090d62
     Pseudo is Ultrasoft + core correction, Zval = 11.0
     Generated by new atomic code, or converted to UPF format
     Using radial grid of  867 points,  6 beta functions with:
                l(1) =   0
                l(2) =   0
                l(3) =   1
                l(4) =   1
                l(5) =   2
                l(6) =   2
     Q(r) pseudized with  8 coefficients,  rinner =    1.400   1.400   1.400
                                                       1.400   1.400

     PseudoPot. # 3 for O  read from file:
     /n/holyscratch01/hoffman_lab/ruizhe/YBCO_Project/pseudo/O.pbe-van_ak.UPF
     MD5 check sum: 783ce7fe4c79b6a4916957118fed0856
     Pseudo is Ultrasoft, Zval =  6.0
     Generated by new atomic code, or converted to UPF format
     Using radial grid of  737 points,  4 beta functions with:
                l(1) =   0
                l(2) =   0
                l(3) =   1
                l(4) =   1
     Q(r) pseudized with  8 coefficients,  rinner =    0.800   0.800   0.800

     PseudoPot. # 4 for Y  read from file:
     /n/holyscratch01/hoffman_lab/ruizhe/YBCO_Project/pseudo/Y.pbe-nsp-van.UPF
     MD5 check sum: 4412fed3ab108fed87a1b7d6a69a4a38
     Pseudo is Ultrasoft + core correction, Zval = 11.0
     Generated by new atomic code, or converted to UPF format
     Using radial grid of  885 points,  6 beta functions with:
                l(1) =   0
                l(2) =   0
                l(3) =   1
                l(4) =   1
                l(5) =   2
                l(6) =   2
     Q(r) pseudized with  6 coefficients,  rinner =    1.200   1.200   1.200
                                                       1.200   1.200

     atomic species   valence    mass     pseudopotential
        Ba            10.00   137.32700     Ba( 1.00)
        Cu            11.00    63.54600     Cu( 1.00)
        O              6.00    15.99900     O ( 1.00)
        Y             11.00    88.90584     Y ( 1.00)

      4 Sym. Ops. (no inversion) found

   Cartesian axes

     site n.     atom                  positions (alat units)
         1           O   tau(   1) = (   0.0000000   0.4877884  -0.0257983  )
         2           Cu  tau(   2) = (   0.0000000   0.0000000   0.0215779  )
         3           O   tau(   3) = (   0.0000000   0.0000000   0.5073114  )
         4           Ba  tau(   4) = (   0.4999996   0.4877884   0.5319677  )
         5           Cu  tau(   5) = (   0.0000000   0.0000000   1.0495845  )
         6           O   tau(   6) = (   0.4999996   0.0000000   1.1181579  )
         7           O   tau(   7) = (   0.0000000   0.4877884   1.1273137  )
         8           Y   tau(   8) = (   0.4999996   0.4877884   1.4938777  )
         9           O   tau(   9) = (   0.0000000   0.4877884   1.8497402  )
        10           O   tau(  10) = (   0.4999996   0.0000000   1.8692709  )
        11           Cu  tau(  11) = (   0.0000000   0.0000000   1.9417560  )
        12           Ba  tau(  12) = (   0.4999996   0.4877884   2.4526063  )
        13           O   tau(  13) = (   0.0000000   0.0000000   2.5103470  )
        14           O   tau(  14) = (   0.0000000   0.4877884   2.9968469  )
        15           Cu  tau(  15) = (   0.0000000   0.0000000   2.9968521  )
        16           O   tau(  16) = (   0.0000000   0.0000000   3.4833288  )
        17           Ba  tau(  17) = (   0.4999996   0.4877884   3.5410618  )
        18           Cu  tau(  18) = (   0.0000000   0.0000000   5.3378629  )
        19           O   tau(  19) = (   0.4999996   0.0000000   5.4103353  )
        20           O   tau(  20) = (   0.0000000   0.4877884   5.4298479  )
        21           Y   tau(  21) = (   0.4999996   0.4877884   5.8757279  )
        22           O   tau(  22) = (   0.0000000   0.4877884   6.1522770  )
        23           O   tau(  23) = (   0.4999996   0.0000000   6.1614457  )
        24           Cu  tau(  24) = (   0.0000000   0.0000000   6.2300242  )
        25           Ba  tau(  25) = (   0.4999996   0.4877884   6.7476255  )
        26           O   tau(  26) = (   0.0000000   0.0000000   6.7722819  )
        27           Cu  tau(  27) = (   0.0000000   0.0000000   7.2579871  )
        28           O   tau(  28) = (   0.0000000   0.4877884   7.3053684  )

     number of k points=    25  Gaussian smearing, width (Ry)=  0.0100
                       cart. coord. in units 2pi/alat
        k(    1) = (   0.0000000   0.0000000   0.0000000), wk =   0.0312500
        k(    2) = (   0.0000000   0.1281293   0.0000000), wk =   0.0625000
        k(    3) = (   0.0000000   0.2562585   0.0000000), wk =   0.0625000
        k(    4) = (   0.0000000   0.3843878   0.0000000), wk =   0.0625000
        k(    5) = (   0.0000000  -0.5125170   0.0000000), wk =   0.0312500
        k(    6) = (   0.1250000   0.0000000   0.0000000), wk =   0.0625000
        k(    7) = (   0.1250000   0.1281293   0.0000000), wk =   0.1250000
        k(    8) = (   0.1250000   0.2562585   0.0000000), wk =   0.1250000
        k(    9) = (   0.1250000   0.3843878   0.0000000), wk =   0.1250000
        k(   10) = (   0.1250000  -0.5125170   0.0000000), wk =   0.0625000
        k(   11) = (   0.2500000   0.0000000   0.0000000), wk =   0.0625000
        k(   12) = (   0.2500000   0.1281293   0.0000000), wk =   0.1250000
        k(   13) = (   0.2500000   0.2562585   0.0000000), wk =   0.1250000
        k(   14) = (   0.2500000   0.3843878   0.0000000), wk =   0.1250000
        k(   15) = (   0.2500000  -0.5125170   0.0000000), wk =   0.0625000
        k(   16) = (   0.3750000   0.0000000   0.0000000), wk =   0.0625000
        k(   17) = (   0.3750000   0.1281293   0.0000000), wk =   0.1250000
        k(   18) = (   0.3750000   0.2562585   0.0000000), wk =   0.1250000
        k(   19) = (   0.3750000   0.3843878   0.0000000), wk =   0.1250000
        k(   20) = (   0.3750000  -0.5125170   0.0000000), wk =   0.0625000
        k(   21) = (  -0.5000000   0.0000000   0.0000000), wk =   0.0312500
        k(   22) = (  -0.5000000   0.1281293   0.0000000), wk =   0.0625000
        k(   23) = (  -0.5000000   0.2562585   0.0000000), wk =   0.0625000
        k(   24) = (  -0.5000000   0.3843878   0.0000000), wk =   0.0625000
        k(   25) = (  -0.5000000  -0.5125170   0.0000000), wk =   0.0312500

     Initial potential from superposition of free atoms

     starting charge  228.84827, renormalised to  229.00000

     negative rho (up, down):  8.923E-02 0.000E+00
     Starting wfcs are  201 randomized atomic wfcs

     Self-consistent Calculation

     iteration #  1     ecut=    60.00 Ry     beta= 0.20
     Davidson diagonalization with overlap
     ethr =  1.00E-02,  avg # of iterations =  2.0

     negative rho (up, down):  8.720E-02 0.000E+00

     total energy              =   -1869.30824017 Ry
     Harris-Foulkes estimate   =   -1871.12645542 Ry
     estimated scf accuracy    <      20.29213267 Ry

[...]

     iteration # 13     ecut=    60.00 Ry     beta= 0.20
     Davidson diagonalization with overlap
     c_bands:  2 eigenvalues not converged
     ethr =  3.83E-05,  avg # of iterations =  5.6

[...]

     End of self-consistent calculation

          k = 0.0000 0.0000 0.0000 ( 37989 PWs)   bands (ev):

   -38.4977 -38.3659 -24.4276 -23.4792 -23.1515 -23.0578 -19.0951 -19.0327
   -18.5020 -18.4927 -18.4613 -18.4563 -15.8279 -15.7683 -15.3892 -15.1282
   -14.8687 -14.7158 -14.6356 -14.6133 -14.4597 -14.3520 -14.1788 -14.1337
   -14.0747 -13.8790 -13.4951  -9.7411  -9.2584  -9.2354  -8.7863  -8.4401
    -8.4191  -8.3763  -8.3324  -8.1437  -8.1171  -8.0110  -7.9882  -2.8714
    -2.8513  -2.4564  -2.4373  -2.4222  -2.2900  -2.2591  -2.2349  -2.1953
    -2.1664  -2.0914  -1.5604  -1.4813  -1.4142  -1.3312  -1.2584  -0.9294
    -0.8851  -0.8352  -0.8332  -0.8004  -0.5527  -0.4847  -0.4766  -0.4728
    -0.4442  -0.4076  -0.3784  -0.3159  -0.3071  -0.3052  -0.2453  -0.2414
    -0.1437  -0.0907  -0.0851  -0.0320   0.0107   0.0179   0.0218   0.0341
     0.1584   0.1703   0.1839   0.1842   0.2439   0.2590   0.2870   0.3273
     0.4352   0.5618   0.6579   0.7006   0.7862   0.8319   0.8548   0.8843
     0.9058   0.9426   0.9790   1.0071   1.0351   1.1021   1.1288   1.1501
     1.3735   1.4102   1.4953   1.5814   1.6105   1.7059   1.8091   1.8326
     1.9722   1.9986   2.0107   2.1315   2.1372   2.2380   2.2945   3.8870
     4.8326   4.8971   4.9497   5.4441   5.6146   5.9897   6.0786   6.3045
[...]
     atom   27 type  2   force =     0.00000000    0.00000000    0.00471965
     atom   28 type  3   force =     0.00000000    0.00000000   -0.00454744

     Total force =     0.198612     Total SCF correction =     0.001139

     Computing stress (Cartesian axis) and pressure

     negative rho (up, down):  9.020E-02 0.000E+00
          total   stress  (Ry/bohr**3)                   (kbar)     P=       -2.42
  -0.00006699   0.00000000   0.00000000           -9.85        0.00        0.00
   0.00000000  -0.00000361   0.00000000            0.00       -0.53        0.00
   0.00000000   0.00000000   0.00002131            0.00        0.00        3.14

     BFGS Geometry Optimization

     number of scf cycles    =   1
     number of bfgs steps    =   0

     energy   new            =   -1868.6951896434 Ry

     new trust radius        =       0.1851364029 bohr
     new conv_thr            =       0.0000010000 Ry

ATOMIC_POSITIONS (angstrom)
O             0.0000000000        1.8966400000       -0.1003100000    0   0   0
Cu            0.0000000000        0.0000000000        0.0839000000    0   0   0
O             0.0000000000        0.0000000000        1.9725500000    0   0   0
Ba            1.9441200000        1.8966400000        2.0684200000    0   0   0
Cu            0.0000000000        0.0000000000        4.0810400000    0   0   0
O             1.9441200000        0.0000000000        4.3476700000    0   0   0
O             0.0000000000        1.8966400000        4.3832700000    0   0   0
Y             1.9441200000        1.8966400000        5.8085600000    0   0   0
O             0.0000000000        1.8966400000        7.1922400000    0   0   0
O             1.9441200000        0.0000000000        7.2681800000    0   0   0
Cu            0.0000000000        0.0000000000        7.5500200000    0   0   0
Ba            1.9441200000        1.8966400000        9.5363300000    0   0   0
O             0.0000000000        0.0000000000        9.7608400000    0   0   0
O             0.0000000000        1.8966400000       11.6613130323
Cu            0.0000000000        0.0000000000       11.6445340021
O             0.0000000000        0.0000000000       13.5651816431
Ba            1.9441200000        1.8966400000       13.7482230950
Cu            0.0000000000        0.0000000000       20.7571059763
O             1.9441200000        0.0000000000       21.0540955950
O             0.0000000000        1.8966400000       21.1244098132
Y             1.9441200000        1.8966400000       22.7482900351
O             0.0000000000        1.8966400000       23.9215500000    0   0   0
O             1.9441200000        0.0000000000       23.9572000000    0   0   0
Cu            0.0000000000        0.0000000000       24.2238500000    0   0   0
Ba            1.9441200000        1.8966400000       26.2364100000    0   0   0
O             0.0000000000        0.0000000000       26.3322800000    0   0   0
Cu            0.0000000000        0.0000000000       28.2208200000    0   0   0
O             0.0000000000        1.8966400000       28.4050500000    0   0   0

     NEW-OLD atomic charge density approx. for the potential

[...]

     energy   old            =   -1868.6951896434 Ry
     energy   new            =   -1868.7300654583 Ry

     CASE: energy  _new < energy  _old

[...]

     Total force =     0.053289     Total SCF correction =     0.007387
     SCF correction compared to forces is large: reduce conv_thr to get better values

[...]

     iteration #  1     ecut=    60.00 Ry     beta= 0.20
     Davidson diagonalization with overlap
     c_bands:  1 eigenvalues not converged
     ethr =  1.00E-06,  avg # of iterations =  9.4

[...]

     WARNING: bfgs curvature condition failed, Theta= 0.926
     new trust radius        =       0.0097294214 bohr
     new conv_thr            =       0.0000003357 Ry

[...]

     Threshold (ethr) on eigenvalues was too large:
     Diagonalizing with lowered threshold

     Davidson diagonalization with overlap
     ethr =  4.25E-08,  avg # of iterations =  2.0

[...]

     Total force =     0.005702     Total SCF correction =     0.000543

[...]

     WARNING: info= 54 for Hessian
     new trust radius        =       0.0005140994 bohr
     new conv_thr            =       0.0000000100 Ry

[...]

     WARNING: info= 54 for Hessian
     new trust radius        =       0.0007711492 bohr
     new conv_thr            =       0.0000000100 Ry

[...]

     BFGS Geometry Optimization

[...]

     energy   new            =   -1868.7842081830 Ry

[...]

     WARNING: bfgs curvature condition failed, Theta= 0.768
     new trust radius        =       0.0002837646 bohr
     new conv_thr            =       0.0000000100 Ry

[...]

     CASE: energy  _new > energy  _old

[...]

     CASE: energy  _new > energy  _old

     new trust radius        =       0.0000505108 bohr

     trust_radius < trust_radius_min

     resetting bfgs history

     new conv_thr            =       0.0000000100 Ry

[...]

     small trust_radius: resetting bfgs history

[...]

     Threshold (ethr) on eigenvalues was too large:
     Diagonalizing with lowered threshold

     Davidson diagonalization with overlap
     ethr =  9.73E-08,  avg # of iterations =  1.0

[...]

     number of scf cycles    =  24
     number of bfgs steps    =  19

     energy   old            =   -1868.7842130316 Ry
     energy   new            =   -1868.7842130927 Ry

     CASE: energy  _new < energy  _old

     new trust radius        =       0.0003375000 bohr
     new conv_thr            =       0.0000000100 Ry

ATOMIC_POSITIONS (angstrom)
O             0.0000000000        1.8966400000       -0.1003100000    0   0   0
Cu            0.0000000000        0.0000000000        0.0839000000    0   0   0
O             0.0000000000        0.0000000000        1.9725500000    0   0   0
Ba            1.9441200000        1.8966400000        2.0684200000    0   0   0
Cu            0.0000000000        0.0000000000        4.0810400000    0   0   0
O             1.9441200000        0.0000000000        4.3476700000    0   0   0
O             0.0000000000        1.8966400000        4.3832700000    0   0   0
Y             1.9441200000        1.8966400000        5.8085600000    0   0   0
O             0.0000000000        1.8966400000        7.1922400000    0   0   0
O             1.9441200000        0.0000000000        7.2681800000    0   0   0
Cu            0.0000000000        0.0000000000        7.5500200000    0   0   0
Ba            1.9441200000        1.8966400000        9.5363300000    0   0   0
O             0.0000000000        0.0000000000        9.7608400000    0   0   0
O             0.0000000000        1.8966400000       11.7372036803
Cu            0.0000000000        0.0000000000       11.6690211929
O             0.0000000000        0.0000000000       13.6107303053
Ba            1.9441200000        1.8966400000       13.6141630558
Cu            0.0000000000        0.0000000000       20.7699829017
O             1.9441200000        0.0000000000       21.0809624873
O             0.0000000000        1.8966400000       21.1206018388
Y             1.9441200000        1.8966400000       22.4071234952
O             0.0000000000        1.8966400000       23.9215500000    0   0   0
O             1.9441200000        0.0000000000       23.9572000000    0   0   0
Cu            0.0000000000        0.0000000000       24.2238500000    0   0   0
Ba            1.9441200000        1.8966400000       26.2364100000    0   0   0
O             0.0000000000        0.0000000000       26.3322800000    0   0   0
Cu            0.0000000000        0.0000000000       28.2208200000    0   0   0
O             0.0000000000        1.8966400000       28.4050500000    0   0   0

     NEW-OLD atomic charge density approx. for the potential

[...]

     Self-consistent Calculation

[...]

     total energy              =   -1868.78421317 Ry
     Harris-Foulkes estimate   =   -1868.78421317 Ry
     estimated scf accuracy    <       0.00000003 Ry

     iteration # 10     ecut=    60.00 Ry     beta= 0.20
     Davidson diagonalization with overlap
     ethr =  1.09E-11,  avg # of iterations =  2.2

[...]

     End of self-consistent calculation

[...]

          k = 0.3750-0.5125 0.0000 ( 38222 PWs)   bands (ev):

[...]

          k =-0.5000-0.5125 0.0000 ( 38244 PWs)   bands (ev):

   -38.5621 -38.0867 -23.5899 -23.0408 -22.9916 -22.8936 -19.1439 -19.1166
   -18.7592 -18.7227 -18.6442 -18.1473 -14.9745 -14.9630 -14.8905 -14.7094
   -14.6914 -14.6751 -14.6125 -14.4598 -14.4082 -14.2555 -14.1011 -14.0975
   -14.0433 -13.9349 -13.8983  -9.6733  -9.2757  -9.1858  -9.1853  -9.1546
    -9.0955  -8.8965  -8.8240  -8.8110  -8.4967  -8.4277  -8.3135  -4.6553
    -4.3884  -4.0746  -3.7805  -3.7643  -3.1889  -3.1845  -2.9872  -2.7943
    -2.7031  -2.6959  -2.6757  -2.4901  -2.3017  -2.2923  -2.2798  -2.1458
    -1.9811  -1.7368  -1.5243  -1.4844  -1.3892  -1.3761  -1.2263  -1.2007
    -1.1730  -1.1342  -1.0494  -0.9644  -0.9625  -0.7768  -0.7114  -0.7085
    -0.5312  -0.3208  -0.3206  -0.0388   0.1560   0.1919   0.4350   0.6302
     0.9344   0.9414   1.0226   1.0556   1.1055   1.1338   1.1439   1.1684
     1.1719   1.1957   1.3222   1.3237   1.3782   1.4443   1.5513   1.5542
     1.5548   1.5710   1.5791   1.6016   1.6053   1.6075   1.6499   1.6595
     1.6831   1.9256   1.9628   2.0323   2.1027   2.1046   2.2110   2.2122
     2.5501   2.5506   3.8477   4.0020   4.3109   4.4011   4.4182   4.5120
     5.3482   5.3842   6.0987   6.1585   7.0569   7.2011   7.8272   8.0191
     8.2399   8.5159   8.5614   8.5981   8.6549   8.7105   8.7914   8.8058
     8.9756   9.1678

     the Fermi energy is     2.5103 ev

!    total energy              =   -1868.78421318 Ry
     Harris-Foulkes estimate   =   -1868.78421317 Ry
     estimated scf accuracy    <          6.5E-09 Ry

     The total energy is the sum of the following terms:

     one-electron contribution =  -24952.75770668 Ry
     hartree contribution      =   12626.76934066 Ry
     xc contribution           =    -642.25959061 Ry
     ewald contribution        =   11099.47231793 Ry
     smearing contrib. (-TS)   =      -0.00857448 Ry

     convergence has been achieved in  10 iterations

     negative rho (up, down):  9.054E-02 0.000E+00

     Forces acting on atoms (cartesian axes, Ry/au):

     atom    1 type  3   force =     0.00000000    0.00000000    0.00002588
     atom    2 type  2   force =     0.00000000    0.00000000   -0.00016877
     atom    3 type  3   force =     0.00000000    0.00000000    0.00001908
     atom    4 type  1   force =     0.00000000    0.00000000   -0.00019645
     atom    5 type  2   force =     0.00000000    0.00000000   -0.00012326
     atom    6 type  3   force =     0.00000000    0.00000000    0.00073707
     atom    7 type  3   force =     0.00000000    0.00000000    0.00013207
     atom    8 type  4   force =     0.00000000    0.00000000   -0.00167955
     atom    9 type  3   force =     0.00000000    0.00000000    0.00248257
     atom   10 type  3   force =     0.00000000    0.00000000    0.00281551
     atom   11 type  2   force =     0.00000000    0.00000000   -0.00286823
     atom   12 type  1   force =     0.00000000    0.00000000   -0.01000738
     atom   13 type  3   force =     0.00000000    0.00000000    0.00982528
     atom   14 type  3   force =     0.00000000    0.00000000    0.00000081
     atom   15 type  2   force =     0.00000000    0.00000000    0.00003954
     atom   16 type  3   force =     0.00000000    0.00000000   -0.00008765
     atom   17 type  1   force =     0.00000000    0.00000000   -0.00004808
     atom   18 type  2   force =     0.00000000    0.00000000   -0.00000811
     atom   19 type  3   force =     0.00000000    0.00000000    0.00000551
     atom   20 type  3   force =     0.00000000    0.00000000    0.00000707
     atom   21 type  4   force =     0.00000000    0.00000000    0.00001809
     atom   22 type  3   force =     0.00000000    0.00000000    0.00028389
     atom   23 type  3   force =     0.00000000    0.00000000    0.00495314
     atom   24 type  2   force =     0.00000000    0.00000000    0.00066767
     atom   25 type  1   force =     0.00000000    0.00000000   -0.00865243
     atom   26 type  3   force =     0.00000000    0.00000000    0.00225713
     atom   27 type  2   force =     0.00000000    0.00000000   -0.00183728
     atom   28 type  3   force =     0.00000000    0.00000000    0.00140689

     Total force =     0.000110     Total SCF correction =     0.000220
     SCF correction compared to forces is large: reduce conv_thr to get better values

     Computing stress (Cartesian axis) and pressure

     negative rho (up, down):  9.054E-02 0.000E+00
          total   stress  (Ry/bohr**3)                   (kbar)     P=       -4.65
  -0.00006042   0.00000000   0.00000000           -8.89        0.00        0.00
   0.00000000  -0.00002305   0.00000000            0.00       -3.39        0.00
   0.00000000   0.00000000  -0.00001128            0.00        0.00       -1.66

     bfgs converged in  25 scf cycles and  20 bfgs steps
     (criteria: energy <  1.0E-05 Ry, force <  1.0E-04 Ry/Bohr)

     End of BFGS Geometry Optimization

     Final energy   =   -1868.7842131765 Ry
Begin final coordinates

ATOMIC_POSITIONS (angstrom)
O             0.0000000000        1.8966400000       -0.1003100000    0   0   0
Cu            0.0000000000        0.0000000000        0.0839000000    0   0   0
O             0.0000000000        0.0000000000        1.9725500000    0   0   0
Ba            1.9441200000        1.8966400000        2.0684200000    0   0   0
Cu            0.0000000000        0.0000000000        4.0810400000    0   0   0
O             1.9441200000        0.0000000000        4.3476700000    0   0   0
O             0.0000000000        1.8966400000        4.3832700000    0   0   0
Y             1.9441200000        1.8966400000        5.8085600000    0   0   0
O             0.0000000000        1.8966400000        7.1922400000    0   0   0
O             1.9441200000        0.0000000000        7.2681800000    0   0   0
Cu            0.0000000000        0.0000000000        7.5500200000    0   0   0
Ba            1.9441200000        1.8966400000        9.5363300000    0   0   0
O             0.0000000000        0.0000000000        9.7608400000    0   0   0
O             0.0000000000        1.8966400000       11.7372036803
Cu            0.0000000000        0.0000000000       11.6690211929
O             0.0000000000        0.0000000000       13.6107303053
Ba            1.9441200000        1.8966400000       13.6141630558
Cu            0.0000000000        0.0000000000       20.7699829017
O             1.9441200000        0.0000000000       21.0809624873
O             0.0000000000        1.8966400000       21.1206018388
Y             1.9441200000        1.8966400000       22.4071234952
O             0.0000000000        1.8966400000       23.9215500000    0   0   0
O             1.9441200000        0.0000000000       23.9572000000    0   0   0
Cu            0.0000000000        0.0000000000       24.2238500000    0   0   0
Ba            1.9441200000        1.8966400000       26.2364100000    0   0   0
O             0.0000000000        0.0000000000       26.3322800000    0   0   0
Cu            0.0000000000        0.0000000000       28.2208200000    0   0   0
O             0.0000000000        1.8966400000       28.4050500000    0   0   0
End final coordinates

     General routines

     Parallel routines

   This run was terminated on:  14:57:18   2May2021

   JOB DONE.
[1619981838.556907] [holy7c02602:218101:0]          mpool.c:43   UCX  WARN  object 0x2cf8a00 was not returned to mpool ucp_requests
[1619981838.557457] [holy7c02502:241409:0]          mpool.c:43   UCX  WARN  object 0x4019c80 was not returned to mpool ucp_requests
[1619981838.557205] [holy7c04104:238428:0]          mpool.c:43   UCX  WARN  object 0x421efc0 was not returned to mpool ucp_requests
[1619981838.546889] [holy7c04102:253438:0]          mpool.c:43   UCX  WARN  object 0x2f6d4c0 was not returned to mpool ucp_requests
[1619981838.546909] [holy7c04102:253438:0]          mpool.c:43   UCX  WARN  object 0x2f6da00 was not returned to mpool ucp_requests
[1619981838.557771] [holy7c02502:241408:0]          mpool.c:43   UCX  WARN  object 0x45af240 was not returned to mpool ucp_requests
[1619981838.557429] [holy7c02502:241413:0]          mpool.c:43   UCX  WARN  object 0x2929700 was not returned to mpool ucp_requests
[1619981838.557455] [holy7c02502:241413:0]          mpool.c:43   UCX  WARN  object 0x2929c40 was not returned to mpool ucp_requests
[1619981838.558111] [holy7c04104:238429:0]          mpool.c:43   UCX  WARN  object 0x3b0b580 was not returned to mpool ucp_requests