     Program PWSCF v.6.5 starts on  3May2021 at 22:52:54

     R & G space division:  proc/nbgrp/npool/nimage =      20
     Reading input from YBCO_BaO_cleave_6_sep.pwi
Warning: card &CELL ignored
Warning: card     CELL_DYNAMICS = 'BFGS' ignored
Warning: card / ignored

     Current dimensions of program PWSCF are:
     Max number of different atomic species (ntypx) = 10
     Max number of k-points (npk) =  40000
     Max angular momentum in pseudopotentials (lmaxx) =  3

     Message from routine setup:
     using ibrav=0 with symmetry is DISCOURAGED, use correct ibrav instead

     bravais-lattice index     =            0
     lattice parameter (alat)  =       7.3477  a.u.
     unit-cell volume          =    4953.9607 (a.u.)^3
     number of atoms/cell      =           28
     number of atomic types    =            4
     number of electrons       =       229.00
     number of Kohn-Sham states=          138
     kinetic-energy cutoff     =      60.0000  Ry
     charge density cutoff     =     720.0000  Ry
     convergence threshold     =      1.0E-06
     mixing beta               =       0.2000
     number of iterations used =           10  local-TF  mixing
     Exchange-correlation= SLA PW PBE PBE
                           (   1   4   3   4   0   0   0)
     nstep                     =          300

     celldm(1)=   7.347715  celldm(2)=   0.000000  celldm(3)=   0.000000
     celldm(4)=   0.000000  celldm(5)=   0.000000  celldm(6)=   0.000000

     crystal axes: (cart. coord. in units of alat)
               a(1) = (   1.000000   0.000000   0.000000 )
               a(2) = (   0.000000   0.975577   0.000000 )
               a(3) = (   0.000000   0.000000  12.800707 )

     reciprocal axes: (cart. coord. in units 2 pi/alat)
               b(1) = (  1.000000  0.000000  0.000000 )
               b(2) = (  0.000000  1.025034  0.000000 )
               b(3) = (  0.000000  0.000000  0.078121 )

     PseudoPot. # 1 for Ba read from file:
     /n/holyscratch01/hoffman_lab/ruizhe/YBCO_Project/pseudo/Ba.pbe-nsp-van.UPF
     MD5 check sum: 2b9c31dd849566dd297d80989662b7a0
     Pseudo is Ultrasoft + core correction, Zval = 10.0
     Generated by new atomic code, or converted to UPF format
     Using radial grid of  907 points,  6 beta functions with:
                l(1) =   0
                l(2) =   0
                l(3) =   1
                l(4) =   1
                l(5) =   2
                l(6) =   2
     Q(r) pseudized with  6 coefficients,  rinner =    1.200   1.200   1.200
                                                       1.200   1.200

     PseudoPot. # 2 for Cu read from file:
     /n/holyscratch01/hoffman_lab/ruizhe/YBCO_Project/pseudo/Cu.pbe-n-van_ak.UPF
     MD5 check sum: 34e3282627ffb533726feb647e090d62
     Pseudo is Ultrasoft + core correction, Zval = 11.0
     Generated by new atomic code, or converted to UPF format
     Using radial grid of  867 points,  6 beta functions with:
                l(1) =   0
                l(2) =   0
                l(3) =   1
                l(4) =   1
                l(5) =   2
                l(6) =   2
     Q(r) pseudized with  8 coefficients,  rinner =    1.400   1.400   1.400
                                                       1.400   1.400

     PseudoPot. # 3 for O  read from file:
     /n/holyscratch01/hoffman_lab/ruizhe/YBCO_Project/pseudo/O.pbe-van_ak.UPF
     MD5 check sum: 783ce7fe4c79b6a4916957118fed0856
     Pseudo is Ultrasoft, Zval =  6.0
     Generated by new atomic code, or converted to UPF format
     Using radial grid of  737 points,  4 beta functions with:
                l(1) =   0
                l(2) =   0
                l(3) =   1
                l(4) =   1
     Q(r) pseudized with  8 coefficients,  rinner =    0.800   0.800   0.800

     PseudoPot. # 4 for Y  read from file:
     /n/holyscratch01/hoffman_lab/ruizhe/YBCO_Project/pseudo/Y.pbe-nsp-van.UPF
     MD5 check sum: 4412fed3ab108fed87a1b7d6a69a4a38
     Pseudo is Ultrasoft + core correction, Zval = 11.0
     Generated by new atomic code, or converted to UPF format
     Using radial grid of  885 points,  6 beta functions with:
                l(1) =   0
                l(2) =   0
                l(3) =   1
                l(4) =   1
                l(5) =   2
                l(6) =   2
     Q(r) pseudized with  6 coefficients,  rinner =    1.200   1.200   1.200
                                                       1.200   1.200

     atomic species   valence    mass     pseudopotential
        Ba            10.00   137.32700     Ba( 1.00)
        Cu            11.00    63.54600     Cu( 1.00)
        O              6.00    15.99900     O ( 1.00)
        Y             11.00    88.90584     Y ( 1.00)

      4 Sym. Ops. (no inversion) found

   Cartesian axes

     site n.     atom                  positions (alat units)
         1           O   tau(   1) = (   0.0000000   0.4877884  -0.0257983  )
         2           Cu  tau(   2) = (   0.0000000   0.0000000   0.0215779  )
         3           O   tau(   3) = (   0.0000000   0.0000000   0.5073114  )
         4           Ba  tau(   4) = (   0.4999996   0.4877884   0.5319677  )
         5           Cu  tau(   5) = (   0.0000000   0.0000000   1.0495845  )
         6           O   tau(   6) = (   0.4999996   0.0000000   1.1181579  )
         7           O   tau(   7) = (   0.0000000   0.4877884   1.1273137  )
         8           Y   tau(   8) = (   0.4999996   0.4877884   1.4938777  )
         9           O   tau(   9) = (   0.0000000   0.4877884   1.8497402  )
        10           O   tau(  10) = (   0.4999996   0.0000000   1.8692709  )
        11           Cu  tau(  11) = (   0.0000000   0.0000000   1.9417560  )
        12           Ba  tau(  12) = (   0.4999996   0.4877884   2.4526063  )
        13           O   tau(  13) = (   0.0000000   0.0000000   2.5103470  )
        14           O   tau(  14) = (   0.0000000   0.4877884   2.9968469  )
        15           Cu  tau(  15) = (   0.0000000   0.0000000   2.9968521  )
        16           O   tau(  16) = (   0.0000000   0.0000000   3.4833288  )
        17           Ba  tau(  17) = (   0.4999996   0.4877884   3.5410618  )
        18           Cu  tau(  18) = (   0.0000000   0.0000000   5.7107820  )
        19           O   tau(  19) = (   0.4999996   0.0000000   5.6675208  )
        20           O   tau(  20) = (   0.0000000   0.4877884   5.6870335  )
        21           Y   tau(  21) = (   0.4999996   0.4877884   6.0428986  )
        22           O   tau(  22) = (   0.0000000   0.4877884   6.4094625  )
        23           O   tau(  23) = (   0.4999996   0.0000000   6.4186312  )
        24           Cu  tau(  24) = (   0.0000000   0.0000000   6.4872097  )
        25           Ba  tau(  25) = (   0.4999996   0.4877884   7.0048111  )
        26           O   tau(  26) = (   0.0000000   0.0000000   7.0294675  )
        27           Cu  tau(  27) = (   0.0000000   0.0000000   7.5151727  )
        28           O   tau(  28) = (   0.0000000   0.4877884   7.5625540  )

     number of k points=    25  Gaussian smearing, width (Ry)=  0.0100
                       cart. coord. in units 2pi/alat
        k(    1) = (   0.0000000   0.0000000   0.0000000), wk =   0.0312500
        k(    2) = (   0.0000000   0.1281293   0.0000000), wk =   0.0625000
        k(    3) = (   0.0000000   0.2562585   0.0000000), wk =   0.0625000
        k(    4) = (   0.0000000   0.3843878   0.0000000), wk =   0.0625000
        k(    5) = (   0.0000000  -0.5125170   0.0000000), wk =   0.0312500
        k(    6) = (   0.1250000   0.0000000   0.0000000), wk =   0.0625000
        k(    7) = (   0.1250000   0.1281293   0.0000000), wk =   0.1250000
        k(    8) = (   0.1250000   0.2562585   0.0000000), wk =   0.1250000
        k(    9) = (   0.1250000   0.3843878   0.0000000), wk =   0.1250000
        k(   10) = (   0.1250000  -0.5125170   0.0000000), wk =   0.0625000
        k(   11) = (   0.2500000   0.0000000   0.0000000), wk =   0.0625000
        k(   12) = (   0.2500000   0.1281293   0.0000000), wk =   0.1250000
        k(   13) = (   0.2500000   0.2562585   0.0000000), wk =   0.1250000
        k(   14) = (   0.2500000   0.3843878   0.0000000), wk =   0.1250000
        k(   15) = (   0.2500000  -0.5125170   0.0000000), wk =   0.0625000
        k(   16) = (   0.3750000   0.0000000   0.0000000), wk =   0.0625000
        k(   17) = (   0.3750000   0.1281293   0.0000000), wk =   0.1250000
        k(   18) = (   0.3750000   0.2562585   0.0000000), wk =   0.1250000
        k(   19) = (   0.3750000   0.3843878   0.0000000), wk =   0.1250000
        k(   20) = (   0.3750000  -0.5125170   0.0000000), wk =   0.0625000
        k(   21) = (  -0.5000000   0.0000000   0.0000000), wk =   0.0312500
        k(   22) = (  -0.5000000   0.1281293   0.0000000), wk =   0.0625000
        k(   23) = (  -0.5000000   0.2562585   0.0000000), wk =   0.0625000
        k(   24) = (  -0.5000000   0.3843878   0.0000000), wk =   0.0625000
        k(   25) = (  -0.5000000  -0.5125170   0.0000000), wk =   0.0312500

     Initial potential from superposition of free atoms

     starting charge  228.84827, renormalised to  229.00000

     negative rho (up, down):  8.950E-02 0.000E+00
     Starting wfcs are  201 randomized atomic wfcs

     Self-consistent Calculation

     iteration #  1     ecut=    60.00 Ry     beta= 0.20
     Davidson diagonalization with overlap
     ethr =  1.00E-02,  avg # of iterations =  2.0

     negative rho (up, down):  8.740E-02 0.000E+00

     total energy              =   -1869.52767555 Ry
     Harris-Foulkes estimate   =   -1871.12738123 Ry
     estimated scf accuracy    <      14.63020902 Ry

[...]

     iteration # 16     ecut=    60.00 Ry     beta= 0.20
     Davidson diagonalization with overlap
     c_bands:  1 eigenvalues not converged
     ethr =  5.61E-06,  avg # of iterations =  7.9

[...]

     End of self-consistent calculation

          k = 0.0000 0.0000 0.0000 ( 38797 PWs)   bands (ev):

   -38.7138 -38.1895 -24.6600 -23.3675 -23.3159 -23.2741 -19.2489 -18.7310
   -18.7181 -18.7088 -18.2444 -18.2261 -16.0446 -15.7090 -15.3491 -15.0852
   -14.8548 -14.8521 -14.8299 -14.6051 -14.5687 -14.5301 -14.3502 -14.3312
   -14.3012 -14.0966 -13.9929  -9.9745  -9.4905  -9.4673  -8.5925  -8.5490
    -8.5298  -8.3597  -8.3332  -8.3116  -8.2836  -8.2275  -8.2047  -2.6731
    -2.6389  -2.5069  -2.4520  -2.4516  -2.4147  -2.4121  -2.4119  -2.3831
    -2.3082  -2.1953  -1.5762  -1.5636  -1.5515  -1.4751  -1.1477  -1.1080
    -1.0542  -1.0500  -1.0204  -0.9768  -0.7018  -0.6609  -0.6538  -0.6243
    -0.6199  -0.5254  -0.5216  -0.4630  -0.4585  -0.4471  -0.3607  -0.3075
    -0.3019  -0.2633  -0.2538  -0.2522  -0.2276  -0.1950  -0.1925  -0.1830
    -0.0769  -0.0583  -0.0515  -0.0493  -0.0465  -0.0333   0.0576   0.0703
     0.3422   0.4072   0.4520   0.4828   0.6380   0.6654   0.6661   0.6936
     0.7531   0.7621   0.7876   0.8131   0.8381   0.8850   0.9118   0.9309
     1.1524   1.1843   1.3641   1.3782   1.3939   1.4358   1.5017   1.5566
     1.5925   1.6141   1.6271   1.7550   1.7933   2.0776   2.0812   3.6868
     4.6825   4.7093   4.7452   5.2329   5.3298   5.7866   6.0907   6.1523
[...]
   0.00000000   0.00000000  -0.00000935            0.00        0.00       -1.38

     BFGS Geometry Optimization

     number of scf cycles    =   1
     number of bfgs steps    =   0

     energy   new            =   -1868.7333225538 Ry

     new trust radius        =       0.0594384050 bohr
     new conv_thr            =       0.0000010000 Ry

ATOMIC_POSITIONS (angstrom)
O             0.0000000000        1.8966400000       -0.1003100000    0   0   0
Cu            0.0000000000        0.0000000000        0.0839000000    0   0   0
O             0.0000000000        0.0000000000        1.9725500000    0   0   0
Ba            1.9441200000        1.8966400000        2.0684200000    0   0   0
Cu            0.0000000000        0.0000000000        4.0810400000    0   0   0
O             1.9441200000        0.0000000000        4.3476700000    0   0   0
O             0.0000000000        1.8966400000        4.3832700000    0   0   0
Y             1.9441200000        1.8966400000        5.8085600000    0   0   0
O             0.0000000000        1.8966400000        7.1922400000    0   0   0
O             1.9441200000        0.0000000000        7.2681800000    0   0   0
Cu            0.0000000000        0.0000000000        7.5500200000    0   0   0
Ba            1.9441200000        1.8966400000        9.5363300000    0   0   0
O             0.0000000000        0.0000000000        9.7608400000    0   0   0
O             0.0000000000        1.8966400000       11.6613297552
Cu            0.0000000000        0.0000000000       11.6439169927
O             0.0000000000        0.0000000000       13.5656027697
Ba            1.9441200000        1.8966400000       13.7478078193
Cu            0.0000000000        0.0000000000       22.1734565508
O             1.9441200000        0.0000000000       22.0592529344
O             0.0000000000        1.8966400000       22.1296926075
Y             1.9441200000        1.8966400000       23.4749652634
O             0.0000000000        1.8966400000       24.9215500000    0   0   0
O             1.9441200000        0.0000000000       24.9572000000    0   0   0
Cu            0.0000000000        0.0000000000       25.2238500000    0   0   0
Ba            1.9441200000        1.8966400000       27.2364100000    0   0   0
O             0.0000000000        0.0000000000       27.3322800000    0   0   0
Cu            0.0000000000        0.0000000000       29.2208200000    0   0   0
O             0.0000000000        1.8966400000       29.4050500000    0   0   0

     NEW-OLD atomic charge density approx. for the potential

[...]

     energy   old            =   -1868.7333225538 Ry
     energy   new            =   -1868.7440722301 Ry

     CASE: energy  _new < energy  _old

     WARNING: bfgs curvature condition failed, Theta= 0.989
     new trust radius        =       0.0653822455 bohr
     new conv_thr            =       0.0000010000 Ry

[...]

     iteration #  8     ecut=    60.00 Ry     beta= 0.20
     Davidson diagonalization with overlap
     c_bands:  1 eigenvalues not converged
     ethr =  5.47E-08,  avg # of iterations =  2.6

[...]

     BFGS Geometry Optimization

[...]

     energy   new            =   -1868.7629327799 Ry

[...]

     Total force =     0.049987     Total SCF correction =     0.005014
     SCF correction compared to forces is large: reduce conv_thr to get better values

[...]

     Total force =     0.010788     Total SCF correction =     0.001026

[...]

     Threshold (ethr) on eigenvalues was too large:
     Diagonalizing with lowered threshold

     Davidson diagonalization with overlap
     ethr =  8.26E-08,  avg # of iterations =  1.1

[...]

     WARNING: info= 60 for Hessian

     WARNING: bfgs curvature condition failed, Theta= 0.001
     new trust radius        =       0.0003662890 bohr
     new conv_thr            =       0.0000000100 Ry

[...]

     WARNING: info= 60 for Hessian
     new trust radius        =       0.0002963184 bohr
     new conv_thr            =       0.0000000100 Ry

[...]

     WARNING: info= 60 for Hessian
     new trust radius        =       0.0001778554 bohr
     new conv_thr            =       0.0000000100 Ry

[...]

     WARNING: info= 60 for Hessian
     small trust_radius: resetting bfgs history

[...]

     CASE: energy  _new < energy  _old

     new trust radius        =       0.0003380003 bohr
     new conv_thr            =       0.0000000100 Ry

[...]

     CASE: energy  _new > energy  _old

     new trust radius        =       0.0000817589 bohr

     trust_radius < trust_radius_min

     resetting bfgs history

     new conv_thr            =       0.0000000100 Ry

[...]

     Threshold (ethr) on eigenvalues was too large:
     Diagonalizing with lowered threshold

     Davidson diagonalization with overlap
     ethr =  2.50E-08,  avg # of iterations =  1.0

[...]

     number of scf cycles    =  47
     number of bfgs steps    =  45

     energy   old            =   -1868.7831580306 Ry
     energy   new            =   -1868.7831579798 Ry

     CASE: energy  _new > energy  _old

     new trust radius        =       0.0000646260 bohr

     trust_radius < trust_radius_min

     resetting bfgs history

     Message from routine bfgs:
     history already reset at previous step: stopping
     new conv_thr            =       0.0000000100 Ry

ATOMIC_POSITIONS (angstrom)
O             0.0000000000        1.8966400000       -0.1003100000    0   0   0
Cu            0.0000000000        0.0000000000        0.0839000000    0   0   0
O             0.0000000000        0.0000000000        1.9725500000    0   0   0
Ba            1.9441200000        1.8966400000        2.0684200000    0   0   0
Cu            0.0000000000        0.0000000000        4.0810400000    0   0   0
O             1.9441200000        0.0000000000        4.3476700000    0   0   0
O             0.0000000000        1.8966400000        4.3832700000    0   0   0
Y             1.9441200000        1.8966400000        5.8085600000    0   0   0
O             0.0000000000        1.8966400000        7.1922400000    0   0   0
O             1.9441200000        0.0000000000        7.2681800000    0   0   0
Cu            0.0000000000        0.0000000000        7.5500200000    0   0   0
Ba            1.9441200000        1.8966400000        9.5363300000    0   0   0
O             0.0000000000        0.0000000000        9.7608400000    0   0   0
O             0.0000000000        1.8966400000       11.7364221725
Cu            0.0000000000        0.0000000000       11.6696130754
O             0.0000000000        0.0000000000       13.6140560141
Ba            1.9441200000        1.8966400000       13.6069284641
Cu            0.0000000000        0.0000000000       21.7668655906
O             1.9441200000        0.0000000000       22.0818717099
O             0.0000000000        1.8966400000       22.1209783140
Y             1.9441200000        1.8966400000       23.4061027159
O             0.0000000000        1.8966400000       24.9215500000    0   0   0
O             1.9441200000        0.0000000000       24.9572000000    0   0   0
Cu            0.0000000000        0.0000000000       25.2238500000    0   0   0
Ba            1.9441200000        1.8966400000       27.2364100000    0   0   0
O             0.0000000000        0.0000000000       27.3322800000    0   0   0
Cu            0.0000000000        0.0000000000       29.2208200000    0   0   0
O             0.0000000000        1.8966400000       29.4050500000    0   0   0

     NEW-OLD atomic charge density approx. for the potential

[...]

     Self-consistent Calculation

[...]

     total energy              =   -1868.78315799 Ry
     Harris-Foulkes estimate   =   -1868.78315799 Ry
     estimated scf accuracy    <       0.00000001 Ry

     iteration # 11     ecut=    60.00 Ry     beta= 0.20
     Davidson diagonalization with overlap
     ethr =  4.68E-12,  avg # of iterations =  1.6

[...]

     End of self-consistent calculation

[...]

          k = 0.3750-0.5125 0.0000 ( 39018 PWs)   bands (ev):

[...]

          k =-0.5000-0.5125 0.0000 ( 39028 PWs)   bands (ev):

   -38.6893 -38.2059 -23.7253 -23.1711 -23.1188 -23.0194 -19.2712 -19.2438
   -18.8801 -18.8430 -18.7715 -18.2668 -15.1018 -15.0905 -15.0313 -14.8365
   -14.8185 -14.7984 -14.7356 -14.5869 -14.5357 -14.3837 -14.2278 -14.2246
   -14.1631 -14.0677 -14.0173  -9.8108  -9.4092  -9.3277  -9.3130  -9.2847
    -9.2214  -9.0237  -8.9533  -8.9370  -8.6271  -8.5551  -8.4391  -4.7825
    -4.5097  -4.2021  -3.9155  -3.8835  -3.3160  -3.3116  -3.1145  -2.9214
    -2.8251  -2.8217  -2.8029  -2.6052  -2.4288  -2.4194  -2.4072  -2.2715
    -2.1007  -1.8631  -1.6551  -1.6113  -1.5164  -1.5012  -1.3511  -1.3278
    -1.2993  -1.2617  -1.1764  -1.0914  -1.0896  -0.8906  -0.8342  -0.8246
    -0.6606  -0.4480  -0.4477  -0.1603   0.0251   0.0620   0.3089   0.5028
     0.8079   0.8141   0.8956   0.9286   0.9785   1.0068   1.0181   1.0406
     1.0457   1.0690   1.1960   1.1982   1.2505   1.3163   1.4235   1.4242
     1.4276   1.4395   1.4501   1.4712   1.4744   1.4824   1.5233   1.5331
     1.5566   1.8029   1.8252   1.8965   1.9756   1.9775   2.0839   2.0851
     2.4228   2.4239   3.7112   3.8518   4.1837   4.2740   4.2876   4.3845
     5.2211   5.2576   5.9902   6.0311   6.9124   7.0470   7.6739   7.8712
     8.1111   8.3964   8.4370   8.5041   8.5456   8.5810   8.6434   8.6590
     8.8476   9.0587

     the Fermi energy is     2.3832 ev

!    total energy              =   -1868.78315798 Ry
     Harris-Foulkes estimate   =   -1868.78315799 Ry
     estimated scf accuracy    <          4.9E-09 Ry

     The total energy is the sum of the following terms:

     one-electron contribution =  -24084.03820169 Ry
     hartree contribution      =   12191.34744990 Ry
     xc contribution           =    -642.26028325 Ry
     ewald contribution        =   10666.17642890 Ry
     smearing contrib. (-TS)   =      -0.00855183 Ry

     convergence has been achieved in  11 iterations

     negative rho (up, down):  9.064E-02 0.000E+00

     Forces acting on atoms (cartesian axes, Ry/au):

     atom    1 type  3   force =     0.00000000    0.00000000    0.00003329
     atom    2 type  2   force =     0.00000000    0.00000000   -0.00019973
     atom    3 type  3   force =     0.00000000    0.00000000    0.00003060
     atom    4 type  1   force =     0.00000000    0.00000000   -0.00017807
     atom    5 type  2   force =     0.00000000    0.00000000   -0.00018005
     atom    6 type  3   force =     0.00000000    0.00000000    0.00076059
     atom    7 type  3   force =     0.00000000    0.00000000    0.00013643
     atom    8 type  4   force =     0.00000000    0.00000000   -0.00165500
     atom    9 type  3   force =     0.00000000    0.00000000    0.00252618
     atom   10 type  3   force =     0.00000000    0.00000000    0.00285154
     atom   11 type  2   force =     0.00000000    0.00000000   -0.00318317
     atom   12 type  1   force =     0.00000000    0.00000000   -0.01031831
     atom   13 type  3   force =     0.00000000    0.00000000    0.01001648
     atom   14 type  3   force =     0.00000000    0.00000000   -0.00002637
     atom   15 type  2   force =     0.00000000    0.00000000   -0.00006903
     atom   16 type  3   force =     0.00000000    0.00000000    0.00000019
     atom   17 type  1   force =     0.00000000    0.00000000   -0.00026294
     atom   18 type  2   force =     0.00000000    0.00000000    0.00010762
     atom   19 type  3   force =     0.00000000    0.00000000    0.00002020
     atom   20 type  3   force =     0.00000000    0.00000000    0.00003266
     atom   21 type  4   force =     0.00000000    0.00000000    0.00000704
     atom   22 type  3   force =     0.00000000    0.00000000    0.00035552
     atom   23 type  3   force =     0.00000000    0.00000000    0.00512517
     atom   24 type  2   force =     0.00000000    0.00000000    0.00088073
     atom   25 type  1   force =     0.00000000    0.00000000   -0.00873881
     atom   26 type  3   force =     0.00000000    0.00000000    0.00231408
     atom   27 type  2   force =     0.00000000    0.00000000   -0.00181284
     atom   28 type  3   force =     0.00000000    0.00000000    0.00142603

     Total force =     0.000296     Total SCF correction =     0.000122
     SCF correction compared to forces is large: reduce conv_thr to get better values

     Computing stress (Cartesian axis) and pressure

     negative rho (up, down):  9.064E-02 0.000E+00
          total   stress  (Ry/bohr**3)                   (kbar)     P=       -4.42
  -0.00005899   0.00000000   0.00000000           -8.68        0.00        0.00
   0.00000000  -0.00002181   0.00000000            0.00       -3.21        0.00
   0.00000000   0.00000000  -0.00000940            0.00        0.00       -1.38

     Message from routine bfgs:
     history already reset at previous step: stopping

     bfgs converged in  48 scf cycles and  45 bfgs steps
     (criteria: energy <  1.0E-05 Ry, force <  1.0E-04 Ry/Bohr)

     End of BFGS Geometry Optimization

     Final energy   =   -1868.7831579809 Ry
Begin final coordinates

ATOMIC_POSITIONS (angstrom)
O             0.0000000000        1.8966400000       -0.1003100000    0   0   0
Cu            0.0000000000        0.0000000000        0.0839000000    0   0   0
O             0.0000000000        0.0000000000        1.9725500000    0   0   0
Ba            1.9441200000        1.8966400000        2.0684200000    0   0   0
Cu            0.0000000000        0.0000000000        4.0810400000    0   0   0
O             1.9441200000        0.0000000000        4.3476700000    0   0   0
O             0.0000000000        1.8966400000        4.3832700000    0   0   0
Y             1.9441200000        1.8966400000        5.8085600000    0   0   0
O             0.0000000000        1.8966400000        7.1922400000    0   0   0
O             1.9441200000        0.0000000000        7.2681800000    0   0   0
Cu            0.0000000000        0.0000000000        7.5500200000    0   0   0
Ba            1.9441200000        1.8966400000        9.5363300000    0   0   0
O             0.0000000000        0.0000000000        9.7608400000    0   0   0
O             0.0000000000        1.8966400000       11.7364221725
Cu            0.0000000000        0.0000000000       11.6696130754
O             0.0000000000        0.0000000000       13.6140560141
Ba            1.9441200000        1.8966400000       13.6069284641
Cu            0.0000000000        0.0000000000       21.7668655906
O             1.9441200000        0.0000000000       22.0818717099
O             0.0000000000        1.8966400000       22.1209783140
Y             1.9441200000        1.8966400000       23.4061027159
O             0.0000000000        1.8966400000       24.9215500000    0   0   0
O             1.9441200000        0.0000000000       24.9572000000    0   0   0
Cu            0.0000000000        0.0000000000       25.2238500000    0   0   0
Ba            1.9441200000        1.8966400000       27.2364100000    0   0   0
O             0.0000000000        0.0000000000       27.3322800000    0   0   0
Cu            0.0000000000        0.0000000000       29.2208200000    0   0   0
O             0.0000000000        1.8966400000       29.4050500000    0   0   0
End final coordinates

     General routines

     Parallel routines

   This run was terminated on:   2:25:13   4May2021

   JOB DONE.
[1620109513.368039] [holy7c04206:236957:0]          mpool.c:43   UCX  WARN  object 0x2d108c0 was not returned to mpool ucp_requests
[1620109513.368059] [holy7c04206:236957:0]          mpool.c:43   UCX  WARN  object 0x2d10fc0 was not returned to mpool ucp_requests
[1620109513.371776] [holy7c02602:217815:0]          mpool.c:43   UCX  WARN  object 0x2b85100 was not returned to mpool ucp_requests
[1620109513.371808] [holy7c02602:217815:0]          mpool.c:43   UCX  WARN  object 0x2b852c0 was not returned to mpool ucp_requests
[1620109513.371928] [holy7c04102:112659:0]          mpool.c:43   UCX  WARN  object 0x4389540 was not returned to mpool ucp_requests
[1620109513.376117] [holy7c04207:137676:0]          mpool.c:43   UCX  WARN  object 0x45efe80 was not returned to mpool ucp_requests
[1620109513.374679] [holy7c04108:144707:0]          mpool.c:43   UCX  WARN  object 0x4612dc0 was not returned to mpool ucp_requests
[1620109513.376085] [holy7c04207:137677:0]          mpool.c:43   UCX  WARN  object 0x2c49f00 was not returned to mpool ucp_requests
[1620109513.377518] [holy7c04107:15981:0]          mpool.c:43   UCX  WARN  object 0x43d9780 was not returned to mpool ucp_requests
[1620109513.377543] [holy7c04107:15981:0]          mpool.c:43   UCX  WARN  object 0x43d9e80 was not returned to mpool ucp_requests