     Program PWSCF v.6.5 starts on 30Apr2021 at 21:20:36

     R & G space division:  proc/nbgrp/npool/nimage =      20
     Reading input from YBCO_BaO_cleave_1_sep.pwi
Warning: card &CELL ignored
Warning: card     CELL_DYNAMICS = 'BFGS' ignored
Warning: card / ignored

     Current dimensions of program PWSCF are:
     Max number of different atomic species (ntypx) = 10
     Max number of k-points (npk) =  40000
     Max angular momentum in pseudopotentials (lmaxx) =  3

     Message from routine setup:
     using ibrav=0 with symmetry is DISCOURAGED, use correct ibrav instead

     bravais-lattice index     =            0
     lattice parameter (alat)  =       7.3477  a.u.
     unit-cell volume          =    4456.2979 (a.u.)^3
     number of atoms/cell      =           28
     number of atomic types    =            4
     number of electrons       =       229.00
     number of Kohn-Sham states=          138
     kinetic-energy cutoff     =      60.0000  Ry
     charge density cutoff     =     720.0000  Ry
     convergence threshold     =      1.0E-06
     mixing beta               =       0.2000
     number of iterations used =           10  local-TF  mixing
     Exchange-correlation= SLA PW PBE PBE
                           (   1   4   3   4   0   0   0)
     nstep                     =          300

     celldm(1)=   7.347715  celldm(2)=   0.000000  celldm(3)=   0.000000
     celldm(4)=   0.000000  celldm(5)=   0.000000  celldm(6)=   0.000000

     crystal axes: (cart. coord. in units of alat)
               a(1) = (   1.000000   0.000000   0.000000 )
               a(2) = (   0.000000   0.975577   0.000000 )
               a(3) = (   0.000000   0.000000  11.514779 )

     reciprocal axes: (cart. coord. in units 2 pi/alat)
               b(1) = (  1.000000  0.000000  0.000000 )
               b(2) = (  0.000000  1.025034  0.000000 )
               b(3) = (  0.000000  0.000000  0.086845 )

     PseudoPot. # 1 for Ba read from file:
     /n/holyscratch01/hoffman_lab/ruizhe/YBCO_Project/pseudo/Ba.pbe-nsp-van.UPF
     MD5 check sum: 2b9c31dd849566dd297d80989662b7a0
     Pseudo is Ultrasoft + core correction, Zval = 10.0
     Generated by new atomic code, or converted to UPF format
     Using radial grid of  907 points,  6 beta functions with:
                l(1) =   0
                l(2) =   0
                l(3) =   1
                l(4) =   1
                l(5) =   2
                l(6) =   2
     Q(r) pseudized with  6 coefficients,  rinner =    1.200   1.200   1.200
                                                       1.200   1.200

     PseudoPot. # 2 for Cu read from file:
     /n/holyscratch01/hoffman_lab/ruizhe/YBCO_Project/pseudo/Cu.pbe-n-van_ak.UPF
     MD5 check sum: 34e3282627ffb533726feb647e090d62
     Pseudo is Ultrasoft + core correction, Zval = 11.0
     Generated by new atomic code, or converted to UPF format
     Using radial grid of  867 points,  6 beta functions with:
                l(1) =   0
                l(2) =   0
                l(3) =   1
                l(4) =   1
                l(5) =   2
                l(6) =   2
     Q(r) pseudized with  8 coefficients,  rinner =    1.400   1.400   1.400
                                                       1.400   1.400

     PseudoPot. # 3 for O  read from file:
     /n/holyscratch01/hoffman_lab/ruizhe/YBCO_Project/pseudo/O.pbe-van_ak.UPF
     MD5 check sum: 783ce7fe4c79b6a4916957118fed0856
     Pseudo is Ultrasoft, Zval =  6.0
     Generated by new atomic code, or converted to UPF format
     Using radial grid of  737 points,  4 beta functions with:
                l(1) =   0
                l(2) =   0
                l(3) =   1
                l(4) =   1
     Q(r) pseudized with  8 coefficients,  rinner =    0.800   0.800   0.800

     PseudoPot. # 4 for Y  read from file:
     /n/holyscratch01/hoffman_lab/ruizhe/YBCO_Project/pseudo/Y.pbe-nsp-van.UPF
     MD5 check sum: 4412fed3ab108fed87a1b7d6a69a4a38
     Pseudo is Ultrasoft + core correction, Zval = 11.0
     Generated by new atomic code, or converted to UPF format
     Using radial grid of  885 points,  6 beta functions with:
                l(1) =   0
                l(2) =   0
                l(3) =   1
                l(4) =   1
                l(5) =   2
                l(6) =   2
     Q(r) pseudized with  6 coefficients,  rinner =    1.200   1.200   1.200
                                                       1.200   1.200

     atomic species   valence    mass     pseudopotential
        Ba            10.00   137.32700     Ba( 1.00)
        Cu            11.00    63.54600     Cu( 1.00)
        O              6.00    15.99900     O ( 1.00)
        Y             11.00    88.90584     Y ( 1.00)

      4 Sym. Ops. (no inversion) found

   Cartesian axes

     site n.     atom                  positions (alat units)
         1           O   tau(   1) = (   0.0000000   0.4877884  -0.0257983  )
         2           Cu  tau(   2) = (   0.0000000   0.0000000   0.0215779  )
         3           O   tau(   3) = (   0.0000000   0.0000000   0.5073114  )
         4           Ba  tau(   4) = (   0.4999996   0.4877884   0.5319677  )
         5           Cu  tau(   5) = (   0.0000000   0.0000000   1.0495845  )
         6           O   tau(   6) = (   0.4999996   0.0000000   1.1181579  )
         7           O   tau(   7) = (   0.0000000   0.4877884   1.1273137  )
         8           Y   tau(   8) = (   0.4999996   0.4877884   1.4938777  )
         9           O   tau(   9) = (   0.0000000   0.4877884   1.8497402  )
        10           O   tau(  10) = (   0.4999996   0.0000000   1.8692709  )
        11           Cu  tau(  11) = (   0.0000000   0.0000000   1.9417560  )
        12           Ba  tau(  12) = (   0.4999996   0.4877884   2.4526063  )
        13           O   tau(  13) = (   0.0000000   0.0000000   2.5103470  )
        14           O   tau(  14) = (   0.0000000   0.4877884   2.9968469  )
        15           Cu  tau(  15) = (   0.0000000   0.0000000   2.9968521  )
        16           O   tau(  16) = (   0.0000000   0.0000000   3.4833288  )
        17           Ba  tau(  17) = (   0.4999996   0.4877884   3.5410618  )
        18           Cu  tau(  18) = (   0.0000000   0.0000000   4.3091207  )
        19           O   tau(  19) = (   0.4999996   0.0000000   4.3815931  )
        20           O   tau(  20) = (   0.0000000   0.4877884   4.4011057  )
        21           Y   tau(  21) = (   0.4999996   0.4877884   4.7569708  )
        22           O   tau(  22) = (   0.0000000   0.4877884   5.1235348  )
        23           O   tau(  23) = (   0.4999996   0.0000000   5.1327035  )
        24           Cu  tau(  24) = (   0.0000000   0.0000000   5.2012820  )
        25           Ba  tau(  25) = (   0.4999996   0.4877884   5.7188833  )
        26           O   tau(  26) = (   0.0000000   0.0000000   5.7435397  )
        27           Cu  tau(  27) = (   0.0000000   0.0000000   6.2292449  )
        28           O   tau(  28) = (   0.0000000   0.4877884   6.2766262  )

     number of k points=    25  Gaussian smearing, width (Ry)=  0.0100
                       cart. coord. in units 2pi/alat
        k(    1) = (   0.0000000   0.0000000   0.0000000), wk =   0.0312500
        k(    2) = (   0.0000000   0.1281293   0.0000000), wk =   0.0625000
        k(    3) = (   0.0000000   0.2562585   0.0000000), wk =   0.0625000
        k(    4) = (   0.0000000   0.3843878   0.0000000), wk =   0.0625000
        k(    5) = (   0.0000000  -0.5125170   0.0000000), wk =   0.0312500
        k(    6) = (   0.1250000   0.0000000   0.0000000), wk =   0.0625000
        k(    7) = (   0.1250000   0.1281293   0.0000000), wk =   0.1250000
        k(    8) = (   0.1250000   0.2562585   0.0000000), wk =   0.1250000
        k(    9) = (   0.1250000   0.3843878   0.0000000), wk =   0.1250000
        k(   10) = (   0.1250000  -0.5125170   0.0000000), wk =   0.0625000
        k(   11) = (   0.2500000   0.0000000   0.0000000), wk =   0.0625000
        k(   12) = (   0.2500000   0.1281293   0.0000000), wk =   0.1250000
        k(   13) = (   0.2500000   0.2562585   0.0000000), wk =   0.1250000
        k(   14) = (   0.2500000   0.3843878   0.0000000), wk =   0.1250000
        k(   15) = (   0.2500000  -0.5125170   0.0000000), wk =   0.0625000
        k(   16) = (   0.3750000   0.0000000   0.0000000), wk =   0.0625000
        k(   17) = (   0.3750000   0.1281293   0.0000000), wk =   0.1250000
        k(   18) = (   0.3750000   0.2562585   0.0000000), wk =   0.1250000
        k(   19) = (   0.3750000   0.3843878   0.0000000), wk =   0.1250000
        k(   20) = (   0.3750000  -0.5125170   0.0000000), wk =   0.0625000
        k(   21) = (  -0.5000000   0.0000000   0.0000000), wk =   0.0312500
        k(   22) = (  -0.5000000   0.1281293   0.0000000), wk =   0.0625000
        k(   23) = (  -0.5000000   0.2562585   0.0000000), wk =   0.0625000
        k(   24) = (  -0.5000000   0.3843878   0.0000000), wk =   0.0625000
        k(   25) = (  -0.5000000  -0.5125170   0.0000000), wk =   0.0312500

     Initial potential from superposition of free atoms

     starting charge  228.84827, renormalised to  229.00000

     negative rho (up, down):  8.960E-02 0.000E+00
     Starting wfcs are  201 randomized atomic wfcs

     Self-consistent Calculation

     iteration #  1     ecut=    60.00 Ry     beta= 0.20
     Davidson diagonalization with overlap
     ethr =  1.00E-02,  avg # of iterations =  2.0

     negative rho (up, down):  8.747E-02 0.000E+00

     total energy              =   -1869.53787017 Ry
     Harris-Foulkes estimate   =   -1871.12307768 Ry
     estimated scf accuracy    <      13.61341357 Ry

[...]

     iteration # 32     ecut=    60.00 Ry     beta= 0.20
     Davidson diagonalization with overlap
     c_bands:  1 eigenvalues not converged
     c_bands:  1 eigenvalues not converged
     ethr =  6.99E-08,  avg # of iterations =  7.8

[...]

     End of self-consistent calculation

          k = 0.0000 0.0000 0.0000 ( 34859 PWs)   bands (ev):

   -38.0105 -37.8249 -23.0915 -22.6669 -22.6535 -22.5126 -18.5455 -18.3318
   -18.0153 -18.0051 -17.8425 -17.8289 -15.3414 -15.1709 -14.4700 -14.3797
   -14.1957 -14.1528 -14.1267 -14.1138 -14.0126 -13.8650 -13.6520 -13.6510
   -13.6148 -13.3497 -13.1500  -8.3573  -7.9486  -7.9422  -7.8880  -7.8705
    -7.7881  -7.6595  -7.6470  -7.6327  -7.6197  -7.4657  -7.4461  -1.9699
    -1.9369  -1.8315  -1.8111  -1.7984  -1.7597  -1.7516  -1.7211  -1.6828
    -1.6162  -1.6045  -1.5163  -1.4031  -0.7713  -0.7021  -0.5946  -0.4021
    -0.3571  -0.3508  -0.2125  -0.1882   0.0145   0.0383   0.0392   0.0662
     0.0749   0.0765   0.2288   0.2396   0.2497   0.2503   0.3362   0.3769
     0.3932   0.4003   0.4518   0.4826   0.5044   0.5109   0.5331   0.5357
     0.6095   0.6444   0.6465   0.6525   0.7155   0.7652   0.7698   0.8158
     0.8347   0.9921   1.1808   1.2117   1.3121   1.3416   1.3974   1.4228
     1.4673   1.4760   1.4873   1.5586   1.6013   1.6115   1.6462   1.8406
     1.8778   1.9756   2.0278   2.0938   2.1088   2.1562   2.2868   2.2871
     2.2966   2.3033   2.4522   2.5214   2.5221   2.7688   2.7791   5.2989
[...]
  -0.00004694   0.00000000   0.00000000           -6.90        0.00        0.00
   0.00000000  -0.00002693   0.00000000            0.00       -3.96        0.00
   0.00000000   0.00000000  -0.00003524            0.00        0.00       -5.18

     number of scf cycles    =   2
     number of bfgs steps    =   1

     energy   old            =   -1868.7907137247 Ry
     energy   new            =   -1868.8150170239 Ry

     CASE: energy  _new < energy  _old

     WARNING: bfgs curvature condition failed, Theta= 0.799
     new trust radius        =       0.8000000000 bohr
     new conv_thr            =       0.0000010000 Ry

ATOMIC_POSITIONS (angstrom)
O             0.0000000000        1.8966400000       -0.1018257573    0   0   0
Cu            0.0000000000        0.0000000000        0.0851677903    0   0   0
O             0.0000000000        0.0000000000        2.0023566705    0   0   0
Ba            1.9441200000        1.8966400000        2.0996753362    0   0   0
Cu            0.0000000000        0.0000000000        4.1427074937    0   0   0
O             1.9441200000        0.0000000000        4.4133664677    0   0   0
O             0.0000000000        1.8966400000        4.4495044097    0   0   0
Y             1.9441200000        1.8966400000        5.8963315821    0   0   0
O             0.0000000000        1.8966400000        7.3009199970    0   0   0
O             1.9441200000        0.0000000000        7.3780075058    0   0   0
Cu            0.0000000000        0.0000000000        7.6641063140    0   0   0
Ba            1.9441200000        1.8966400000        9.6804309082    0   0   0
O             0.0000000000        0.0000000000        9.9083334182    0   0   0
O             0.0000000000        1.8966400000       11.8286030620
Cu            0.0000000000        0.0000000000       11.8285206137
O             0.0000000000        0.0000000000       13.7487995904
Ba            1.9441200000        1.8966400000       13.9764394994
Cu            0.0000000000        0.0000000000       16.3315682331
O             1.9441200000        0.0000000000       16.6176596305
O             0.0000000000        1.8966400000       16.6946437198
Y             1.9441200000        1.8966400000       18.0990618243
O             0.0000000000        1.8966400000       19.5460376045    0   0   0
O             1.9441200000        0.0000000000       19.5822263020    0   0   0
Cu            0.0000000000        0.0000000000       19.8529055782    0   0   0
Ba            1.9441200000        1.8966400000       21.8958768290    0   0   0
O             0.0000000000        0.0000000000       21.9931954947    0   0   0
Cu            0.0000000000        0.0000000000       23.9102727128    0   0   0
O             0.0000000000        1.8966400000       24.0972865626    0   0   0

     NEW-OLD atomic charge density approx. for the potential

[...]

     Total force =     0.017261     Total SCF correction =     0.002691
     SCF correction compared to forces is large: reduce conv_thr to get better values

[...]

     new trust radius        =       0.8000000000 bohr
     new conv_thr            =       0.0000010000 Ry

[...]

     CASE: energy  _new > energy  _old

[...]

     iteration #  1     ecut=    60.00 Ry     beta= 0.20
     Davidson diagonalization with overlap
     c_bands:  1 eigenvalues not converged
     c_bands:  1 eigenvalues not converged
     c_bands:  1 eigenvalues not converged
     c_bands:  1 eigenvalues not converged
     c_bands:  1 eigenvalues not converged
     c_bands:  1 eigenvalues not converged
     c_bands:  1 eigenvalues not converged
     c_bands:  1 eigenvalues not converged
     c_bands:  1 eigenvalues not converged
     c_bands:  1 eigenvalues not converged
     c_bands:  1 eigenvalues not converged
     c_bands:  1 eigenvalues not converged
     c_bands:  1 eigenvalues not converged
     c_bands:  3 eigenvalues not converged
     c_bands:  1 eigenvalues not converged
     c_bands:  2 eigenvalues not converged
     c_bands:  1 eigenvalues not converged
     ethr =  1.00E-06,  avg # of iterations = 18.9

[...]

     CASE: energy  _new > energy  _old

[...]

     BFGS Geometry Optimization

[...]

     energy   new            =   -1868.8421973836 Ry

[...]

     Threshold (ethr) on eigenvalues was too large:
     Diagonalizing with lowered threshold

     Davidson diagonalization with overlap
     ethr =  7.94E-08,  avg # of iterations =  1.1

[...]

     Total force =     0.003096     Total SCF correction =     0.000273

[...]

     BFGS Geometry Optimization

[...]

     energy   new            =   -1868.8422909991 Ry

[...]

     WARNING: bfgs curvature condition failed, Theta= 0.976
     new trust radius        =       0.0002759862 bohr
     new conv_thr            =       0.0000000100 Ry

[...]

     number of scf cycles    =  13
     number of bfgs steps    =  12

     energy   old            =   -1868.8422916584 Ry
     energy   new            =   -1868.8422916821 Ry

     CASE: energy  _new < energy  _old

     new trust radius        =       0.0002383268 bohr
     new conv_thr            =       0.0000000100 Ry

ATOMIC_POSITIONS (angstrom)
O             0.0000000000        1.8966400000       -0.1022681927    0   0   0
Cu            0.0000000000        0.0000000000        0.0855378463    0   0   0
O             0.0000000000        0.0000000000        2.0110569579    0   0   0
Ba            1.9441200000        1.8966400000        2.1087984755    0   0   0
Cu            0.0000000000        0.0000000000        4.1607076562    0   0   0
O             1.9441200000        0.0000000000        4.4325426499    0   0   0
O             0.0000000000        1.8966400000        4.4688376121    0   0   0
Y             1.9441200000        1.8966400000        5.9219512829    0   0   0
O             0.0000000000        1.8966400000        7.3326426679    0   0   0
O             1.9441200000        0.0000000000        7.4100651238    0   0   0
Cu            0.0000000000        0.0000000000        7.6974070381    0   0   0
Ba            1.9441200000        1.8966400000        9.7224926106    0   0   0
O             0.0000000000        0.0000000000        9.9513853624    0   0   0
O             0.0000000000        1.8966400000       11.9071164960
Cu            0.0000000000        0.0000000000       11.8740516175
O             0.0000000000        0.0000000000       13.7926766024
Ba            1.9441200000        1.8966400000       14.0675836084
Cu            0.0000000000        0.0000000000       16.2244262659
O             1.9441200000        0.0000000000       16.5057353762
O             0.0000000000        1.8966400000       16.5845481768
Y             1.9441200000        1.8966400000       17.9771834770
O             0.0000000000        1.8966400000       19.4364290613    0   0   0
O             1.9441200000        0.0000000000       19.4727749996    0   0   0
Cu            0.0000000000        0.0000000000       19.7446303836    0   0   0
Ba            1.9441200000        1.8966400000       21.7964783931    0   0   0
O             0.0000000000        0.0000000000       21.8942199107    0   0   0
Cu            0.0000000000        0.0000000000       23.8196268749    0   0   0
O             0.0000000000        1.8966400000       24.0074533043    0   0   0

     NEW-OLD atomic charge density approx. for the potential

[...]

     Self-consistent Calculation

[...]

     Threshold (ethr) on eigenvalues was too large:
     Diagonalizing with lowered threshold

     Davidson diagonalization with overlap
     ethr =  3.03E-08,  avg # of iterations =  1.0

[...]

     total energy              =   -1868.84229169 Ry
     Harris-Foulkes estimate   =   -1868.84229169 Ry
     estimated scf accuracy    <       0.00000003 Ry

     iteration #  8     ecut=    60.00 Ry     beta= 0.20
     Davidson diagonalization with overlap
     ethr =  1.30E-11,  avg # of iterations =  1.6

[...]

     End of self-consistent calculation

[...]

          k = 0.3750-0.5125 0.0000 ( 35078 PWs)   bands (ev):

[...]

          k =-0.5000-0.5125 0.0000 ( 35092 PWs)   bands (ev):

   -38.1438 -38.0876 -22.5070 -22.4977 -22.4030 -22.3476 -18.6627 -18.6388
   -18.6207 -18.5994 -18.1864 -18.1292 -14.4238 -14.3932 -14.3881 -14.3530
   -14.0426 -14.0399 -13.9574 -13.9155 -13.8882 -13.8410 -13.8197 -13.5586
   -13.5577 -13.5557 -13.3264  -8.6781  -8.6694  -8.4981  -8.4643  -8.4019
    -8.3936  -8.3074  -8.0843  -7.9453  -7.9166  -7.9061  -7.7106  -4.0544
    -4.0351  -3.5095  -3.4762  -2.9794  -2.6268  -2.6257  -2.4481  -2.4256
    -2.2492  -2.2402  -2.1307  -2.1255  -1.7699  -1.7366  -1.5909  -1.5876
    -1.5863  -1.1383  -0.9365  -0.9133  -0.8296  -0.8201  -0.7766  -0.6306
    -0.6220  -0.6041  -0.5886  -0.5273  -0.5059  -0.4242  -0.4235  -0.2852
    -0.0813   0.3051   0.3055   0.5401   0.7118   0.8553   1.0990   1.1918
     1.4913   1.5343   1.5545   1.5837   1.5977   1.6268   1.6278   1.6679
     1.6791   1.6865   1.7029   1.8174   1.8433   1.8894   1.9119   1.9380
     2.0482   2.1194   2.1240   2.1298   2.1338   2.1455   2.1795   2.2805
     2.4002   2.4328   2.6341   2.6351   2.6641   2.7505   2.7512   2.8178
     3.0180   3.0334   4.3765   4.8273   4.8477   4.9131   4.9273   5.4130
     5.8757   5.8793   6.4623   6.5653   8.3839   8.5189   8.5633   8.5836
     8.7550   8.9704   9.0770   9.1942   9.3297   9.3520   9.4475   9.5106
     9.5403   9.9504

     the Fermi energy is     3.0131 ev

!    total energy              =   -1868.84229169 Ry
     Harris-Foulkes estimate   =   -1868.84229169 Ry
     estimated scf accuracy    <          9.3E-09 Ry

     The total energy is the sum of the following terms:

     one-electron contribution =  -32886.53205124 Ry
     hartree contribution      =   16598.06757729 Ry
     xc contribution           =    -642.15725009 Ry
     ewald contribution        =   15061.78842663 Ry
     smearing contrib. (-TS)   =      -0.00899429 Ry

     convergence has been achieved in   8 iterations

     negative rho (up, down):  9.061E-02 0.000E+00

     Forces acting on atoms (cartesian axes, Ry/au):

     atom    1 type  3   force =     0.00000000    0.00000000    0.00142452
     atom    2 type  2   force =     0.00000000    0.00000000    0.01228843
     atom    3 type  3   force =     0.00000000    0.00000000   -0.00736082
     atom    4 type  1   force =     0.00000000    0.00000000    0.00193826
     atom    5 type  2   force =     0.00000000    0.00000000   -0.00225870
     atom    6 type  3   force =     0.00000000    0.00000000    0.00608575
     atom    7 type  3   force =     0.00000000    0.00000000    0.00642839
     atom    8 type  4   force =     0.00000000    0.00000000   -0.00041466
     atom    9 type  3   force =     0.00000000    0.00000000   -0.00535072
     atom   10 type  3   force =     0.00000000    0.00000000   -0.00509579
     atom   11 type  2   force =     0.00000000    0.00000000   -0.00049970
     atom   12 type  1   force =     0.00000000    0.00000000    0.00073576
     atom   13 type  3   force =     0.00000000    0.00000000    0.00895987
     atom   14 type  3   force =     0.00000000    0.00000000   -0.00001726
     atom   15 type  2   force =     0.00000000    0.00000000    0.00002450
     atom   16 type  3   force =     0.00000000    0.00000000   -0.00004937
     atom   17 type  1   force =     0.00000000    0.00000000    0.00000469
     atom   18 type  2   force =     0.00000000    0.00000000   -0.00003815
     atom   19 type  3   force =     0.00000000    0.00000000   -0.00000563
     atom   20 type  3   force =     0.00000000    0.00000000   -0.00000347
     atom   21 type  4   force =     0.00000000    0.00000000   -0.00004184
     atom   22 type  3   force =     0.00000000    0.00000000   -0.00533965
     atom   23 type  3   force =     0.00000000    0.00000000   -0.00520311
     atom   24 type  2   force =     0.00000000    0.00000000    0.00245316
     atom   25 type  1   force =     0.00000000    0.00000000   -0.00271152
     atom   26 type  3   force =     0.00000000    0.00000000    0.00772561
     atom   27 type  2   force =     0.00000000    0.00000000   -0.01249891
     atom   28 type  3   force =     0.00000000    0.00000000   -0.00117965

     Total force =     0.000081     Total SCF correction =     0.000257
     SCF correction compared to forces is large: reduce conv_thr to get better values

     Computing stress (Cartesian axis) and pressure

     negative rho (up, down):  9.061E-02 0.000E+00
          total   stress  (Ry/bohr**3)                   (kbar)     P=      -11.99
  -0.00004576   0.00000000   0.00000000           -6.73        0.00        0.00
   0.00000000  -0.00005936   0.00000000            0.00       -8.73        0.00
   0.00000000   0.00000000  -0.00013938            0.00        0.00      -20.50

     bfgs converged in  14 scf cycles and  13 bfgs steps
     (criteria: energy <  1.0E-05 Ry, force <  1.0E-04 Ry/Bohr)

     End of BFGS Geometry Optimization

     Final energy   =   -1868.8422916915 Ry
Begin final coordinates

ATOMIC_POSITIONS (angstrom)
O             0.0000000000        1.8966400000       -0.1022681927    0   0   0
Cu            0.0000000000        0.0000000000        0.0855378463    0   0   0
O             0.0000000000        0.0000000000        2.0110569579    0   0   0
Ba            1.9441200000        1.8966400000        2.1087984755    0   0   0
Cu            0.0000000000        0.0000000000        4.1607076562    0   0   0
O             1.9441200000        0.0000000000        4.4325426499    0   0   0
O             0.0000000000        1.8966400000        4.4688376121    0   0   0
Y             1.9441200000        1.8966400000        5.9219512829    0   0   0
O             0.0000000000        1.8966400000        7.3326426679    0   0   0
O             1.9441200000        0.0000000000        7.4100651238    0   0   0
Cu            0.0000000000        0.0000000000        7.6974070381    0   0   0
Ba            1.9441200000        1.8966400000        9.7224926106    0   0   0
O             0.0000000000        0.0000000000        9.9513853624    0   0   0
O             0.0000000000        1.8966400000       11.9071164960
Cu            0.0000000000        0.0000000000       11.8740516175
O             0.0000000000        0.0000000000       13.7926766024
Ba            1.9441200000        1.8966400000       14.0675836084
Cu            0.0000000000        0.0000000000       16.2244262659
O             1.9441200000        0.0000000000       16.5057353762
O             0.0000000000        1.8966400000       16.5845481768
Y             1.9441200000        1.8966400000       17.9771834770
O             0.0000000000        1.8966400000       19.4364290613    0   0   0
O             1.9441200000        0.0000000000       19.4727749996    0   0   0
Cu            0.0000000000        0.0000000000       19.7446303836    0   0   0
Ba            1.9441200000        1.8966400000       21.7964783931    0   0   0
O             0.0000000000        0.0000000000       21.8942199107    0   0   0
Cu            0.0000000000        0.0000000000       23.8196268749    0   0   0
O             0.0000000000        1.8966400000       24.0074533043    0   0   0
End final coordinates

     General routines

     Parallel routines

   This run was terminated on:  23:55:52  30Apr2021

   JOB DONE.
[1619841353.009754] [holy7c06610:54535:0]          mpool.c:43   UCX  WARN  object 0x37cb700 was not returned to mpool ucp_requests
[1619841353.009917] [holy7c04506:152078:0]          mpool.c:43   UCX  WARN  object 0x424f100 was not returned to mpool ucp_requests
[1619841353.009048] [holy7c06406:35967:0]          mpool.c:43   UCX  WARN  object 0x33a7400 was not returned to mpool ucp_requests
[1619841353.009081] [holy7c06406:35967:0]          mpool.c:43   UCX  WARN  object 0x33a75c0 was not returned to mpool ucp_requests
[1619841353.019710] [holy7c04410:194848:0]          mpool.c:43   UCX  WARN  object 0x4192a40 was not returned to mpool ucp_requests
[1619841353.019735] [holy7c04410:194848:0]          mpool.c:43   UCX  WARN  object 0x4192f80 was not returned to mpool ucp_requests
[1619841353.009030] [holy7c06603:12220:0]          mpool.c:43   UCX  WARN  object 0x348ca40 was not returned to mpool ucp_requests
[1619841353.009060] [holy7c06603:12220:0]          mpool.c:43   UCX  WARN  object 0x348cdc0 was not returned to mpool ucp_requests
[1619841353.020466] [holy7c08105:171472:0]          mpool.c:43   UCX  WARN  object 0x2ff7940 was not returned to mpool ucp_requests
[1619841353.020492] [holy7c08105:171472:0]          mpool.c:43   UCX  WARN  object 0x2ff8040 was not returned to mpool ucp_requests
[1619841353.008891] [holy7c06505:95532:0]          mpool.c:43   UCX  WARN  object 0x3024080 was not returned to mpool ucp_requests