     Program PWSCF v.6.5 starts on 28Apr2021 at 16:47:21

     R & G space division:  proc/nbgrp/npool/nimage =      20
     Reading input from YBCO_z_2_ecut60_vac20_vcrelax.pwi

     Current dimensions of program PWSCF are:
     Max number of different atomic species (ntypx) = 10
     Max number of k-points (npk) =  40000
     Max angular momentum in pseudopotentials (lmaxx) =  3

     Message from routine setup:
     using ibrav=0 with symmetry is DISCOURAGED, use correct ibrav instead

     bravais-lattice index     =            0
     lattice parameter (alat)  =       7.1247  a.u.
     unit-cell volume          =    4175.8697 (a.u.)^3
     number of atoms/cell      =           28
     number of atomic types    =            4
     number of electrons       =       229.00
     number of Kohn-Sham states=          138
     kinetic-energy cutoff     =      60.0000  Ry
     charge density cutoff     =     720.0000  Ry
     convergence threshold     =      1.0E-06
     mixing beta               =       0.2000
     number of iterations used =           10  local-TF  mixing
     Exchange-correlation= SLA PW PBE PBE
                           (   1   4   3   4   0   0   0)
     nstep                     =          300

     celldm(1)=   7.124738  celldm(2)=   0.000000  celldm(3)=   0.000000
     celldm(4)=   0.000000  celldm(5)=   0.000000  celldm(6)=   0.000000

     crystal axes: (cart. coord. in units of alat)
               a(1) = (   1.000000   0.000000   0.000000 )
               a(2) = (   0.000000   1.017758   0.000000 )
               a(3) = (   0.000000   0.000000  11.344771 )

     reciprocal axes: (cart. coord. in units 2 pi/alat)
               b(1) = (  1.000000  0.000000  0.000000 )
               b(2) = (  0.000000  0.982552  0.000000 )
               b(3) = (  0.000000  0.000000  0.088146 )

     PseudoPot. # 1 for Y  read from file:
     ./pseudo/Y.pbe-nsp-van.UPF
     MD5 check sum: 4412fed3ab108fed87a1b7d6a69a4a38
     Pseudo is Ultrasoft + core correction, Zval = 11.0
     Generated by new atomic code, or converted to UPF format
     Using radial grid of  885 points,  6 beta functions with:
                l(1) =   0
                l(2) =   0
                l(3) =   1
                l(4) =   1
                l(5) =   2
                l(6) =   2
     Q(r) pseudized with  6 coefficients,  rinner =    1.200   1.200   1.200
                                                       1.200   1.200

     PseudoPot. # 2 for Ba read from file:
     ./pseudo/Ba.pbe-nsp-van.UPF
     MD5 check sum: 2b9c31dd849566dd297d80989662b7a0
     Pseudo is Ultrasoft + core correction, Zval = 10.0
     Generated by new atomic code, or converted to UPF format
     Using radial grid of  907 points,  6 beta functions with:
                l(1) =   0
                l(2) =   0
                l(3) =   1
                l(4) =   1
                l(5) =   2
                l(6) =   2
     Q(r) pseudized with  6 coefficients,  rinner =    1.200   1.200   1.200
                                                       1.200   1.200

     PseudoPot. # 3 for O  read from file:
     ./pseudo/O.pbe-van_ak.UPF
     MD5 check sum: 783ce7fe4c79b6a4916957118fed0856
     Pseudo is Ultrasoft, Zval =  6.0
     Generated by new atomic code, or converted to UPF format
     Using radial grid of  737 points,  4 beta functions with:
                l(1) =   0
                l(2) =   0
                l(3) =   1
                l(4) =   1
     Q(r) pseudized with  8 coefficients,  rinner =    0.800   0.800   0.800

     PseudoPot. # 4 for Cu read from file:
     ./pseudo/Cu.pbe-n-van_ak.UPF
     MD5 check sum: 34e3282627ffb533726feb647e090d62
     Pseudo is Ultrasoft + core correction, Zval = 11.0
     Generated by new atomic code, or converted to UPF format
     Using radial grid of  867 points,  6 beta functions with:
                l(1) =   0
                l(2) =   0
                l(3) =   1
                l(4) =   1
                l(5) =   2
                l(6) =   2
     Q(r) pseudized with  8 coefficients,  rinner =    1.400   1.400   1.400
                                                       1.400   1.400

     atomic species   valence    mass     pseudopotential
        Y             11.00    88.90585     Y ( 1.00)
        Ba            10.00   137.32700     Ba( 1.00)
        O              6.00    15.99900     O ( 1.00)
        Cu            11.00    63.55000     Cu( 1.00)

      4 Sym. Ops. (no inversion) found

   Cartesian axes

     site n.     atom                  positions (alat units)
         1           Ba  tau(   1) = (   0.4999998   0.5088791   2.4688588  )
         2           Ba  tau(   2) = (   0.4999998   0.5088791   5.4889000  )
         3           Ba  tau(   3) = (   0.4999998   0.5088791   0.5511848  )
         4           Ba  tau(   4) = (   0.4999998   0.5088791   3.5712260  )
         5           Y   tau(   5) = (   0.4999998   0.5088791   1.5100219  )
         6           Y   tau(   6) = (   0.4999998   0.5088791   4.5300629  )
         7           Cu  tau(   7) = (   0.0000000   0.0000000   1.9606492  )
         8           Cu  tau(   8) = (   0.0000000   0.0000000   4.9806899  )
         9           Cu  tau(   9) = (   0.0000000   0.0000000   1.0593944  )
        10           Cu  tau(  10) = (   0.0000000   0.0000000   4.0794357  )
        11           Cu  tau(  11) = (   0.0000000   0.0000000   0.0000000  )
        12           Cu  tau(  12) = (   0.0000000   0.0000000   3.0200412  )
        13           Cu  tau(  13) = (   0.0000000   0.0000000   6.0400822  )
        14           O   tau(  14) = (   0.0000000   0.5088791   0.0000000  )
        15           O   tau(  15) = (   0.0000000   0.5088791   3.0200412  )
        16           O   tau(  16) = (   0.0000000   0.5088791   6.0400822  )
        17           O   tau(  17) = (   0.4999998   0.0000000   1.8807712  )
        18           O   tau(  18) = (   0.4999998   0.0000000   4.9008121  )
        19           O   tau(  19) = (   0.4999998   0.0000000   1.1392722  )
        20           O   tau(  20) = (   0.4999998   0.0000000   4.1593134  )
        21           O   tau(  21) = (   0.0000000   0.5088791   1.8811581  )
        22           O   tau(  22) = (   0.0000000   0.5088791   4.9011994  )
        23           O   tau(  23) = (   0.0000000   0.5088791   1.1388855  )
        24           O   tau(  24) = (   0.0000000   0.5088791   4.1589264  )
        25           O   tau(  25) = (   0.0000000   0.0000000   2.5297988  )
        26           O   tau(  26) = (   0.0000000   0.0000000   5.5498401  )
        27           O   tau(  27) = (   0.0000000   0.0000000   0.4902448  )
        28           O   tau(  28) = (   0.0000000   0.0000000   3.5102860  )

     number of k points=    25  Gaussian smearing, width (Ry)=  0.0100
                       cart. coord. in units 2pi/alat
        k(    1) = (   0.0000000   0.0000000   0.0000000), wk =   0.0312500
        k(    2) = (   0.0000000   0.1228190   0.0000000), wk =   0.0625000
        k(    3) = (   0.0000000   0.2456380   0.0000000), wk =   0.0625000
        k(    4) = (   0.0000000   0.3684570   0.0000000), wk =   0.0625000
        k(    5) = (   0.0000000  -0.4912760   0.0000000), wk =   0.0312500
        k(    6) = (   0.1250000   0.0000000   0.0000000), wk =   0.0625000
        k(    7) = (   0.1250000   0.1228190   0.0000000), wk =   0.1250000
        k(    8) = (   0.1250000   0.2456380   0.0000000), wk =   0.1250000
        k(    9) = (   0.1250000   0.3684570   0.0000000), wk =   0.1250000
        k(   10) = (   0.1250000  -0.4912760   0.0000000), wk =   0.0625000
        k(   11) = (   0.2500000   0.0000000   0.0000000), wk =   0.0625000
        k(   12) = (   0.2500000   0.1228190   0.0000000), wk =   0.1250000
        k(   13) = (   0.2500000   0.2456380   0.0000000), wk =   0.1250000
        k(   14) = (   0.2500000   0.3684570   0.0000000), wk =   0.1250000
        k(   15) = (   0.2500000  -0.4912760   0.0000000), wk =   0.0625000
        k(   16) = (   0.3750000   0.0000000   0.0000000), wk =   0.0625000
        k(   17) = (   0.3750000   0.1228190   0.0000000), wk =   0.1250000
        k(   18) = (   0.3750000   0.2456380   0.0000000), wk =   0.1250000
        k(   19) = (   0.3750000   0.3684570   0.0000000), wk =   0.1250000
        k(   20) = (   0.3750000  -0.4912760   0.0000000), wk =   0.0625000
        k(   21) = (  -0.5000000   0.0000000   0.0000000), wk =   0.0312500
        k(   22) = (  -0.5000000   0.1228190   0.0000000), wk =   0.0625000
        k(   23) = (  -0.5000000   0.2456380   0.0000000), wk =   0.0625000
        k(   24) = (  -0.5000000   0.3684570   0.0000000), wk =   0.0625000
        k(   25) = (  -0.5000000  -0.4912760   0.0000000), wk =   0.0312500

     Initial potential from superposition of free atoms

     starting charge  228.84827, renormalised to  229.00000

     negative rho (up, down):  8.919E-02 0.000E+00
     Starting wfcs are  201 randomized atomic wfcs

     Self-consistent Calculation

     iteration #  1     ecut=    60.00 Ry     beta= 0.20
     Davidson diagonalization with overlap
     ethr =  1.00E-02,  avg # of iterations =  2.0

     negative rho (up, down):  8.705E-02 0.000E+00

     total energy              =   -1869.55005542 Ry
     Harris-Foulkes estimate   =   -1871.14022285 Ry
     estimated scf accuracy    <      14.46909611 Ry

[...]

     iteration # 27     ecut=    60.00 Ry     beta= 0.20
     Davidson diagonalization with overlap
     c_bands:  1 eigenvalues not converged
     ethr =  5.36E-08,  avg # of iterations =  7.3

[...]

     End of self-consistent calculation

          k = 0.0000 0.0000 0.0000 ( 32711 PWs)   bands (ev):

   -37.2677 -37.2677 -21.7395 -21.7390 -21.7346 -21.6975 -17.9897 -17.9894
   -17.3087 -17.3086 -17.2848 -17.2848 -14.9992 -14.9961 -13.8898 -13.8537
   -13.8275 -13.7454 -13.7454 -13.5424 -13.5424 -13.4255 -13.4254 -12.9229
   -12.8384 -12.8359 -12.8264  -7.0272  -6.9639  -6.9277  -6.9137  -6.7989
    -6.7988  -6.7746  -6.7372  -6.6484  -6.6481  -6.6388  -6.5738  -1.6152
    -1.6134  -1.6044  -1.6026  -1.5082  -1.3614  -1.3605  -1.2730  -1.2713
    -1.2325  -1.2305  -1.1561  -1.1558  -0.4242  -0.4220  -0.1979  -0.0871
     0.0770   0.2636   0.2636   0.2649   0.5257   0.5630   0.7125   0.7125
     0.7233   0.7235   0.7793   0.7794   0.8248   0.8374   0.8723   0.8724
     0.8725   0.8769   0.8802   0.8943   0.9772   0.9793   1.0988   1.1342
     1.1462   1.1512   1.2660   1.2661   1.3410   1.3411   1.4270   1.6717
     1.6810   1.6852   1.7544   1.7602   1.7846   1.8053   1.8461   1.9592
     1.9757   1.9805   2.0356   2.0450   2.0588   2.1550   2.1565   2.2353
     2.2410   2.5850   2.5921   2.5979   2.7965   2.7977   2.9428   2.9489
     2.9575   3.0217   3.0633   3.1679   3.1747   3.1841   3.2028   6.0329
     6.0451   6.4994   6.6533   6.9516   7.6254   7.6493   7.9711   8.1023
     8.2722   8.5547   8.7293   8.8108   8.9643   8.9643   9.2300   9.2806
     9.5945   9.8074

[...]

          k =-0.5000 0.0000 0.0000 ( 32678 PWs)   bands (ev):

[...]

     the Fermi energy is     3.6352 ev

!    total energy              =   -1868.81813151 Ry
[...]
Cu            0.0000000000        0.0000000000       15.7549072365
Cu            0.0000000000        0.0000000000        0.0839045299
Cu            0.0000000000        0.0000000000       11.6524888709
Cu            0.0000000000        0.0000000000       23.2208206425
O             0.0000000000        1.8966418432       -0.1003135104
O             0.0000000000        1.8966418432       11.6524690407
O             0.0000000000        1.8966418432       23.4050526932
O             1.9441210480        0.0000000000        7.2681752193
O             1.9441210480        0.0000000000       18.9572038231
O             1.9441210480        0.0000000000        4.3476717804
O             1.9441210480        0.0000000000       16.0367037430
O             0.0000000000        1.8966418432        7.1922414659
O             0.0000000000        1.8966418432       18.9215511152
O             0.0000000000        1.8966418432        4.3832718072
O             0.0000000000        1.8966418432       16.1125728669
O             0.0000000000        0.0000000000        9.7608360006
O             0.0000000000        0.0000000000       21.3322842147
O             0.0000000000        0.0000000000        1.9725514011
O             0.0000000000        0.0000000000       13.5440341726
End final coordinates

     Writing output data file /n/holyscratch01/hoffman_lab/ruizhe/outdir/YBCO_z_2_ecut60_vac20_vcrelax.save/

     Final scf calculation at the relaxed structure.
     The G-vectors are recalculated for the final unit cell
     Results may differ from those at the preceding step.

     bravais-lattice index     =            0
     lattice parameter (alat)  =       7.1247  a.u.
     unit-cell volume          =    4356.7653 (a.u.)^3
     number of atoms/cell      =           28
     number of atomic types    =            4
     number of electrons       =       229.00
     number of Kohn-Sham states=          138
     kinetic-energy cutoff     =      60.0000  Ry
     charge density cutoff     =     720.0000  Ry
     convergence threshold     =      1.0E-08
     mixing beta               =       0.2000
     number of iterations used =           10  local-TF  mixing
     Exchange-correlation= SLA PW PBE PBE
                           (   1   4   3   4   0   0   0)

     celldm(1)=   7.124738  celldm(2)=   0.000000  celldm(3)=   0.000000
     celldm(4)=   0.000000  celldm(5)=   0.000000  celldm(6)=   0.000000

     crystal axes: (cart. coord. in units of alat)
               a(1) = (   1.031296   0.000000   0.000000 )
               a(2) = (   0.000000   1.006109   0.000000 )
               a(3) = (   0.000000   0.000000  11.609912 )

     reciprocal axes: (cart. coord. in units 2 pi/alat)
               b(1) = (  0.969654  0.000000  0.000000 )
               b(2) = (  0.000000  0.993928  0.000000 )
               b(3) = (  0.000000  0.000000  0.086133 )

     PseudoPot. # 1 for Y  read from file:
     ./pseudo/Y.pbe-nsp-van.UPF
     MD5 check sum: 4412fed3ab108fed87a1b7d6a69a4a38
     Pseudo is Ultrasoft + core correction, Zval = 11.0
     Generated by new atomic code, or converted to UPF format
     Using radial grid of  885 points,  6 beta functions with:
                l(1) =   0
                l(2) =   0
                l(3) =   1
                l(4) =   1
                l(5) =   2
                l(6) =   2
     Q(r) pseudized with  6 coefficients,  rinner =    1.200   1.200   1.200
                                                       1.200   1.200

     PseudoPot. # 2 for Ba read from file:
     ./pseudo/Ba.pbe-nsp-van.UPF
     MD5 check sum: 2b9c31dd849566dd297d80989662b7a0
     Pseudo is Ultrasoft + core correction, Zval = 10.0
     Generated by new atomic code, or converted to UPF format
     Using radial grid of  907 points,  6 beta functions with:
                l(1) =   0
                l(2) =   0
                l(3) =   1
                l(4) =   1
                l(5) =   2
                l(6) =   2
     Q(r) pseudized with  6 coefficients,  rinner =    1.200   1.200   1.200
                                                       1.200   1.200

     PseudoPot. # 3 for O  read from file:
     ./pseudo/O.pbe-van_ak.UPF
     MD5 check sum: 783ce7fe4c79b6a4916957118fed0856
     Pseudo is Ultrasoft, Zval =  6.0
     Generated by new atomic code, or converted to UPF format
     Using radial grid of  737 points,  4 beta functions with:
                l(1) =   0
                l(2) =   0
                l(3) =   1
                l(4) =   1
     Q(r) pseudized with  8 coefficients,  rinner =    0.800   0.800   0.800

     PseudoPot. # 4 for Cu read from file:
     ./pseudo/Cu.pbe-n-van_ak.UPF
     MD5 check sum: 34e3282627ffb533726feb647e090d62
     Pseudo is Ultrasoft + core correction, Zval = 11.0
     Generated by new atomic code, or converted to UPF format
     Using radial grid of  867 points,  6 beta functions with:
                l(1) =   0
                l(2) =   0
                l(3) =   1
                l(4) =   1
                l(5) =   2
                l(6) =   2
     Q(r) pseudized with  8 coefficients,  rinner =    1.400   1.400   1.400
                                                       1.400   1.400

     atomic species   valence    mass     pseudopotential
        Y             11.00    88.90585     Y ( 1.00)
        Ba            10.00   137.32700     Ba( 1.00)
        O              6.00    15.99900     O ( 1.00)
        Cu            11.00    63.55000     Cu( 1.00)

      4 Sym. Ops. (no inversion) found

   Cartesian axes

     site n.     atom                  positions (alat units)
         1           Ba  tau(   1) = (   0.5156479   0.5030548   2.5293635  )
         2           Ba  tau(   2) = (   0.5156479   0.5030548   5.6326281  )
         3           Ba  tau(   3) = (   0.5156479   0.5030548   0.5486168  )
         4           Ba  tau(   4) = (   0.5156479   0.5030548   3.6518842  )
         5           Y   tau(   5) = (   0.5156479   0.5030548   1.5406315  )
         6           Y   tau(   6) = (   0.5156479   0.5030548   4.6406101  )
         7           Cu  tau(   7) = (   0.0000000   0.0000000   2.0025264  )
         8           Cu  tau(   8) = (   0.0000000   0.0000000   5.0988287  )
         9           Cu  tau(   9) = (   0.0000000   0.0000000   1.0824312  )
        10           Cu  tau(  10) = (   0.0000000   0.0000000   4.1787443  )
        11           Cu  tau(  11) = (   0.0000000   0.0000000   0.0222544  )
        12           Cu  tau(  12) = (   0.0000000   0.0000000   3.0906416  )
        13           Cu  tau(  13) = (   0.0000000   0.0000000   6.1589618  )
        14           O   tau(  14) = (   0.0000000   0.5030548  -0.0266066  )
        15           O   tau(  15) = (   0.0000000   0.5030548   3.0906363  )
        16           O   tau(  16) = (   0.0000000   0.5030548   6.2078264  )
        17           O   tau(  17) = (   0.5156479   0.0000000   1.9277705  )
        18           O   tau(  18) = (   0.5156479   0.0000000   5.0281037  )
        19           O   tau(  19) = (   0.5156479   0.0000000   1.1531524  )
        20           O   tau(  20) = (   0.5156479   0.0000000   4.2534864  )
        21           O   tau(  21) = (   0.0000000   0.5030548   1.9076303  )
        22           O   tau(  22) = (   0.0000000   0.5030548   5.0186473  )
        23           O   tau(  23) = (   0.0000000   0.5030548   1.1625947  )
        24           O   tau(  24) = (   0.0000000   0.5030548   4.2736095  )
        25           O   tau(  25) = (   0.0000000   0.0000000   2.5889100  )
        26           O   tau(  26) = (   0.0000000   0.0000000   5.6580568  )
        27           O   tau(  27) = (   0.0000000   0.0000000   0.5231886  )
        28           O   tau(  28) = (   0.0000000   0.0000000   3.5923446  )

     number of k points=    25  Gaussian smearing, width (Ry)=  0.0100
                       cart. coord. in units 2pi/alat
        k(    1) = (   0.0000000   0.0000000   0.0000000), wk =   0.0312500
        k(    2) = (   0.0000000   0.1242410   0.0000000), wk =   0.0625000
        k(    3) = (   0.0000000   0.2484820   0.0000000), wk =   0.0625000
        k(    4) = (   0.0000000   0.3727230   0.0000000), wk =   0.0625000
        k(    5) = (   0.0000000  -0.4969640   0.0000000), wk =   0.0312500
        k(    6) = (   0.1212067   0.0000000   0.0000000), wk =   0.0625000
        k(    7) = (   0.1212067   0.1242410   0.0000000), wk =   0.1250000
        k(    8) = (   0.1212067   0.2484820   0.0000000), wk =   0.1250000
        k(    9) = (   0.1212067   0.3727230   0.0000000), wk =   0.1250000
        k(   10) = (   0.1212067  -0.4969640   0.0000000), wk =   0.0625000
        k(   11) = (   0.2424134   0.0000000   0.0000000), wk =   0.0625000
        k(   12) = (   0.2424134   0.1242410   0.0000000), wk =   0.1250000
        k(   13) = (   0.2424134   0.2484820   0.0000000), wk =   0.1250000
        k(   14) = (   0.2424134   0.3727230   0.0000000), wk =   0.1250000
        k(   15) = (   0.2424134  -0.4969640   0.0000000), wk =   0.0625000
        k(   16) = (   0.3636201   0.0000000   0.0000000), wk =   0.0625000
        k(   17) = (   0.3636201   0.1242410   0.0000000), wk =   0.1250000
        k(   18) = (   0.3636201   0.2484820   0.0000000), wk =   0.1250000
        k(   19) = (   0.3636201   0.3727230   0.0000000), wk =   0.1250000
        k(   20) = (   0.3636201  -0.4969640   0.0000000), wk =   0.0625000
        k(   21) = (  -0.4848268   0.0000000   0.0000000), wk =   0.0312500
        k(   22) = (  -0.4848268   0.1242410   0.0000000), wk =   0.0625000
        k(   23) = (  -0.4848268   0.2484820   0.0000000), wk =   0.0625000
        k(   24) = (  -0.4848268   0.3727230   0.0000000), wk =   0.0625000
        k(   25) = (  -0.4848268  -0.4969640   0.0000000), wk =   0.0312500

     Initial potential from superposition of free atoms

     starting charge  228.84827, renormalised to  229.00000

     negative rho (up, down):  8.959E-02 0.000E+00
     Starting wfcs are  201 randomized atomic wfcs

     Self-consistent Calculation

[...]

     iteration # 26     ecut=    60.00 Ry     beta= 0.20
     Davidson diagonalization with overlap
     c_bands:  1 eigenvalues not converged
     ethr =  5.65E-08,  avg # of iterations =  7.0

[...]

     total energy              =   -1868.85098618 Ry
     Harris-Foulkes estimate   =   -1868.85098616 Ry
     estimated scf accuracy    <       0.00000002 Ry

     iteration # 39     ecut=    60.00 Ry     beta= 0.20
     Davidson diagonalization with overlap
     ethr =  8.27E-12,  avg # of iterations =  1.0

[...]

     End of self-consistent calculation

[...]

          k = 0.3636-0.4970 0.0000 ( 34294 PWs)   bands (ev):

[...]

          k =-0.4848-0.4970 0.0000 ( 34292 PWs)   bands (ev):

   -37.8267 -37.8267 -22.2750 -22.2749 -22.0957 -22.0796 -18.4082 -18.4081
   -18.3832 -18.3832 -17.9084 -17.9083 -14.2463 -14.2457 -14.2249 -14.2249
   -13.9946 -13.9942 -13.7526 -13.7311 -13.7099 -13.6696 -13.6695 -13.5007
   -13.3822 -13.3821 -13.3177  -8.4692  -8.4690  -8.2469  -8.2141  -8.1801
    -8.1800  -8.0677  -7.7992  -7.7543  -7.7151  -7.7085  -7.4602  -3.9321
    -3.9222  -3.3540  -3.3302  -2.8650  -2.4693  -2.4692  -2.2691  -2.2354
    -2.0773  -2.0773  -1.9515  -1.9498  -1.6368  -1.5869  -1.5864  -1.5681
    -1.5180  -1.0144  -0.7748  -0.7514  -0.6607  -0.6604  -0.6052  -0.4851
    -0.4800  -0.3926  -0.3910  -0.3462  -0.3265  -0.3099  -0.2472  -0.2470
     0.0093   0.3942   0.3946   0.7310   0.8924   0.9890   1.2887   1.3702
     1.6731   1.6748   1.7163   1.7460   1.7688   1.7884   1.7897   1.8256
     1.8273   1.8432   1.9958   1.9982   2.0414   2.0762   2.1037   2.1198
     2.2602   2.2957   2.2963   2.2973   2.2990   2.3166   2.3211   2.4655
     2.5483   2.5976   2.8199   2.8200   2.8617   2.9275   2.9277   2.9622
     3.2556   3.2765   4.6438   5.0298   5.0391   5.1195   5.1205   5.5209
     6.0643   6.0645   6.8603   6.9488   8.6649   8.6948   8.7764   8.9033
     9.0401   9.3475   9.4533   9.4890   9.6075   9.7556   9.7767   9.8286
     9.8476  10.2099

     the Fermi energy is     3.2257 ev

!    total energy              =   -1868.85098621 Ry
     Harris-Foulkes estimate   =   -1868.85098618 Ry
     estimated scf accuracy    <          9.7E-09 Ry

     The total energy is the sum of the following terms:

     one-electron contribution =  -32561.65055444 Ry
     hartree contribution      =   16437.27524598 Ry
     xc contribution           =    -642.44747491 Ry
     ewald contribution        =   14897.98007794 Ry
     smearing contrib. (-TS)   =      -0.00828078 Ry

     convergence has been achieved in  39 iterations

     negative rho (up, down):  9.055E-02 0.000E+00

     Forces acting on atoms (cartesian axes, Ry/au):

     atom    1 type  2   force =     0.00000000    0.00000000   -0.00001798
     atom    2 type  2   force =     0.00000000    0.00000000    0.00005997
     atom    3 type  2   force =     0.00000000    0.00000000   -0.00006414
     atom    4 type  2   force =     0.00000000    0.00000000    0.00002689
     atom    5 type  1   force =     0.00000000    0.00000000    0.00002546
     atom    6 type  1   force =     0.00000000    0.00000000   -0.00000834
     atom    7 type  4   force =     0.00000000    0.00000000   -0.00009317
     atom    8 type  4   force =     0.00000000    0.00000000    0.00011111
     atom    9 type  4   force =     0.00000000    0.00000000   -0.00012840
     atom   10 type  4   force =     0.00000000    0.00000000    0.00007159
     atom   11 type  4   force =     0.00000000    0.00000000   -0.00020087
     atom   12 type  4   force =     0.00000000    0.00000000   -0.00004370
     atom   13 type  4   force =     0.00000000    0.00000000    0.00023793
     atom   14 type  3   force =     0.00000000    0.00000000   -0.00008677
     atom   15 type  3   force =     0.00000000    0.00000000   -0.00000105
     atom   16 type  3   force =     0.00000000    0.00000000    0.00008811
     atom   17 type  3   force =     0.00000000    0.00000000   -0.00001937
     atom   18 type  3   force =     0.00000000    0.00000000    0.00000840
     atom   19 type  3   force =     0.00000000    0.00000000   -0.00000838
     atom   20 type  3   force =     0.00000000    0.00000000    0.00002149
     atom   21 type  3   force =     0.00000000    0.00000000   -0.00003562
     atom   22 type  3   force =     0.00000000    0.00000000   -0.00001981
     atom   23 type  3   force =     0.00000000    0.00000000    0.00002037
     atom   24 type  3   force =     0.00000000    0.00000000    0.00003884
     atom   25 type  3   force =     0.00000000    0.00000000   -0.00004662
     atom   26 type  3   force =     0.00000000    0.00000000   -0.00002060
     atom   27 type  3   force =     0.00000000    0.00000000    0.00000185
     atom   28 type  3   force =     0.00000000    0.00000000    0.00008280

     Total force =     0.000425     Total SCF correction =     0.000435
     SCF correction compared to forces is large: reduce conv_thr to get better values

     Computing stress (Cartesian axis) and pressure

     negative rho (up, down):  9.055E-02 0.000E+00
          total   stress  (Ry/bohr**3)                   (kbar)     P=        0.35
   0.00000308   0.00000000   0.00000000            0.45        0.00        0.00
   0.00000000   0.00000120   0.00000000            0.00        0.18        0.00
   0.00000000   0.00000000   0.00000283            0.00        0.00        0.42

     Writing output data file /n/holyscratch01/hoffman_lab/ruizhe/outdir/YBCO_z_2_ecut60_vac20_vcrelax.save/

     General routines

     Parallel routines

   This run was terminated on:  20:57:51  28Apr2021

   JOB DONE.
[1619657871.992128] [holy7c02501:261738:0]          mpool.c:43   UCX  WARN  object 0x2e65200 was not returned to mpool ucp_requests
[1619657871.991921] [holy7c02601:135925:0]          mpool.c:43   UCX  WARN  object 0x30cd5c0 was not returned to mpool ucp_requests
[1619657871.991944] [holy7c02601:135925:0]          mpool.c:43   UCX  WARN  object 0x30cd940 was not returned to mpool ucp_requests
[1619657871.991653] [holy7c02501:261737:0]          mpool.c:43   UCX  WARN  object 0x32fb980 was not returned to mpool ucp_requests
[1619657871.992094] [holy7c02502:201855:0]          mpool.c:43   UCX  WARN  object 0x317d5c0 was not returned to mpool ucp_requests
[1619657871.992122] [holy7c02502:201855:0]          mpool.c:43   UCX  WARN  object 0x317d780 was not returned to mpool ucp_requests
[1619657871.992007] [holy7c02502:201856:0]          mpool.c:43   UCX  WARN  object 0x38dbdc0 was not returned to mpool ucp_requests
[1619657871.992303] [holy7c02502:201851:0]          mpool.c:43   UCX  WARN  object 0x4130440 was not returned to mpool ucp_requests