     Program PWSCF v.6.5 starts on  1May2021 at 13:52:29

     R & G space division:  proc/nbgrp/npool/nimage =      20
     Reading input from YBCO_BaO_cleave_3_sep.pwi
Warning: card &CELL ignored
Warning: card     CELL_DYNAMICS = 'BFGS' ignored
Warning: card / ignored

     Current dimensions of program PWSCF are:
     Max number of different atomic species (ntypx) = 10
     Max number of k-points (npk) =  40000
     Max angular momentum in pseudopotentials (lmaxx) =  3

     Message from routine setup:
     using ibrav=0 with symmetry is DISCOURAGED, use correct ibrav instead

     bravais-lattice index     =            0
     lattice parameter (alat)  =       7.3477  a.u.
     unit-cell volume          =    4655.3630 (a.u.)^3
     number of atoms/cell      =           28
     number of atomic types    =            4
     number of electrons       =       229.00
     number of Kohn-Sham states=          138
     kinetic-energy cutoff     =      60.0000  Ry
     charge density cutoff     =     720.0000  Ry
     convergence threshold     =      1.0E-06
     mixing beta               =       0.2000
     number of iterations used =           10  local-TF  mixing
     Exchange-correlation= SLA PW PBE PBE
                           (   1   4   3   4   0   0   0)
     nstep                     =          300

     celldm(1)=   7.347715  celldm(2)=   0.000000  celldm(3)=   0.000000
     celldm(4)=   0.000000  celldm(5)=   0.000000  celldm(6)=   0.000000

     crystal axes: (cart. coord. in units of alat)
               a(1) = (   1.000000   0.000000   0.000000 )
               a(2) = (   0.000000   0.975577   0.000000 )
               a(3) = (   0.000000   0.000000  12.029150 )

     reciprocal axes: (cart. coord. in units 2 pi/alat)
               b(1) = (  1.000000  0.000000  0.000000 )
               b(2) = (  0.000000  1.025034  0.000000 )
               b(3) = (  0.000000  0.000000  0.083131 )

     PseudoPot. # 1 for Ba read from file:
     /n/holyscratch01/hoffman_lab/ruizhe/YBCO_Project/pseudo/Ba.pbe-nsp-van.UPF
     MD5 check sum: 2b9c31dd849566dd297d80989662b7a0
     Pseudo is Ultrasoft + core correction, Zval = 10.0
     Generated by new atomic code, or converted to UPF format
     Using radial grid of  907 points,  6 beta functions with:
                l(1) =   0
                l(2) =   0
                l(3) =   1
                l(4) =   1
                l(5) =   2
                l(6) =   2
     Q(r) pseudized with  6 coefficients,  rinner =    1.200   1.200   1.200
                                                       1.200   1.200

     PseudoPot. # 2 for Cu read from file:
     /n/holyscratch01/hoffman_lab/ruizhe/YBCO_Project/pseudo/Cu.pbe-n-van_ak.UPF
     MD5 check sum: 34e3282627ffb533726feb647e090d62
     Pseudo is Ultrasoft + core correction, Zval = 11.0
     Generated by new atomic code, or converted to UPF format
     Using radial grid of  867 points,  6 beta functions with:
                l(1) =   0
                l(2) =   0
                l(3) =   1
                l(4) =   1
                l(5) =   2
                l(6) =   2
     Q(r) pseudized with  8 coefficients,  rinner =    1.400   1.400   1.400
                                                       1.400   1.400

     PseudoPot. # 3 for O  read from file:
     /n/holyscratch01/hoffman_lab/ruizhe/YBCO_Project/pseudo/O.pbe-van_ak.UPF
     MD5 check sum: 783ce7fe4c79b6a4916957118fed0856
     Pseudo is Ultrasoft, Zval =  6.0
     Generated by new atomic code, or converted to UPF format
     Using radial grid of  737 points,  4 beta functions with:
                l(1) =   0
                l(2) =   0
                l(3) =   1
                l(4) =   1
     Q(r) pseudized with  8 coefficients,  rinner =    0.800   0.800   0.800

     PseudoPot. # 4 for Y  read from file:
     /n/holyscratch01/hoffman_lab/ruizhe/YBCO_Project/pseudo/Y.pbe-nsp-van.UPF
     MD5 check sum: 4412fed3ab108fed87a1b7d6a69a4a38
     Pseudo is Ultrasoft + core correction, Zval = 11.0
     Generated by new atomic code, or converted to UPF format
     Using radial grid of  885 points,  6 beta functions with:
                l(1) =   0
                l(2) =   0
                l(3) =   1
                l(4) =   1
                l(5) =   2
                l(6) =   2
     Q(r) pseudized with  6 coefficients,  rinner =    1.200   1.200   1.200
                                                       1.200   1.200

     atomic species   valence    mass     pseudopotential
        Ba            10.00   137.32700     Ba( 1.00)
        Cu            11.00    63.54600     Cu( 1.00)
        O              6.00    15.99900     O ( 1.00)
        Y             11.00    88.90584     Y ( 1.00)

      4 Sym. Ops. (no inversion) found

   Cartesian axes

     site n.     atom                  positions (alat units)
         1           O   tau(   1) = (   0.0000000   0.4877884  -0.0257983  )
         2           Cu  tau(   2) = (   0.0000000   0.0000000   0.0215779  )
         3           O   tau(   3) = (   0.0000000   0.0000000   0.5073114  )
         4           Ba  tau(   4) = (   0.4999996   0.4877884   0.5319677  )
         5           Cu  tau(   5) = (   0.0000000   0.0000000   1.0495845  )
         6           O   tau(   6) = (   0.4999996   0.0000000   1.1181579  )
         7           O   tau(   7) = (   0.0000000   0.4877884   1.1273137  )
         8           Y   tau(   8) = (   0.4999996   0.4877884   1.4938777  )
         9           O   tau(   9) = (   0.0000000   0.4877884   1.8497402  )
        10           O   tau(  10) = (   0.4999996   0.0000000   1.8692709  )
        11           Cu  tau(  11) = (   0.0000000   0.0000000   1.9417560  )
        12           Ba  tau(  12) = (   0.4999996   0.4877884   2.4526063  )
        13           O   tau(  13) = (   0.0000000   0.0000000   2.5103470  )
        14           O   tau(  14) = (   0.0000000   0.4877884   2.9968469  )
        15           Cu  tau(  15) = (   0.0000000   0.0000000   2.9968521  )
        16           O   tau(  16) = (   0.0000000   0.0000000   3.4833288  )
        17           Ba  tau(  17) = (   0.4999996   0.4877884   3.5410618  )
        18           Cu  tau(  18) = (   0.0000000   0.0000000   4.8234918  )
        19           O   tau(  19) = (   0.4999996   0.0000000   4.8959642  )
        20           O   tau(  20) = (   0.0000000   0.4877884   4.9154768  )
        21           Y   tau(  21) = (   0.4999996   0.4877884   5.3099197  )
        22           O   tau(  22) = (   0.0000000   0.4877884   5.6379059  )
        23           O   tau(  23) = (   0.4999996   0.0000000   5.6470746  )
        24           Cu  tau(  24) = (   0.0000000   0.0000000   5.7156531  )
        25           Ba  tau(  25) = (   0.4999996   0.4877884   6.2332544  )
        26           O   tau(  26) = (   0.0000000   0.0000000   6.2579108  )
        27           Cu  tau(  27) = (   0.0000000   0.0000000   6.7436160  )
        28           O   tau(  28) = (   0.0000000   0.4877884   6.7909973  )

     number of k points=    25  Gaussian smearing, width (Ry)=  0.0100
                       cart. coord. in units 2pi/alat
        k(    1) = (   0.0000000   0.0000000   0.0000000), wk =   0.0312500
        k(    2) = (   0.0000000   0.1281293   0.0000000), wk =   0.0625000
        k(    3) = (   0.0000000   0.2562585   0.0000000), wk =   0.0625000
        k(    4) = (   0.0000000   0.3843878   0.0000000), wk =   0.0625000
        k(    5) = (   0.0000000  -0.5125170   0.0000000), wk =   0.0312500
        k(    6) = (   0.1250000   0.0000000   0.0000000), wk =   0.0625000
        k(    7) = (   0.1250000   0.1281293   0.0000000), wk =   0.1250000
        k(    8) = (   0.1250000   0.2562585   0.0000000), wk =   0.1250000
        k(    9) = (   0.1250000   0.3843878   0.0000000), wk =   0.1250000
        k(   10) = (   0.1250000  -0.5125170   0.0000000), wk =   0.0625000
        k(   11) = (   0.2500000   0.0000000   0.0000000), wk =   0.0625000
        k(   12) = (   0.2500000   0.1281293   0.0000000), wk =   0.1250000
        k(   13) = (   0.2500000   0.2562585   0.0000000), wk =   0.1250000
        k(   14) = (   0.2500000   0.3843878   0.0000000), wk =   0.1250000
        k(   15) = (   0.2500000  -0.5125170   0.0000000), wk =   0.0625000
        k(   16) = (   0.3750000   0.0000000   0.0000000), wk =   0.0625000
        k(   17) = (   0.3750000   0.1281293   0.0000000), wk =   0.1250000
        k(   18) = (   0.3750000   0.2562585   0.0000000), wk =   0.1250000
        k(   19) = (   0.3750000   0.3843878   0.0000000), wk =   0.1250000
        k(   20) = (   0.3750000  -0.5125170   0.0000000), wk =   0.0625000
        k(   21) = (  -0.5000000   0.0000000   0.0000000), wk =   0.0312500
        k(   22) = (  -0.5000000   0.1281293   0.0000000), wk =   0.0625000
        k(   23) = (  -0.5000000   0.2562585   0.0000000), wk =   0.0625000
        k(   24) = (  -0.5000000   0.3843878   0.0000000), wk =   0.0625000
        k(   25) = (  -0.5000000  -0.5125170   0.0000000), wk =   0.0312500

     Initial potential from superposition of free atoms

     starting charge  228.84827, renormalised to  229.00000

     negative rho (up, down):  8.957E-02 0.000E+00
     Starting wfcs are  201 randomized atomic wfcs

     Self-consistent Calculation

     iteration #  1     ecut=    60.00 Ry     beta= 0.20
     Davidson diagonalization with overlap
     ethr =  1.00E-02,  avg # of iterations =  2.0

     negative rho (up, down):  8.745E-02 0.000E+00

     total energy              =   -1869.51940036 Ry
     Harris-Foulkes estimate   =   -1871.16564584 Ry
     estimated scf accuracy    <      15.43289065 Ry

[...]

     iteration # 17     ecut=    60.00 Ry     beta= 0.20
     Davidson diagonalization with overlap
     c_bands:  1 eigenvalues not converged
     ethr =  4.99E-06,  avg # of iterations =  4.9

[...]

     End of self-consistent calculation

          k = 0.0000 0.0000 0.0000 ( 36431 PWs)   bands (ev):

   -38.2717 -38.0081 -23.9789 -23.0264 -22.9255 -22.8138 -18.8066 -18.5706
   -18.2761 -18.2665 -18.0410 -18.0290 -15.6018 -15.3920 -14.8462 -14.6422
   -14.5638 -14.4452 -14.4101 -14.3871 -14.2072 -14.1257 -13.9217 -13.9083
   -13.7189 -13.6242 -13.4377  -9.2742  -8.8140  -8.7941  -8.2748  -8.1484
    -8.0895  -8.0089  -7.9838  -7.9178  -7.8911  -7.7672  -7.7452  -2.2712
    -2.2549  -2.2303  -2.1965  -2.0608  -2.0433  -2.0094  -1.9413  -1.9333
    -1.9196  -1.8652  -1.4736  -1.3392  -1.0590  -1.0321  -0.9091  -0.6890
    -0.6148  -0.6081  -0.5702  -0.5382  -0.2548  -0.2374  -0.2190  -0.1984
    -0.1825  -0.0695  -0.0635  -0.0195  -0.0172  -0.0161   0.0698   0.0804
     0.1346   0.1407   0.1696   0.2055   0.2329   0.2369   0.2469   0.2678
     0.3844   0.3874   0.3936   0.3952   0.4170   0.4965   0.5122   0.6997
     0.7766   0.8223   0.9052   0.9351   0.9388   1.0146   1.0813   1.1258
     1.1738   1.2055   1.2125   1.2680   1.3338   1.3538   1.3732   1.4275
     1.6621   1.7639   1.7904   1.8146   1.8359   1.9959   2.0344   2.0349
     2.0918   2.1602   2.2122   2.2443   2.2558   2.4941   2.5201   4.5524
     5.1070   5.1378   5.4137   5.6950   5.9761   6.3516   6.4808   6.5384
[...]
     atom   23 type  3   force =     0.00000000    0.00000000    0.01877100
     atom   24 type  2   force =     0.00000000    0.00000000    0.00536810
     atom   25 type  1   force =     0.00000000    0.00000000    0.01131851
     atom   26 type  3   force =     0.00000000    0.00000000   -0.00042490
     atom   27 type  2   force =     0.00000000    0.00000000    0.00013349
     atom   28 type  3   force =     0.00000000    0.00000000   -0.00134277

     Total force =     0.114438     Total SCF correction =     0.002003

     Computing stress (Cartesian axis) and pressure

     negative rho (up, down):  9.052E-02 0.000E+00
          total   stress  (Ry/bohr**3)                   (kbar)     P=       -5.12
  -0.00007229   0.00000000   0.00000000          -10.63        0.00        0.00
   0.00000000  -0.00002608   0.00000000            0.00       -3.84        0.00
   0.00000000   0.00000000  -0.00000599            0.00        0.00       -0.88

     BFGS Geometry Optimization

     number of scf cycles    =   1
     number of bfgs steps    =   0

     energy   new            =   -1868.7594474111 Ry

     new trust radius        =       0.1015565509 bohr
     new conv_thr            =       0.0000010000 Ry

ATOMIC_POSITIONS (angstrom)
O             0.0000000000        1.8966400000       -0.1003100000    0   0   0
Cu            0.0000000000        0.0000000000        0.0839000000    0   0   0
O             0.0000000000        0.0000000000        1.9725500000    0   0   0
Ba            1.9441200000        1.8966400000        2.0684200000    0   0   0
Cu            0.0000000000        0.0000000000        4.0810400000    0   0   0
O             1.9441200000        0.0000000000        4.3476700000    0   0   0
O             0.0000000000        1.8966400000        4.3832700000    0   0   0
Y             1.9441200000        1.8966400000        5.8085600000    0   0   0
O             0.0000000000        1.8966400000        7.1922400000    0   0   0
O             1.9441200000        0.0000000000        7.2681800000    0   0   0
Cu            0.0000000000        0.0000000000        7.5500200000    0   0   0
Ba            1.9441200000        1.8966400000        9.5363300000    0   0   0
O             0.0000000000        0.0000000000        9.7608400000    0   0   0
O             0.0000000000        1.8966400000       11.6600673696
Cu            0.0000000000        0.0000000000       11.6470433937
O             0.0000000000        0.0000000000       13.5593998291
Ba            1.9441200000        1.8966400000       13.7545876154
Cu            0.0000000000        0.0000000000       18.7575812093
O             1.9441200000        0.0000000000       19.0501615234
O             0.0000000000        1.8966400000       19.1211339591
Y             1.9441200000        1.8966400000       20.5925185879
O             0.0000000000        1.8966400000       21.9215500000    0   0   0
O             1.9441200000        0.0000000000       21.9572000000    0   0   0
Cu            0.0000000000        0.0000000000       22.2238500000    0   0   0
Ba            1.9441200000        1.8966400000       24.2364100000    0   0   0
O             0.0000000000        0.0000000000       24.3322800000    0   0   0
Cu            0.0000000000        0.0000000000       26.2208200000    0   0   0
O             0.0000000000        1.8966400000       26.4050500000    0   0   0

     NEW-OLD atomic charge density approx. for the potential

[...]

     Total force =     0.085004     Total SCF correction =     0.011669
     SCF correction compared to forces is large: reduce conv_thr to get better values

[...]

     energy   old            =   -1868.7594474111 Ry
     energy   new            =   -1868.7709978873 Ry

     CASE: energy  _new < energy  _old

[...]

     iteration #  1     ecut=    60.00 Ry     beta= 0.20
     Davidson diagonalization with overlap
     c_bands:  1 eigenvalues not converged
     c_bands:  1 eigenvalues not converged
     c_bands:  1 eigenvalues not converged
     ethr =  1.00E-06,  avg # of iterations = 10.5

[...]

     WARNING: bfgs curvature condition failed, Theta= 0.887
     new trust radius        =       0.0109717615 bohr
     new conv_thr            =       0.0000003086 Ry

[...]

     Threshold (ethr) on eigenvalues was too large:
     Diagonalizing with lowered threshold

     Davidson diagonalization with overlap
     ethr =  9.48E-08,  avg # of iterations =  1.0

[...]

     CASE: energy  _new > energy  _old

[...]

     new trust radius        =       0.0000403170 bohr

     trust_radius < trust_radius_min

     resetting bfgs history

     new conv_thr            =       0.0000000100 Ry

[...]

     WARNING: info= 51 for Hessian
     new trust radius        =       0.0009177914 bohr
     new conv_thr            =       0.0000000100 Ry

[...]

     CASE: energy  _new > energy  _old

[...]

     WARNING: info= 51 for Hessian
     uphill step: resetting bfgs history

[...]

     Total force =     0.001184     Total SCF correction =     0.000073

[...]

     WARNING: bfgs curvature condition failed, Theta= 0.286
     new trust radius        =       0.0003161725 bohr
     new conv_thr            =       0.0000000100 Ry

[...]

     number of scf cycles    =  84
     number of bfgs steps    =  80

     energy   old            =   -1868.7892111813 Ry
     energy   new            =   -1868.7892119671 Ry

     CASE: energy  _new < energy  _old

     new trust radius        =       0.0009469711 bohr
     new conv_thr            =       0.0000000100 Ry

ATOMIC_POSITIONS (angstrom)
O             0.0000000000        1.8966400000       -0.1003100000    0   0   0
Cu            0.0000000000        0.0000000000        0.0839000000    0   0   0
O             0.0000000000        0.0000000000        1.9725500000    0   0   0
Ba            1.9441200000        1.8966400000        2.0684200000    0   0   0
Cu            0.0000000000        0.0000000000        4.0810400000    0   0   0
O             1.9441200000        0.0000000000        4.3476700000    0   0   0
O             0.0000000000        1.8966400000        4.3832700000    0   0   0
Y             1.9441200000        1.8966400000        5.8085600000    0   0   0
O             0.0000000000        1.8966400000        7.1922400000    0   0   0
O             1.9441200000        0.0000000000        7.2681800000    0   0   0
Cu            0.0000000000        0.0000000000        7.5500200000    0   0   0
Ba            1.9441200000        1.8966400000        9.5363300000    0   0   0
O             0.0000000000        0.0000000000        9.7608400000    0   0   0
O             0.0000000000        1.8966400000       11.7466206913
Cu            0.0000000000        0.0000000000       11.6698522655
O             0.0000000000        0.0000000000       13.6034091086
Ba            1.9441200000        1.8966400000       13.6576522137
Cu            0.0000000000        0.0000000000       18.7738525088
O             1.9441200000        0.0000000000       19.0721795343
O             0.0000000000        1.8966400000       19.1140554222
Y             1.9441200000        1.8966400000       20.4089490747
O             0.0000000000        1.8966400000       21.9215500000    0   0   0
O             1.9441200000        0.0000000000       21.9572000000    0   0   0
Cu            0.0000000000        0.0000000000       22.2238500000    0   0   0
Ba            1.9441200000        1.8966400000       24.2364100000    0   0   0
O             0.0000000000        0.0000000000       24.3322800000    0   0   0
Cu            0.0000000000        0.0000000000       26.2208200000    0   0   0
O             0.0000000000        1.8966400000       26.4050500000    0   0   0

     NEW-OLD atomic charge density approx. for the potential

[...]

     Self-consistent Calculation

[...]

     Threshold (ethr) on eigenvalues was too large:
     Diagonalizing with lowered threshold

     Davidson diagonalization with overlap
     ethr =  8.44E-08,  avg # of iterations =  1.0

[...]

     total energy              =   -1868.78921275 Ry
     Harris-Foulkes estimate   =   -1868.78921272 Ry
     estimated scf accuracy    <       0.00000001 Ry

     iteration # 10     ecut=    60.00 Ry     beta= 0.20
     Davidson diagonalization with overlap
     ethr =  6.21E-12,  avg # of iterations =  1.8

[...]

     End of self-consistent calculation

[...]

          k = 0.3750-0.5125 0.0000 ( 36666 PWs)   bands (ev):

[...]

          k =-0.5000-0.5125 0.0000 ( 36660 PWs)   bands (ev):

   -38.2902 -37.8649 -23.2938 -22.7577 -22.7204 -22.6272 -18.8719 -18.8450
   -18.5237 -18.4891 -18.3724 -17.9215 -14.7030 -14.6904 -14.5486 -14.4380
   -14.4223 -14.4199 -14.3602 -14.1889 -14.1357 -13.9739 -13.8344 -13.8260
   -13.8072 -13.6695 -13.6404  -9.3655  -8.9843  -8.9145  -8.8715  -8.8518
    -8.8288  -8.6253  -8.5492  -8.5441  -8.2143  -8.1558  -8.0480  -4.3836
    -4.1373  -3.8019  -3.5239  -3.4672  -2.9176  -2.9130  -2.7148  -2.5232
    -2.4537  -2.4300  -2.4046  -2.2599  -2.0303  -2.0207  -2.0071  -1.8711
    -1.7427  -1.4636  -1.2341  -1.2134  -1.1173  -1.1134  -0.9652  -0.9294
    -0.9052  -0.8617  -0.7789  -0.6932  -0.6910  -0.5576  -0.4961  -0.4345
    -0.2521  -0.0494  -0.0493   0.2120   0.4384   0.4858   0.7013   0.9029
     1.2007   1.2133   1.2932   1.3262   1.3764   1.4044   1.4087   1.4382
     1.4425   1.4632   1.5833   1.5964   1.6521   1.7162   1.8131   1.8222
     1.8354   1.8488   1.8652   1.8694   1.8730   1.9112   1.9239   1.9253
     1.9434   2.1780   2.2695   2.3372   2.3735   2.3761   2.4820   2.4837
     2.8201   2.8218   4.1451   4.3854   4.5821   4.6722   4.6951   4.7821
     5.6195   5.6534   6.2849   6.4304   7.3776   7.5555   8.1551   8.3880
     8.5143   8.6719   8.7801   8.8180   8.9286   8.9855   9.0772   9.1853
     9.2489   9.4520

     the Fermi energy is     2.7816 ev

!    total energy              =   -1868.78921281 Ry
     Harris-Foulkes estimate   =   -1868.78921275 Ry
     estimated scf accuracy    <          4.7E-09 Ry

     The total energy is the sum of the following terms:

     one-electron contribution =  -27302.12651940 Ry
     hartree contribution      =   13803.72034520 Ry
     xc contribution           =    -642.24660374 Ry
     ewald contribution        =   12271.87222091 Ry
     smearing contrib. (-TS)   =      -0.00865579 Ry

     convergence has been achieved in  10 iterations

     negative rho (up, down):  9.053E-02 0.000E+00

     Forces acting on atoms (cartesian axes, Ry/au):

     atom    1 type  3   force =     0.00000000    0.00000000    0.00002173
     atom    2 type  2   force =     0.00000000    0.00000000   -0.00022167
     atom    3 type  3   force =     0.00000000    0.00000000   -0.00000626
     atom    4 type  1   force =     0.00000000    0.00000000   -0.00022223
     atom    5 type  2   force =     0.00000000    0.00000000   -0.00013189
     atom    6 type  3   force =     0.00000000    0.00000000    0.00066346
     atom    7 type  3   force =     0.00000000    0.00000000    0.00014728
     atom    8 type  4   force =     0.00000000    0.00000000   -0.00164193
     atom    9 type  3   force =     0.00000000    0.00000000    0.00228702
     atom   10 type  3   force =     0.00000000    0.00000000    0.00260038
     atom   11 type  2   force =     0.00000000    0.00000000   -0.00260928
     atom   12 type  1   force =     0.00000000    0.00000000   -0.00815054
     atom   13 type  3   force =     0.00000000    0.00000000    0.01020938
     atom   14 type  3   force =     0.00000000    0.00000000    0.00007564
     atom   15 type  2   force =     0.00000000    0.00000000    0.00004662
     atom   16 type  3   force =     0.00000000    0.00000000   -0.00003436
     atom   17 type  1   force =     0.00000000    0.00000000   -0.00004140
     atom   18 type  2   force =     0.00000000    0.00000000    0.00000826
     atom   19 type  3   force =     0.00000000    0.00000000    0.00002024
     atom   20 type  3   force =     0.00000000    0.00000000    0.00004687
     atom   21 type  4   force =     0.00000000    0.00000000   -0.00000400
     atom   22 type  3   force =     0.00000000    0.00000000   -0.00062013
     atom   23 type  3   force =     0.00000000    0.00000000    0.00358641
     atom   24 type  2   force =     0.00000000    0.00000000    0.00050430
     atom   25 type  1   force =     0.00000000    0.00000000   -0.00829697
     atom   26 type  3   force =     0.00000000    0.00000000    0.00221335
     atom   27 type  2   force =     0.00000000    0.00000000   -0.00180099
     atom   28 type  3   force =     0.00000000    0.00000000    0.00135068

     Total force =     0.000116     Total SCF correction =     0.000874
     SCF correction compared to forces is large: reduce conv_thr to get better values

     Computing stress (Cartesian axis) and pressure

     negative rho (up, down):  9.053E-02 0.000E+00
          total   stress  (Ry/bohr**3)                   (kbar)     P=       -5.33
  -0.00006142   0.00000000   0.00000000           -9.03        0.00        0.00
   0.00000000  -0.00002602   0.00000000            0.00       -3.83        0.00
   0.00000000   0.00000000  -0.00002128            0.00        0.00       -3.13

     bfgs converged in  85 scf cycles and  81 bfgs steps
     (criteria: energy <  1.0E-05 Ry, force <  1.0E-04 Ry/Bohr)

     End of BFGS Geometry Optimization

     Final energy   =   -1868.7892128134 Ry
Begin final coordinates

ATOMIC_POSITIONS (angstrom)
O             0.0000000000        1.8966400000       -0.1003100000    0   0   0
Cu            0.0000000000        0.0000000000        0.0839000000    0   0   0
O             0.0000000000        0.0000000000        1.9725500000    0   0   0
Ba            1.9441200000        1.8966400000        2.0684200000    0   0   0
Cu            0.0000000000        0.0000000000        4.0810400000    0   0   0
O             1.9441200000        0.0000000000        4.3476700000    0   0   0
O             0.0000000000        1.8966400000        4.3832700000    0   0   0
Y             1.9441200000        1.8966400000        5.8085600000    0   0   0
O             0.0000000000        1.8966400000        7.1922400000    0   0   0
O             1.9441200000        0.0000000000        7.2681800000    0   0   0
Cu            0.0000000000        0.0000000000        7.5500200000    0   0   0
Ba            1.9441200000        1.8966400000        9.5363300000    0   0   0
O             0.0000000000        0.0000000000        9.7608400000    0   0   0
O             0.0000000000        1.8966400000       11.7466206913
Cu            0.0000000000        0.0000000000       11.6698522655
O             0.0000000000        0.0000000000       13.6034091086
Ba            1.9441200000        1.8966400000       13.6576522137
Cu            0.0000000000        0.0000000000       18.7738525088
O             1.9441200000        0.0000000000       19.0721795343
O             0.0000000000        1.8966400000       19.1140554222
Y             1.9441200000        1.8966400000       20.4089490747
O             0.0000000000        1.8966400000       21.9215500000    0   0   0
O             1.9441200000        0.0000000000       21.9572000000    0   0   0
Cu            0.0000000000        0.0000000000       22.2238500000    0   0   0
Ba            1.9441200000        1.8966400000       24.2364100000    0   0   0
O             0.0000000000        0.0000000000       24.3322800000    0   0   0
Cu            0.0000000000        0.0000000000       26.2208200000    0   0   0
O             0.0000000000        1.8966400000       26.4050500000    0   0   0
End final coordinates

     General routines

     Parallel routines

   This run was terminated on:  19: 4:34   1May2021

   JOB DONE.
[1619910274.922564] [holy7c04105:204419:0]          mpool.c:43   UCX  WARN  object 0x387c1c0 was not returned to mpool ucp_requests
[1619910274.922533] [holy7c04108:110768:0]          mpool.c:43   UCX  WARN  object 0x430dec0 was not returned to mpool ucp_requests
[1619910274.922311] [holy7c04105:204418:0]          mpool.c:43   UCX  WARN  object 0x2c2a540 was not returned to mpool ucp_requests
[1619910274.922336] [holy7c04105:204418:0]          mpool.c:43   UCX  WARN  object 0x2c2a8c0 was not returned to mpool ucp_requests
[1619910274.930270] [holy7c02502:88713:0]          mpool.c:43   UCX  WARN  object 0x38b4640 was not returned to mpool ucp_requests
[1619910274.930291] [holy7c02502:88713:0]          mpool.c:43   UCX  WARN  object 0x38b4800 was not returned to mpool ucp_requests
[1619910274.929244] [holy7c02502:88714:0]          mpool.c:43   UCX  WARN  object 0x43f6540 was not returned to mpool ucp_requests
[1619910274.932140] [holy7c02502:88718:0]          mpool.c:43   UCX  WARN  object 0x335a340 was not returned to mpool ucp_requests