     Program PWSCF v.6.5 starts on 17May2021 at 17:55:38

     R & G space division:  proc/nbgrp/npool/nimage =      80
     Reading input from YBCO_Y_cleave_1.5_sep.pwi
Warning: card &IONS ignored
Warning: card     ION_DYNAMICS = 'BFGS' ignored
Warning: card / ignored
Warning: card &CELL ignored
Warning: card     CELL_DYNAMICS = 'BFGS' ignored
Warning: card     PRESS_CONV_THR = 5 ignored
Warning: card / ignored

     Current dimensions of program PWSCF are:
     Max number of different atomic species (ntypx) = 10
     Max number of k-points (npk) =  40000
     Max angular momentum in pseudopotentials (lmaxx) =  3
     Message from routine volume:
     axis vectors are left-handed

     Message from routine setup:
     using ibrav=0 with symmetry is DISCOURAGED, use correct ibrav instead

     bravais-lattice index     =            0
     lattice parameter (alat)  =      20.5021  a.u.
     unit-cell volume          =   35726.4460 (a.u.)^3
     number of atoms/cell      =          224
     number of atomic types    =            5
     number of electrons       =      1830.00
     number of Kohn-Sham states=         1098
     kinetic-energy cutoff     =      60.0000  Ry
     charge density cutoff     =     720.0000  Ry
     convergence threshold     =      1.0E-08
     mixing beta               =       0.5000
     number of iterations used =           10  local-TF  mixing
     Exchange-correlation= SLA PW PBE PBE
                           (   1   4   3   4   0   0   0)

     celldm(1)=  20.502120  celldm(2)=   0.000000  celldm(3)=   0.000000
     celldm(4)=   0.000000  celldm(5)=   0.000000  celldm(6)=   0.000000

     crystal axes: (cart. coord. in units of alat)
               a(1) = (  -0.716599   0.697485   0.000000 )
               a(2) = (   0.716599   0.697485   0.000000 )
               a(3) = (   0.000000   0.000000   4.147173 )

     reciprocal axes: (cart. coord. in units 2 pi/alat)
               b(1) = ( -0.697740  0.716861  0.000000 )
               b(2) = (  0.697740  0.716861  0.000000 )
               b(3) = (  0.000000  0.000000  0.241128 )

     PseudoPot. # 1 for Ba read from file:
     ./pseudo/Ba.pbe-nsp-van.UPF
     MD5 check sum: 2b9c31dd849566dd297d80989662b7a0
     Pseudo is Ultrasoft + core correction, Zval = 10.0
     Generated by new atomic code, or converted to UPF format
     Using radial grid of  907 points,  6 beta functions with:
                l(1) =   0
                l(2) =   0
                l(3) =   1
                l(4) =   1
                l(5) =   2
                l(6) =   2
     Q(r) pseudized with  6 coefficients,  rinner =    1.200   1.200   1.200
                                                       1.200   1.200

     PseudoPot. # 2 for Ca read from file:
     ./pseudo/Ca.pbe-nsp-van.UPF
     MD5 check sum: 6471098428ff4fa451746d08035ff179
     Pseudo is Ultrasoft + core correction, Zval = 10.0
     Generated by new atomic code, or converted to UPF format
     Using radial grid of  845 points,  6 beta functions with:
                l(1) =   0
                l(2) =   0
                l(3) =   1
                l(4) =   1
                l(5) =   2
                l(6) =   2
     Q(r) pseudized with  6 coefficients,  rinner =    1.200   1.200   1.200
                                                       1.200   1.200

     PseudoPot. # 3 for Cu read from file:
     ./pseudo/Cu.pbe-n-van_ak.UPF
     MD5 check sum: 34e3282627ffb533726feb647e090d62
     Pseudo is Ultrasoft + core correction, Zval = 11.0
     Generated by new atomic code, or converted to UPF format
     Using radial grid of  867 points,  6 beta functions with:
                l(1) =   0
                l(2) =   0
                l(3) =   1
                l(4) =   1
                l(5) =   2
                l(6) =   2
     Q(r) pseudized with  8 coefficients,  rinner =    1.400   1.400   1.400
                                                       1.400   1.400

     PseudoPot. # 4 for O  read from file:
     ./pseudo/O.pbe-van_ak.UPF
     MD5 check sum: 783ce7fe4c79b6a4916957118fed0856
     Pseudo is Ultrasoft, Zval =  6.0
     Generated by new atomic code, or converted to UPF format
     Using radial grid of  737 points,  4 beta functions with:
                l(1) =   0
                l(2) =   0
                l(3) =   1
                l(4) =   1
     Q(r) pseudized with  8 coefficients,  rinner =    0.800   0.800   0.800

     PseudoPot. # 5 for Y  read from file:
     ./pseudo/Y.pbe-nsp-van.UPF
     MD5 check sum: 4412fed3ab108fed87a1b7d6a69a4a38
     Pseudo is Ultrasoft + core correction, Zval = 11.0
     Generated by new atomic code, or converted to UPF format
     Using radial grid of  885 points,  6 beta functions with:
                l(1) =   0
                l(2) =   0
                l(3) =   1
                l(4) =   1
                l(5) =   2
                l(6) =   2
     Q(r) pseudized with  6 coefficients,  rinner =    1.200   1.200   1.200
                                                       1.200   1.200

     atomic species   valence    mass     pseudopotential
        Ba            10.00   137.32700     Ba( 1.00)
        Ca            10.00    40.07800     Ca( 1.00)
        Cu            11.00    63.54600     Cu( 1.00)
        O              6.00    15.99900     O ( 1.00)
        Y             11.00    88.90584     Y ( 1.00)

      4 Sym. Ops. (no inversion) found ( 3 have fractional translation)

   Cartesian axes

     site n.     atom                  positions (alat units)
         1           O   tau(   1) = (   0.3545921   0.8718562  -0.0077406  )
         2           O   tau(   2) = (   0.0037072   0.8718562  -0.0077406  )
         3           Cu  tau(   3) = (  -0.0002581   0.0006065   0.0080789  )
         4           Cu  tau(   4) = (  -0.0002581   0.3481364   0.0080789  )
         5           Cu  tau(   5) = (   0.3585574   0.3481364   0.0080789  )
         6           Cu  tau(   6) = (  -0.3580421   0.6980913   0.0080789  )
         7           Cu  tau(   7) = (   0.3577988   0.6971373   0.0086255  )
         8           Cu  tau(   8) = (   0.0005005   1.0465760   0.0086255  )
         9           Cu  tau(   9) = (  -0.3588016   0.3490903   0.0086255  )
        10           Cu  tau(  10) = (   0.0005005   0.6971373   0.0086255  )
        11           O   tau(  11) = (  -0.0001733   0.5225410  -0.0089757  )
        12           O   tau(  12) = (   0.3584726   0.5225410  -0.0089757  )
        13           O   tau(  13) = (  -0.0001733   1.2211724  -0.0089757  )
        14           O   tau(  14) = (  -0.3581278   0.5236867  -0.0089757  )
        15           O   tau(  15) = (  -0.3544557   0.8718562  -0.0105593  )
        16           O   tau(  16) = (  -0.0038445   0.1743714  -0.0105593  )
        17           O   tau(  17) = (   0.3588818   0.3486599   0.1817056  )
        18           O   tau(  18) = (  -0.0005825   0.3486599   0.1817056  )
        19           O   tau(  19) = (  -0.0005825   0.0000830   0.1817056  )
        20           O   tau(  20) = (  -0.3577167   0.6975677   0.1817056  )
        21           O   tau(  21) = (   0.3584283   0.6967843   0.1825784  )
        22           O   tau(  22) = (  -0.3581712   0.3494443   0.1825784  )
        23           O   tau(  23) = (  -0.0001290   0.6967843   0.1825784  )
        24           O   tau(  24) = (  -0.0001290   1.0469291   0.1825784  )
        25           Ba  tau(  25) = (   0.1791506   0.8718562   0.1908537  )
        26           Ba  tau(  26) = (   0.5374498   0.5231143   0.1919901  )
        27           Ba  tau(  27) = (  -0.1791506   0.5231143   0.1919901  )
        28           Ba  tau(  28) = (  -0.1793773   0.8718562   0.1931958  )
        29           Ba  tau(  29) = (  -0.1789238   0.1743714   0.1931958  )
        30           Ba  tau(  30) = (   0.1791506   0.5222101   0.1929368  )
        31           Ba  tau(  31) = (  -0.5374498   0.5240176   0.1929368  )
        32           Ba  tau(  32) = (   0.1791506   0.1743714   0.1992469  )
        33           Cu  tau(  33) = (  -0.3583426   0.3488452   0.3777458  )
        34           Cu  tau(  34) = (   0.3582559   0.6973834   0.3777458  )
        35           Cu  tau(  35) = (   0.0000433   0.6973834   0.3777458  )
        36           Cu  tau(  36) = (   0.0000433   1.0463299   0.3777458  )
        37           Cu  tau(  37) = (  -0.3586541   0.6975060   0.3775126  )
        38           Cu  tau(  38) = (   0.3579444   0.3487217   0.3775126  )
        39           Cu  tau(  39) = (   0.0003549   0.0000212   0.3775126  )
        40           Cu  tau(  40) = (   0.0003549   0.3487217   0.3775126  )
        41           O   tau(  41) = (  -0.0047976   0.1743714   0.3996864  )
        42           O   tau(  42) = (  -0.3535026   0.8718562   0.3996864  )
        43           O   tau(  43) = (  -0.5374498   0.6924605   0.3956991  )
        44           O   tau(  44) = (   0.1791506   0.3537672   0.3956991  )
        45           O   tau(  45) = (   0.3586385   0.8718562   0.4046840  )
        46           O   tau(  46) = (  -0.0003392   0.8718562   0.4046840  )
        47           O   tau(  47) = (  -0.0004857   0.5230571   0.4066611  )
        48           O   tau(  48) = (   0.3587850   0.5230571   0.4066611  )
        49           O   tau(  49) = (  -0.3578135   0.5231714   0.4066611  )
        50           O   tau(  50) = (  -0.0004857   1.2206562   0.4066611  )
        51           O   tau(  51) = (   0.1791506   1.0461604   0.4028931  )
        52           O   tau(  52) = (   0.1791506   0.6975521   0.4028931  )
        53           O   tau(  53) = (  -0.1792261   0.6967170   0.4025963  )
        54           O   tau(  54) = (  -0.1790731   0.3495106   0.4025963  )
        55           O   tau(  55) = (  -0.1792261   1.0469964   0.4025963  )
        56           O   tau(  56) = (   0.5375263   0.6967170   0.4025963  )
        57           Ca  tau(  57) = (   0.1791506   0.1743714   0.5358617  )
        58           Y   tau(  58) = (  -0.1811525   0.8718562   0.5373908  )
        59           Y   tau(  59) = (  -0.1771467   0.1743714   0.5373908  )
        60           Y   tau(  60) = (   0.1791506   0.8718562   0.5379568  )
[...]
       210           O   tau( 210) = (   0.0037081   0.8718562   2.3023655  )
       211           Cu  tau( 211) = (  -0.0002516   0.0006074   2.2865617  )
       212           Cu  tau( 212) = (  -0.0002516   0.3481345   2.2865617  )
       213           Cu  tau( 213) = (   0.3585509   0.3481345   2.2865617  )
       214           Cu  tau( 214) = (  -0.3580476   0.6980931   2.2865617  )
       215           Cu  tau( 215) = (   0.3577960   0.6971373   2.2860151  )
       216           Cu  tau( 216) = (   0.0005033   1.0465760   2.2860151  )
       217           Cu  tau( 217) = (  -0.3588035   0.3490903   2.2860151  )
       218           Cu  tau( 218) = (   0.0005033   0.6971373   2.2860151  )
       219           O   tau( 219) = (  -0.0001724   0.5225410   2.3036043  )
       220           O   tau( 220) = (   0.3584716   0.5225410   2.3036043  )
       221           O   tau( 221) = (  -0.0001724   1.2211724   2.3036043  )
[...]

   -40.9199 -40.9083 -40.9037 -40.9005 -40.8956 -40.8852 -40.8850 -38.3613
   -37.9165 -37.8894 -37.8859 -37.8823 -37.8799 -37.8664 -37.8646 -35.4536
   -22.8548 -22.8022 -22.7738 -22.7350 -22.7075 -22.6086 -22.5768 -22.5342
   -22.4883 -22.4845 -22.4768 -22.4688 -22.3858 -22.3837 -22.3786 -22.3735
   -22.3421 -22.3392 -22.2992 -22.2953 -22.2658 -22.2492 -22.2451 -22.2364
   -22.2286 -22.1466 -22.1435 -22.1372 -22.1336 -22.1017 -22.0985 -22.0257
   -21.1225 -21.0726 -21.0550 -21.0475 -21.0158 -21.0012 -20.9973 -20.9718
   -20.9404 -20.9297 -20.8859 -20.8726 -20.8657 -20.8540 -20.8504 -20.8291
   -20.8105 -20.8087 -20.8072 -20.8014 -20.7935 -19.4390 -19.4187 -19.3603
   -18.4953 -18.4225 -18.4169 -18.3914 -18.3676 -18.3288 -18.2910 -18.2803
   -18.2257 -18.2184 -18.1982 -18.1965 -18.1895 -18.1156 -18.0902 -18.0546
   -18.0294 -18.0106 -18.0059 -17.9365 -17.8836 -16.7129 -16.6844 -16.6780
   -15.9696 -15.8706 -15.8233 -15.7084 -15.5519 -15.5004 -15.4764 -15.3749
   -15.3698 -15.3688 -15.2942 -15.2601 -15.2242 -15.1319 -15.1143 -15.0606
   -14.9683 -14.8727 -14.8027 -14.6777 -14.5691 -14.5354 -14.5193 -14.5022
   -14.4682 -14.4521 -14.4207 -14.3879 -14.3772 -14.3679 -14.3530 -14.3471
   -14.3442 -14.3253 -14.3182 -14.3048 -14.3006 -14.2977 -14.2966 -14.2838
   -14.2762 -14.2728 -14.2625 -14.2452 -14.2419 -14.1980 -14.1747 -14.1707
   -14.1460 -14.1442 -14.1433 -14.1373 -14.1277 -14.1208 -14.0952 -14.0591
   -14.0321 -14.0241 -14.0185 -14.0070 -14.0023 -13.9853 -13.9765 -13.9579
   -13.9466 -13.9343 -13.9076 -13.8976 -13.8953 -13.8917 -13.8911 -13.8716
   -13.8632 -13.8360 -13.8272 -13.8111 -13.7829 -13.7652 -13.7509 -13.7370
   -13.6995 -13.6657 -13.6587 -13.6557 -13.6293 -13.6163 -13.6107 -13.5989
   -13.5949 -13.5938 -13.5777 -13.5769 -13.5665 -13.5632 -13.5554 -13.5438
   -13.5429 -13.5273 -13.5259 -13.5242 -13.5143 -13.4926 -13.4912 -13.4911
   -13.4885 -13.4845 -13.4784 -13.4566 -13.4555 -13.4528 -13.4440 -13.4345
   -13.4326 -13.3910 -13.3533 -13.3325 -13.2971 -13.2534 -13.2397 -13.1682
    -8.5273  -8.3319  -8.3141  -8.2795  -8.2551  -8.2450  -8.2237  -8.1871
    -8.1806  -8.1470  -8.1126  -8.1017  -8.0713  -8.0410  -8.0340  -8.0284
    -8.0279  -8.0248  -7.9626  -7.9572  -7.9287  -7.9050  -7.9006  -7.8740
    -7.8339  -7.8181  -7.8139  -7.8124  -7.8114  -7.8020  -7.7865  -7.7763
    -7.7659  -7.7656  -7.7439  -7.7349  -7.7313  -7.7208  -7.7176  -7.7127
    -7.7096  -7.7009  -7.6964  -7.6953  -7.6875  -7.6866  -7.6767  -7.6676
    -7.6641  -7.6572  -7.6450  -7.6337  -7.6304  -7.5903  -7.5520  -7.5491
    -7.5401  -7.5068  -7.5062  -7.5058  -7.5037  -7.4995  -7.4944  -7.4910
    -7.4882  -7.4714  -7.4708  -7.4636  -7.4551  -7.4506  -7.4366  -7.4352
    -7.4250  -7.4116  -7.4094  -7.4074  -7.3961  -7.3901  -7.3638  -7.3574
    -7.3483  -7.3388  -7.3237  -7.3228  -7.2852  -7.2453  -7.2254  -7.2220
    -7.1996  -7.1693  -7.1420  -7.1416  -7.1323  -7.1172  -7.0951  -7.0426
    -4.3619  -3.9809  -3.9136  -3.7654  -3.7132  -3.2949  -3.2771  -3.2442
    -3.2208  -3.2122  -3.1976  -3.1667  -2.9801  -2.9564  -2.8793  -2.8464
    -2.8236  -2.8194  -2.8184  -2.8155  -2.7102  -2.6839  -2.6459  -2.6410
    -2.6196  -2.6071  -2.6008  -2.5835  -2.5619  -2.5513  -2.5504  -2.5330
    -2.5020  -2.4978  -2.4902  -2.4771  -2.4213  -2.4154  -2.4128  -2.3927
    -2.3318  -2.3267  -2.3137  -2.2972  -2.2191  -2.1683  -2.1653  -2.1425
    -2.0888  -2.0692  -2.0642  -2.0572  -2.0509  -2.0460  -2.0454  -2.0339
    -2.0272  -1.9956  -1.9913  -1.9807  -1.9666  -1.9150  -1.9109  -1.9030
    -1.8581  -1.8545  -1.8446  -1.8286  -1.8153  -1.8087  -1.8034  -1.8014
    -1.7968  -1.7928  -1.7913  -1.7876  -1.7729  -1.7700  -1.7661  -1.7592
    -1.7578  -1.7555  -1.7393  -1.7380  -1.7365  -1.7339  -1.7295  -1.7157
    -1.7097  -1.6950  -1.6931  -1.6842  -1.6635  -1.6619  -1.6581  -1.6574
    -1.6512  -1.6293  -1.6120  -1.6084  -1.6047  -1.6022  -1.5957  -1.5953
    -1.5809  -1.5698  -1.5622  -1.5594  -1.5578  -1.5542  -1.5444  -1.5347
    -1.5333  -1.5123  -1.5054  -1.4800  -1.4693  -1.4608  -1.4511  -1.4508
    -1.4354  -1.4252  -1.4171  -1.4162  -1.3984  -1.3785  -1.3691  -1.3661
    -1.3420  -1.3196  -1.3169  -1.2765  -1.2340  -1.2325  -1.2248  -1.1905
    -1.1451  -1.1214  -1.1213  -1.0761  -1.0528  -1.0268  -1.0161  -1.0065
    -1.0006  -1.0004  -0.9948  -0.9789  -0.9707  -0.9293  -0.9136  -0.9019
    -0.8867  -0.8747  -0.8619  -0.8564  -0.8320  -0.8224  -0.8058  -0.7890
    -0.7858  -0.7437  -0.7385  -0.7136  -0.7105  -0.7032  -0.6991  -0.6910
[...]
     6.2200   6.2977   6.3114   6.4740   6.5190   6.5293   6.5406   6.5879
     6.6369   6.6581   6.6979   6.7666   6.7731   6.7894   6.8312   6.8390
     6.8567   6.8634   6.8876   6.9264   6.9495   6.9801   7.0099   7.0224
     7.0495   7.0704   7.1028   7.1181   7.1213   7.1246   7.1666   7.1731
     7.1989   7.2190   7.2468   7.2551   7.2973   7.3316   7.3692   7.3952
     7.5025   7.5184   7.5282   7.5972   7.6018   7.6283   7.6769   7.8403
     7.8487   7.9445   8.1276   8.1320   8.1371   8.1574   8.1677   8.1758
     8.1893   8.2117   8.2451   8.2874   8.3126   8.3145   8.3234   8.3332
     8.3337   8.3405   8.3968   8.4276   8.4308   8.4615   8.4847   8.5339
     8.6079   8.6179   8.6209   8.6326   8.6412   8.6568   8.6740   8.6914
     8.7022   8.7066   8.7402   8.7757   8.8119   8.8242   8.9301   8.9609
     8.9771   8.9802   8.9929   9.0033   9.0120   9.0668   9.0765   9.1106
     9.1214   9.1676   9.1748   9.1801   9.1911   9.2260   9.2276   9.2637
     9.3073   9.3181   9.3258   9.3547   9.3719   9.3802   9.3910   9.4043
     9.4263   9.4328

     the Fermi energy is     3.1296 ev

!    total energy              =  -14922.66402834 Ry
     Harris-Foulkes estimate   =  -14922.66402831 Ry
     estimated scf accuracy    <          7.0E-09 Ry

     The total energy is the sum of the following terms:

     one-electron contribution = -240930.47073300 Ry
     hartree contribution      =  121699.24261479 Ry
     xc contribution           =   -5115.27287698 Ry
     ewald contribution        =  109423.88802962 Ry
     smearing contrib. (-TS)   =      -0.05106277 Ry

     convergence has been achieved in  42 iterations

     negative rho (up, down):  6.301E-01 0.000E+00

     Forces acting on atoms (cartesian axes, Ry/au):

     atom    1 type  4   force =     0.00011292    0.00000000    0.00020010
     atom    2 type  4   force =    -0.00011292    0.00000000    0.00020010
     atom    3 type  3   force =     0.00009132   -0.00005738   -0.00013848
     atom    4 type  3   force =     0.00009132    0.00005738   -0.00013848
     atom    5 type  3   force =    -0.00009132    0.00005738   -0.00013848
     atom    6 type  3   force =    -0.00009132   -0.00005738   -0.00013848
     atom    7 type  3   force =    -0.00000598   -0.00002672   -0.00030096
     atom    8 type  3   force =     0.00000598    0.00002672   -0.00030096
     atom    9 type  3   force =    -0.00000598    0.00002672   -0.00030096
     atom   10 type  3   force =     0.00000598   -0.00002672   -0.00030096
     atom   11 type  4   force =    -0.00010346    0.00006609    0.00012337
     atom   12 type  4   force =     0.00010346    0.00006609    0.00012337
     atom   13 type  4   force =    -0.00010346   -0.00006609    0.00012337
     atom   14 type  4   force =     0.00010346   -0.00006609    0.00012337
     atom   15 type  4   force =    -0.00016673    0.00000000    0.00012975
     atom   16 type  4   force =     0.00016673    0.00000000    0.00012975
     atom   17 type  4   force =     0.00003100    0.00005173    0.00037253
     atom   18 type  4   force =    -0.00003100    0.00005173    0.00037253
     atom   19 type  4   force =    -0.00003100   -0.00005173    0.00037253
     atom   20 type  4   force =     0.00003100   -0.00005173    0.00037253
     atom   21 type  4   force =     0.00002656    0.00008338    0.00048724
     atom   22 type  4   force =     0.00002656   -0.00008338    0.00048724
     atom   23 type  4   force =    -0.00002656    0.00008338    0.00048724
     atom   24 type  4   force =    -0.00002656   -0.00008338    0.00048724
     atom   25 type  1   force =     0.00000000    0.00000000   -0.00000359
     atom   26 type  1   force =     0.00000000    0.00000000   -0.00009920
     atom   27 type  1   force =     0.00000000    0.00000000   -0.00009920
     atom   28 type  1   force =    -0.00018174    0.00000000    0.00001347
     atom   29 type  1   force =     0.00018174    0.00000000    0.00001347
     atom   30 type  1   force =     0.00000000    0.00010302   -0.00023052
     atom   31 type  1   force =     0.00000000   -0.00010302   -0.00023052
     atom   32 type  1   force =     0.00000000    0.00000000   -0.00012063
     atom   33 type  3   force =    -0.00003902   -0.00000385   -0.00013255
     atom   34 type  3   force =    -0.00003902    0.00000385   -0.00013255
     atom   35 type  3   force =     0.00003902    0.00000385   -0.00013255
     atom   36 type  3   force =     0.00003902   -0.00000385   -0.00013255
     atom   37 type  3   force =     0.00003736    0.00002092   -0.00022586
     atom   38 type  3   force =     0.00003736   -0.00002092   -0.00022586
     atom   39 type  3   force =    -0.00003736    0.00002092   -0.00022586
     atom   40 type  3   force =    -0.00003736   -0.00002092   -0.00022586
     atom   41 type  4   force =    -0.00016234    0.00000000   -0.00018344
     atom   42 type  4   force =     0.00016234    0.00000000   -0.00018344
     atom   43 type  4   force =     0.00000000   -0.00000039    0.00015159
     atom   44 type  4   force =     0.00000000    0.00000039    0.00015159
     atom   45 type  4   force =     0.00006011    0.00000000   -0.00012526
     atom   46 type  4   force =    -0.00006011    0.00000000   -0.00012526
     atom   47 type  4   force =    -0.00002420    0.00000105   -0.00004863
     atom   48 type  4   force =     0.00002420    0.00000105   -0.00004863
     atom   49 type  4   force =     0.00002420   -0.00000105   -0.00004863
     atom   50 type  4   force =    -0.00002420   -0.00000105   -0.00004863
     atom   51 type  4   force =     0.00000000   -0.00002030    0.00009730
     atom   52 type  4   force =     0.00000000    0.00002030    0.00009730
     atom   53 type  4   force =     0.00008804    0.00001128    0.00025614
     atom   54 type  4   force =    -0.00008804   -0.00001128    0.00025614
     atom   55 type  4   force =     0.00008804   -0.00001128    0.00025614
     atom   56 type  4   force =    -0.00008804    0.00001128    0.00025614
     atom   57 type  2   force =     0.00000000    0.00000000   -0.00029109
     atom   58 type  5   force =     0.00031828    0.00000000   -0.00062710
     atom   59 type  5   force =    -0.00031828    0.00000000   -0.00062710
     atom   60 type  5   force =     0.00000000    0.00000000   -0.00014593
[...]
     atom  210 type  4   force =    -0.00023405    0.00000000    0.00241040
     atom  211 type  3   force =     0.00012906   -0.00006430   -0.00140167
     atom  212 type  3   force =     0.00012906    0.00006430   -0.00140167
     atom  213 type  3   force =    -0.00012906    0.00006430   -0.00140167
     atom  214 type  3   force =    -0.00012906   -0.00006430   -0.00140167
     atom  215 type  3   force =     0.00002842   -0.00011681   -0.00151281
     atom  216 type  3   force =    -0.00002842    0.00011681   -0.00151281
     atom  217 type  3   force =     0.00002842    0.00011681   -0.00151281
     atom  218 type  3   force =    -0.00002842   -0.00011681   -0.00151281
     atom  219 type  4   force =    -0.00007983    0.00058414    0.00233025
     atom  220 type  4   force =     0.00007983    0.00058414    0.00233025
     atom  221 type  4   force =    -0.00007983   -0.00058414    0.00233025
     atom  222 type  4   force =     0.00007983   -0.00058414    0.00233025
     atom  223 type  4   force =    -0.00028513    0.00000000    0.00174588
     atom  224 type  4   force =     0.00028513    0.00000000    0.00174588

     Total force =     0.382361     Total SCF correction =     0.000406

     Computing stress (Cartesian axis) and pressure

     negative rho (up, down):  6.301E-01 0.000E+00
          total   stress  (Ry/bohr**3)                   (kbar)     P=      -11.22
  -0.00000863  -0.00000000   0.00000000           -1.27       -0.00        0.00
   0.00000000   0.00000578   0.00000000            0.00        0.85        0.00
   0.00000000   0.00000000  -0.00022593            0.00        0.00      -33.24

     General routines

     Parallel routines

   This run was terminated on:  19:17: 6  17May2021

   JOB DONE.
[1621293426.570824] [holy7c08403:255955:0]          mpool.c:43   UCX  WARN  object 0x57562c0 was not returned to mpool ucp_requests
[1621293426.602773] [holy7c08312:201625:0]          mpool.c:43   UCX  WARN  object 0x629e740 was not returned to mpool ucp_requests
[1621293426.604636] [holy7c08312:201627:0]          mpool.c:43   UCX  WARN  object 0x2fddec0 was not returned to mpool ucp_requests
[1621293426.609174] [holy7c08312:201626:0]          mpool.c:43   UCX  WARN  object 0x312fcc0 was not returned to mpool ucp_requests
[1621293426.608893] [holy7c08411:221545:0]          mpool.c:43   UCX  WARN  object 0x4683780 was not returned to mpool ucp_requests
[1621293426.569183] [holy7c08403:255957:0]          mpool.c:43   UCX  WARN  object 0x470ac00 was not returned to mpool ucp_requests
[1621293426.570699] [holy7c08403:255956:0]          mpool.c:43   UCX  WARN  object 0x3bd6600 was not returned to mpool ucp_requests
[1621293426.570962] [holy7c08403:255958:0]          mpool.c:43   UCX  WARN  object 0x45505c0 was not returned to mpool ucp_requests
[1621293426.616439] [holy7c08312:201634:0]          mpool.c:43   UCX  WARN  object 0x51aec00 was not returned to mpool ucp_requests
[1621293426.616466] [holy7c08312:201634:0]          mpool.c:43   UCX  WARN  object 0x2fe57c0 was not returned to mpool ucp_requests
[1621293426.617850] [holy7c08312:201632:0]          mpool.c:43   UCX  WARN  object 0x3a30b00 was not returned to mpool ucp_requests
[1621293426.617346] [holy7c08412:7644 :0]          mpool.c:43   UCX  WARN  object 0x36386c0 was not returned to mpool ucp_requests
[1621293426.625629] [holy7c08312:201635:0]          mpool.c:43   UCX  WARN  object 0x4436740 was not returned to mpool ucp_requests
[1621293426.637372] [holy7c08312:201633:0]          mpool.c:43   UCX  WARN  object 0x2dde100 was not returned to mpool ucp_requests
[1621293426.615743] [holy7c08411:221551:0]          mpool.c:43   UCX  WARN  object 0x3f28400 was not returned to mpool ucp_requests
[1621293426.621112] [holy7c08411:221553:0]          mpool.c:43   UCX  WARN  object 0x2c9a980 was not returned to mpool ucp_requests
[1621293426.619911] [holy7c08411:221543:0]          mpool.c:43   UCX  WARN  object 0x42cee40 was not returned to mpool ucp_requests
[1621293426.619718] [holy7c08411:221544:0]          mpool.c:43   UCX  WARN  object 0x2caddc0 was not returned to mpool ucp_requests
[1621293426.621805] [holy7c08411:221546:0]          mpool.c:43   UCX  WARN  object 0x2c2df00 was not returned to mpool ucp_requests
[1621293426.627875] [holy7c08411:221552:0]          mpool.c:43   UCX  WARN  object 0x3b88700 was not returned to mpool ucp_requests
[1621293426.636473] [holy7c08411:221554:0]          mpool.c:43   UCX  WARN  object 0x4797140 was not returned to mpool ucp_requests
[1621293426.617107] [holy7c08501:258601:0]          mpool.c:43   UCX  WARN  object 0x438be40 was not returned to mpool ucp_requests
[1621293426.637894] [holy7c08501:258602:0]          mpool.c:43   UCX  WARN  object 0x30482c0 was not returned to mpool ucp_requests
[1621293426.617263] [holy7c08412:7635 :0]          mpool.c:43   UCX  WARN  object 0x2f91680 was not returned to mpool ucp_requests
[1621293426.617267] [holy7c08412:7627 :0]          mpool.c:43   UCX  WARN  object 0x31dd600 was not returned to mpool ucp_requests
[1621293426.627119] [holy7c08412:7638 :0]          mpool.c:43   UCX  WARN  object 0x4352c40 was not returned to mpool ucp_requests
[1621293426.620050] [holy7c08412:7630 :0]          mpool.c:43   UCX  WARN  object 0x2b80cc0 was not returned to mpool ucp_requests
[1621293426.621640] [holy7c08412:7628 :0]          mpool.c:43   UCX  WARN  object 0x46dc4c0 was not returned to mpool ucp_requests
[1621293426.629627] [holy7c08412:7629 :0]          mpool.c:43   UCX  WARN  object 0x3adc700 was not returned to mpool ucp_requests
[1621293426.637827] [holy7c08412:7636 :0]          mpool.c:43   UCX  WARN  object 0x365f080 was not returned to mpool ucp_requests
[1621293426.632387] [holy7c08412:7643 :0]          mpool.c:43   UCX  WARN  object 0x2d489c0 was not returned to mpool ucp_requests
[1621293426.635029] [holy7c08412:7637 :0]          mpool.c:43   UCX  WARN  object 0x3239f40 was not returned to mpool ucp_requests