     Program PWSCF v.6.5 starts on 18May2021 at 21:15:42

     R & G space division:  proc/nbgrp/npool/nimage =      80
     Reading input from YBCO_CuO_cleave_5.0_sep.pwi
Warning: card &IONS ignored
Warning: card     ION_DYNAMICS = 'BFGS' ignored
Warning: card / ignored
Warning: card &CELL ignored
Warning: card     CELL_DYNAMICS = 'BFGS' ignored
Warning: card     PRESS_CONV_THR = 5 ignored
Warning: card / ignored

     Current dimensions of program PWSCF are:
     Max number of different atomic species (ntypx) = 10
     Max number of k-points (npk) =  40000
     Max angular momentum in pseudopotentials (lmaxx) =  3
     Message from routine volume:
     axis vectors are left-handed

     Message from routine setup:
     using ibrav=0 with symmetry is DISCOURAGED, use correct ibrav instead

     bravais-lattice index     =            0
     lattice parameter (alat)  =      20.5021  a.u.
     unit-cell volume          =   38505.5562 (a.u.)^3
     number of atoms/cell      =          224
     number of atomic types    =            5
     number of electrons       =      1830.00
     number of Kohn-Sham states=         1098
     kinetic-energy cutoff     =      60.0000  Ry
     charge density cutoff     =     720.0000  Ry
     convergence threshold     =      1.0E-08
     mixing beta               =       0.5000
     number of iterations used =           10  local-TF  mixing
     Exchange-correlation= SLA PW PBE PBE
                           (   1   4   3   4   0   0   0)

     celldm(1)=  20.502120  celldm(2)=   0.000000  celldm(3)=   0.000000
     celldm(4)=   0.000000  celldm(5)=   0.000000  celldm(6)=   0.000000

     crystal axes: (cart. coord. in units of alat)
               a(1) = (  -0.716599   0.697485   0.000000 )
               a(2) = (   0.716599   0.697485   0.000000 )
               a(3) = (   0.000000   0.000000   4.469776 )

     reciprocal axes: (cart. coord. in units 2 pi/alat)
               b(1) = ( -0.697740  0.716861  0.000000 )
               b(2) = (  0.697740  0.716861  0.000000 )
               b(3) = (  0.000000  0.000000  0.223725 )

     PseudoPot. # 1 for Ba read from file:
     ./pseudo/Ba.pbe-nsp-van.UPF
     MD5 check sum: 2b9c31dd849566dd297d80989662b7a0
     Pseudo is Ultrasoft + core correction, Zval = 10.0
     Generated by new atomic code, or converted to UPF format
     Using radial grid of  907 points,  6 beta functions with:
                l(1) =   0
                l(2) =   0
                l(3) =   1
                l(4) =   1
                l(5) =   2
                l(6) =   2
     Q(r) pseudized with  6 coefficients,  rinner =    1.200   1.200   1.200
                                                       1.200   1.200

     PseudoPot. # 2 for Ca read from file:
     ./pseudo/Ca.pbe-nsp-van.UPF
     MD5 check sum: 6471098428ff4fa451746d08035ff179
     Pseudo is Ultrasoft + core correction, Zval = 10.0
     Generated by new atomic code, or converted to UPF format
     Using radial grid of  845 points,  6 beta functions with:
                l(1) =   0
                l(2) =   0
                l(3) =   1
                l(4) =   1
                l(5) =   2
                l(6) =   2
     Q(r) pseudized with  6 coefficients,  rinner =    1.200   1.200   1.200
                                                       1.200   1.200

     PseudoPot. # 3 for Cu read from file:
     ./pseudo/Cu.pbe-n-van_ak.UPF
     MD5 check sum: 34e3282627ffb533726feb647e090d62
     Pseudo is Ultrasoft + core correction, Zval = 11.0
     Generated by new atomic code, or converted to UPF format
     Using radial grid of  867 points,  6 beta functions with:
                l(1) =   0
                l(2) =   0
                l(3) =   1
                l(4) =   1
                l(5) =   2
                l(6) =   2
     Q(r) pseudized with  8 coefficients,  rinner =    1.400   1.400   1.400
                                                       1.400   1.400

     PseudoPot. # 4 for O  read from file:
     ./pseudo/O.pbe-van_ak.UPF
     MD5 check sum: 783ce7fe4c79b6a4916957118fed0856
     Pseudo is Ultrasoft, Zval =  6.0
     Generated by new atomic code, or converted to UPF format
     Using radial grid of  737 points,  4 beta functions with:
                l(1) =   0
                l(2) =   0
                l(3) =   1
                l(4) =   1
     Q(r) pseudized with  8 coefficients,  rinner =    0.800   0.800   0.800

     PseudoPot. # 5 for Y  read from file:
     ./pseudo/Y.pbe-nsp-van.UPF
     MD5 check sum: 4412fed3ab108fed87a1b7d6a69a4a38
     Pseudo is Ultrasoft + core correction, Zval = 11.0
     Generated by new atomic code, or converted to UPF format
     Using radial grid of  885 points,  6 beta functions with:
                l(1) =   0
                l(2) =   0
                l(3) =   1
                l(4) =   1
                l(5) =   2
                l(6) =   2
     Q(r) pseudized with  6 coefficients,  rinner =    1.200   1.200   1.200
                                                       1.200   1.200

     atomic species   valence    mass     pseudopotential
        Ba            10.00   137.32700     Ba( 1.00)
        Ca            10.00    40.07800     Ca( 1.00)
        Cu            11.00    63.54600     Cu( 1.00)
        O              6.00    15.99900     O ( 1.00)
        Y             11.00    88.90584     Y ( 1.00)

      4 Sym. Ops. (no inversion) found ( 3 have fractional translation)

   Cartesian axes

     site n.     atom                  positions (alat units)
         1           O   tau(   1) = (   0.3545921   0.8718562  -0.0077406  )
         2           O   tau(   2) = (   0.0037072   0.8718562  -0.0077406  )
         3           Cu  tau(   3) = (  -0.0002581   0.0006065   0.0080789  )
         4           Cu  tau(   4) = (  -0.0002581   0.3481364   0.0080789  )
         5           Cu  tau(   5) = (   0.3585574   0.3481364   0.0080789  )
         6           Cu  tau(   6) = (  -0.3580421   0.6980913   0.0080789  )
         7           Cu  tau(   7) = (   0.3577988   0.6971373   0.0086255  )
         8           Cu  tau(   8) = (   0.0005005   1.0465760   0.0086255  )
         9           Cu  tau(   9) = (  -0.3588016   0.3490903   0.0086255  )
        10           Cu  tau(  10) = (   0.0005005   0.6971373   0.0086255  )
        11           O   tau(  11) = (  -0.0001733   0.5225410  -0.0089757  )
        12           O   tau(  12) = (   0.3584726   0.5225410  -0.0089757  )
        13           O   tau(  13) = (  -0.0001733   1.2211724  -0.0089757  )
        14           O   tau(  14) = (  -0.3581278   0.5236867  -0.0089757  )
        15           O   tau(  15) = (  -0.3544557   0.8718562  -0.0105593  )
        16           O   tau(  16) = (  -0.0038445   0.1743714  -0.0105593  )
        17           O   tau(  17) = (   0.3588818   0.3486599   0.1817056  )
        18           O   tau(  18) = (  -0.0005825   0.3486599   0.1817056  )
        19           O   tau(  19) = (  -0.0005825   0.0000830   0.1817056  )
        20           O   tau(  20) = (  -0.3577167   0.6975677   0.1817056  )
        21           O   tau(  21) = (   0.3584283   0.6967843   0.1825784  )
        22           O   tau(  22) = (  -0.3581712   0.3494443   0.1825784  )
        23           O   tau(  23) = (  -0.0001290   0.6967843   0.1825784  )
        24           O   tau(  24) = (  -0.0001290   1.0469291   0.1825784  )
        25           Ba  tau(  25) = (   0.1791506   0.8718562   0.1908537  )
        26           Ba  tau(  26) = (   0.5374498   0.5231143   0.1919901  )
        27           Ba  tau(  27) = (  -0.1791506   0.5231143   0.1919901  )
        28           Ba  tau(  28) = (  -0.1793773   0.8718562   0.1931958  )
        29           Ba  tau(  29) = (  -0.1789238   0.1743714   0.1931958  )
        30           Ba  tau(  30) = (   0.1791506   0.5222101   0.1929368  )
        31           Ba  tau(  31) = (  -0.5374498   0.5240176   0.1929368  )
        32           Ba  tau(  32) = (   0.1791506   0.1743714   0.1992469  )
        33           Cu  tau(  33) = (  -0.3583426   0.3488452   0.3777458  )
        34           Cu  tau(  34) = (   0.3582559   0.6973834   0.3777458  )
        35           Cu  tau(  35) = (   0.0000433   0.6973834   0.3777458  )
        36           Cu  tau(  36) = (   0.0000433   1.0463299   0.3777458  )
        37           Cu  tau(  37) = (  -0.3586541   0.6975060   0.3775126  )
        38           Cu  tau(  38) = (   0.3579444   0.3487217   0.3775126  )
        39           Cu  tau(  39) = (   0.0003549   0.0000212   0.3775126  )
        40           Cu  tau(  40) = (   0.0003549   0.3487217   0.3775126  )
        41           O   tau(  41) = (  -0.0047976   0.1743714   0.3996864  )
        42           O   tau(  42) = (  -0.3535026   0.8718562   0.3996864  )
        43           O   tau(  43) = (  -0.5374498   0.6924605   0.3956991  )
        44           O   tau(  44) = (   0.1791506   0.3537672   0.3956991  )
        45           O   tau(  45) = (   0.3586385   0.8718562   0.4046840  )
        46           O   tau(  46) = (  -0.0003392   0.8718562   0.4046840  )
        47           O   tau(  47) = (  -0.0004857   0.5230571   0.4066611  )
        48           O   tau(  48) = (   0.3587850   0.5230571   0.4066611  )
        49           O   tau(  49) = (  -0.3578135   0.5231714   0.4066611  )
        50           O   tau(  50) = (  -0.0004857   1.2206562   0.4066611  )
        51           O   tau(  51) = (   0.1791506   1.0461604   0.4028931  )
        52           O   tau(  52) = (   0.1791506   0.6975521   0.4028931  )
        53           O   tau(  53) = (  -0.1792261   0.6967170   0.4025963  )
        54           O   tau(  54) = (  -0.1790731   0.3495106   0.4025963  )
        55           O   tau(  55) = (  -0.1792261   1.0469964   0.4025963  )
        56           O   tau(  56) = (   0.5375263   0.6967170   0.4025963  )
        57           Ca  tau(  57) = (   0.1791506   0.1743714   0.5358617  )
        58           Y   tau(  58) = (  -0.1811525   0.8718562   0.5373908  )
        59           Y   tau(  59) = (  -0.1771467   0.1743714   0.5373908  )
        60           Y   tau(  60) = (   0.1791506   0.8718562   0.5379568  )
[...]
       210           O   tau( 210) = (   0.0037081   0.8718562   2.6249684  )
       211           Cu  tau( 211) = (  -0.0002516   0.0006074   2.6091645  )
       212           Cu  tau( 212) = (  -0.0002516   0.3481345   2.6091645  )
       213           Cu  tau( 213) = (   0.3585509   0.3481345   2.6091645  )
       214           Cu  tau( 214) = (  -0.3580476   0.6980931   2.6091645  )
       215           Cu  tau( 215) = (   0.3577960   0.6971373   2.6086179  )
       216           Cu  tau( 216) = (   0.0005033   1.0465760   2.6086179  )
       217           Cu  tau( 217) = (  -0.3588035   0.3490903   2.6086179  )
       218           Cu  tau( 218) = (   0.0005033   0.6971373   2.6086179  )
       219           O   tau( 219) = (  -0.0001724   0.5225410   2.6262072  )
       220           O   tau( 220) = (   0.3584716   0.5225410   2.6262072  )
       221           O   tau( 221) = (  -0.0001724   1.2211724   2.6262072  )
[...]
    -9.0418  -9.0284  -8.8866  -8.7620  -8.7563  -8.7527  -8.7481  -8.7427
    -8.7389  -8.6929  -8.6649  -8.6461  -8.6016  -8.5996  -8.5948  -8.5884
    -8.5868  -8.5844  -8.5808  -8.5409  -8.5242  -8.5176  -8.5051  -8.5025
    -8.5012  -8.4937  -8.4914  -8.4895  -8.4849  -8.4825  -8.4790  -8.4725
    -8.4641  -8.4615  -8.4602  -8.4491  -8.4489  -8.4432  -8.4405  -8.4378
    -8.4357  -8.4289  -8.4279  -8.4267  -8.4261  -8.4238  -8.4238  -8.4223
    -8.4148  -8.4143  -8.4116  -8.4093  -8.3991  -8.3947  -8.3511  -8.3206
    -8.3182  -8.2937  -8.2681  -8.2544  -8.2541  -8.2540  -8.2501  -8.2440
    -8.2316  -8.2179  -8.2033  -8.1915  -8.1909  -8.1779  -8.1667  -8.1454
    -8.1395  -8.1258  -8.1238  -8.0966  -8.0896  -8.0852  -8.0762  -8.0713
    -8.0668  -8.0628  -8.0532  -8.0531  -8.0478  -8.0350  -8.0005  -7.9505
    -7.9473  -7.9186  -7.9013  -7.8843  -7.8700  -7.8680  -7.6545  -7.6518
    -4.4859  -4.4170  -4.0674  -4.0135  -3.9957  -3.9920  -3.9497  -3.9266
    -3.8966  -3.8718  -3.6521  -3.6251  -3.5981  -3.5551  -3.5279  -3.4957
    -3.3702  -3.3525  -3.3306  -3.3126  -3.3015  -3.2775  -3.2665  -3.2486
    -3.2308  -3.2255  -3.2046  -3.1915  -3.1837  -3.1006  -3.0780  -3.0741
    -3.0072  -2.9829  -2.8767  -2.8674  -2.8462  -2.8147  -2.8051  -2.8016
    -2.7952  -2.7929  -2.7893  -2.7863  -2.7773  -2.7671  -2.7157  -2.7108
    -2.7076  -2.6625  -2.6386  -2.6306  -2.5891  -2.5787  -2.5766  -2.5734
    -2.5686  -2.5571  -2.5427  -2.5268  -2.5262  -2.5205  -2.5165  -2.5126
    -2.5121  -2.4934  -2.4876  -2.4855  -2.4848  -2.4723  -2.4697  -2.4559
    -2.4558  -2.4473  -2.4325  -2.4159  -2.4097  -2.4083  -2.4061  -2.4021
    -2.3767  -2.3740  -2.3734  -2.3716  -2.3542  -2.3377  -2.3323  -2.3300
    -2.3273  -2.3250  -2.3238  -2.3160  -2.3114  -2.3067  -2.3063  -2.3052
    -2.2955  -2.2946  -2.2778  -2.2764  -2.2574  -2.2544  -2.2522  -2.2463
    -2.2361  -2.2279  -2.2256  -2.2074  -2.2062  -2.2004  -2.1990  -2.1928
    -2.1738  -2.1689  -2.1681  -2.1658  -2.1633  -2.1496  -2.1404  -2.1328
    -2.1289  -2.1193  -2.1188  -2.1084  -2.0935  -2.0893  -2.0724  -2.0605
    -2.0499  -2.0236  -2.0199  -1.9375  -1.8025  -1.7651  -1.7394  -1.7294
    -1.7035  -1.6703  -1.6311  -1.5325  -1.5243  -1.5084  -1.5056  -1.4758
    -1.4569  -1.4408  -1.4287  -1.4176  -1.4171  -1.4047  -1.4029  -1.3968
    -1.3930  -1.3762  -1.3737  -1.3722  -1.3622  -1.3593  -1.3523  -1.3426
    -1.3344  -1.3186  -1.3044  -1.2906  -1.2880  -1.2862  -1.2816  -1.2720
[...]
     6.5574   6.5584   6.5721   6.5816   6.5829   6.6201   6.6312   6.6559
     6.7395   6.7548   6.8095   6.8376   6.8499   6.8673   6.9097   6.9257
     7.2352   7.2375   7.3105   7.3435   7.3845   7.3863   7.4043   7.4101
     7.4236   7.4262   7.4308   7.4379   7.4464   7.4552   7.4772   7.4862
     7.4885   7.4886   7.5050   7.5172   7.5393   7.5519   7.5840   7.5973
     7.6036   7.6236   7.6354   7.6936   7.7235   7.7403   7.7926   7.8069
     7.8136   7.8522   7.8629   7.8848   7.8978   7.9124   7.9166   7.9205
     7.9305   7.9397   7.9414   7.9416   7.9743   8.0476   8.0605   8.0904
     8.1046   8.1265   8.2052   8.2060   8.2285   8.2454   8.2583   8.2765
     8.3169   8.3220   8.3286   8.3585   8.3930   8.4243   8.4485   8.5096
     8.5312   8.5329   8.5399   8.5592   8.5704   8.6027   8.6184   8.6196
     8.6317   8.6437   8.6589   8.6659   8.6684   8.6791   8.6791   8.6984
     8.7117   8.7205   8.7265   8.7377   8.7468   8.7656   8.7715   8.7912
     8.7937   8.7976   8.8096   8.8331   8.8462   8.8509   8.8688   8.8942
     8.9166   8.9222

     the Fermi energy is     2.4034 ev

!    total energy              =  -14923.86298812 Ry
     Harris-Foulkes estimate   =  -14923.86298815 Ry
     estimated scf accuracy    <          4.2E-09 Ry

     The total energy is the sum of the following terms:

     one-electron contribution = -186629.88154624 Ry
     hartree contribution      =   94514.52428785 Ry
     xc contribution           =   -5117.03715093 Ry
     ewald contribution        =   82308.60325140 Ry
     smearing contrib. (-TS)   =      -0.07183021 Ry

     convergence has been achieved in  44 iterations

     negative rho (up, down):  6.347E-01 0.000E+00

     Forces acting on atoms (cartesian axes, Ry/au):

     atom    1 type  4   force =     0.00009325    0.00000000   -0.00044523
     atom    2 type  4   force =    -0.00009325    0.00000000   -0.00044523
     atom    3 type  3   force =     0.00008592   -0.00003553    0.00021533
     atom    4 type  3   force =     0.00008592    0.00003553    0.00021533
     atom    5 type  3   force =    -0.00008592    0.00003553    0.00021533
     atom    6 type  3   force =    -0.00008592   -0.00003553    0.00021533
     atom    7 type  3   force =    -0.00000115   -0.00000483   -0.00001092
     atom    8 type  3   force =     0.00000115    0.00000483   -0.00001092
     atom    9 type  3   force =    -0.00000115    0.00000483   -0.00001092
     atom   10 type  3   force =     0.00000115   -0.00000483   -0.00001092
     atom   11 type  4   force =    -0.00011318    0.00005602   -0.00045970
     atom   12 type  4   force =     0.00011318    0.00005602   -0.00045970
     atom   13 type  4   force =    -0.00011318   -0.00005602   -0.00045970
     atom   14 type  4   force =     0.00011318   -0.00005602   -0.00045970
     atom   15 type  4   force =    -0.00014131    0.00000000   -0.00055421
     atom   16 type  4   force =     0.00014131    0.00000000   -0.00055421
     atom   17 type  4   force =    -0.00000044    0.00005647    0.00065241
     atom   18 type  4   force =     0.00000044    0.00005647    0.00065241
     atom   19 type  4   force =     0.00000044   -0.00005647    0.00065241
     atom   20 type  4   force =    -0.00000044   -0.00005647    0.00065241
     atom   21 type  4   force =     0.00003993    0.00004460    0.00085643
     atom   22 type  4   force =     0.00003993   -0.00004460    0.00085643
     atom   23 type  4   force =    -0.00003993    0.00004460    0.00085643
     atom   24 type  4   force =    -0.00003993   -0.00004460    0.00085643
     atom   25 type  1   force =     0.00000000    0.00000000   -0.00020019
     atom   26 type  1   force =     0.00000000    0.00000000   -0.00032813
     atom   27 type  1   force =     0.00000000    0.00000000   -0.00032813
     atom   28 type  1   force =    -0.00015638    0.00000000   -0.00019826
     atom   29 type  1   force =     0.00015638    0.00000000   -0.00019826
     atom   30 type  1   force =     0.00000000    0.00012131   -0.00044573
     atom   31 type  1   force =     0.00000000   -0.00012131   -0.00044573
     atom   32 type  1   force =     0.00000000    0.00000000   -0.00033703
     atom   33 type  3   force =    -0.00004299   -0.00001016   -0.00054906
     atom   34 type  3   force =    -0.00004299    0.00001016   -0.00054906
     atom   35 type  3   force =     0.00004299    0.00001016   -0.00054906
     atom   36 type  3   force =     0.00004299   -0.00001016   -0.00054906
     atom   37 type  3   force =     0.00002399   -0.00004815   -0.00054518
     atom   38 type  3   force =     0.00002399    0.00004815   -0.00054518
     atom   39 type  3   force =    -0.00002399   -0.00004815   -0.00054518
     atom   40 type  3   force =    -0.00002399    0.00004815   -0.00054518
     atom   41 type  4   force =    -0.00040875    0.00000000    0.00147966
     atom   42 type  4   force =     0.00040875    0.00000000    0.00147966
     atom   43 type  4   force =     0.00000000   -0.00010701    0.00136275
     atom   44 type  4   force =     0.00000000    0.00010701    0.00136275
     atom   45 type  4   force =     0.00006993    0.00000000    0.00171924
     atom   46 type  4   force =    -0.00006993    0.00000000    0.00171924
     atom   47 type  4   force =    -0.00001781   -0.00010627    0.00173599
     atom   48 type  4   force =     0.00001781   -0.00010627    0.00173599
     atom   49 type  4   force =     0.00001781    0.00010627    0.00173599
     atom   50 type  4   force =    -0.00001781    0.00010627    0.00173599
     atom   51 type  4   force =     0.00000000   -0.00002539    0.00135668
     atom   52 type  4   force =     0.00000000    0.00002539    0.00135668
     atom   53 type  4   force =     0.00002924    0.00003712    0.00157338
     atom   54 type  4   force =    -0.00002924   -0.00003712    0.00157338
     atom   55 type  4   force =     0.00002924   -0.00003712    0.00157338
     atom   56 type  4   force =    -0.00002924    0.00003712    0.00157338
     atom   57 type  2   force =     0.00000000    0.00000000   -0.00327390
     atom   58 type  5   force =     0.00053620    0.00000000   -0.00552125
     atom   59 type  5   force =    -0.00053620    0.00000000   -0.00552125
     atom   60 type  5   force =     0.00000000    0.00000000   -0.00479212
[...]
     atom  210 type  4   force =    -0.00006182    0.00000000   -0.00007805
     atom  211 type  3   force =     0.00008796   -0.00004696    0.00060807
     atom  212 type  3   force =     0.00008796    0.00004696    0.00060807
     atom  213 type  3   force =    -0.00008796    0.00004696    0.00060807
     atom  214 type  3   force =    -0.00008796   -0.00004696    0.00060807
     atom  215 type  3   force =     0.00000355   -0.00003211    0.00083701
     atom  216 type  3   force =    -0.00000355    0.00003211    0.00083701
     atom  217 type  3   force =     0.00000355    0.00003211    0.00083701
     atom  218 type  3   force =    -0.00000355   -0.00003211    0.00083701
     atom  219 type  4   force =    -0.00010392    0.00021467   -0.00000014
     atom  220 type  4   force =     0.00010392    0.00021467   -0.00000014
     atom  221 type  4   force =    -0.00010392   -0.00021467   -0.00000014
     atom  222 type  4   force =     0.00010392   -0.00021467   -0.00000014
     atom  223 type  4   force =    -0.00011156    0.00000000    0.00005489
     atom  224 type  4   force =     0.00011156    0.00000000    0.00005489

     Total force =     0.155866     Total SCF correction =     0.000293

     Computing stress (Cartesian axis) and pressure

     negative rho (up, down):  6.347E-01 0.000E+00
          total   stress  (Ry/bohr**3)                   (kbar)     P=       -6.36
  -0.00000346   0.00000000   0.00000000           -0.51        0.00        0.00
   0.00000000  -0.00010046   0.00000000            0.00      -14.78        0.00
   0.00000000   0.00000000  -0.00002583            0.00        0.00       -3.80

     General routines

     Parallel routines

   This run was terminated on:  22:54:36  18May2021

   JOB DONE.
[1621392876.594758] [holy7c08307:276750:0]          mpool.c:43   UCX  WARN  object 0x3cbdc80 was not returned to mpool ucp_requests
[1621392876.612296] [holy7c08212:113248:0]          mpool.c:43   UCX  WARN  object 0x43b1a40 was not returned to mpool ucp_requests
[1621392876.596609] [holy7c08307:276752:0]          mpool.c:43   UCX  WARN  object 0x3f4b640 was not returned to mpool ucp_requests
[1621392876.601513] [holy7c08307:276759:0]          mpool.c:43   UCX  WARN  object 0x3b4bfc0 was not returned to mpool ucp_requests
[1621392876.602141] [holy7c08307:276758:0]          mpool.c:43   UCX  WARN  object 0x44461c0 was not returned to mpool ucp_requests
[1621392876.607897] [holy7c08307:276757:0]          mpool.c:43   UCX  WARN  object 0x4734380 was not returned to mpool ucp_requests
[1621392876.609194] [holy7c08307:276751:0]          mpool.c:43   UCX  WARN  object 0x5cdb3c0 was not returned to mpool ucp_requests
[1621392876.608736] [holy7c08307:276749:0]          mpool.c:43   UCX  WARN  object 0x454c100 was not returned to mpool ucp_requests
[1621392876.632169] [holy7c08209:261928:0]          mpool.c:43   UCX  WARN  object 0x5550b80 was not returned to mpool ucp_requests
[1621392876.632193] [holy7c08209:261928:0]          mpool.c:43   UCX  WARN  object 0x3d06780 was not returned to mpool ucp_requests
[1621392876.632196] [holy7c08209:261928:0]          mpool.c:43   UCX  WARN  object 0x3d07900 was not returned to mpool ucp_requests
[1621392876.617073] [holy7c08212:113247:0]          mpool.c:43   UCX  WARN  object 0x35268c0 was not returned to mpool ucp_requests
[1621392876.620571] [holy7c08212:113257:0]          mpool.c:43   UCX  WARN  object 0x38bf240 was not returned to mpool ucp_requests
[1621392876.620458] [holy7c08212:113255:0]          mpool.c:43   UCX  WARN  object 0x38e5840 was not returned to mpool ucp_requests
[1621392876.624335] [holy7c08212:113249:0]          mpool.c:43   UCX  WARN  object 0x4622f00 was not returned to mpool ucp_requests
[1621392876.625966] [holy7c08212:113250:0]          mpool.c:43   UCX  WARN  object 0x39b10c0 was not returned to mpool ucp_requests
[1621392876.630276] [holy7c08212:113256:0]          mpool.c:43   UCX  WARN  object 0x28c1a80 was not returned to mpool ucp_requests
[1621392876.632122] [holy7c08212:113258:0]          mpool.c:43   UCX  WARN  object 0x4791100 was not returned to mpool ucp_requests
[1621392876.630026] [holy7c08411:75606:0]          mpool.c:43   UCX  WARN  object 0x31b33c0 was not returned to mpool ucp_requests
[1621392876.645067] [holy7c08111:39608:0]          mpool.c:43   UCX  WARN  object 0x2cc6d40 was not returned to mpool ucp_requests
[1621392876.649765] [holy7c08111:39613:0]          mpool.c:43   UCX  WARN  object 0x44513c0 was not returned to mpool ucp_requests
[1621392876.649789] [holy7c08111:39613:0]          mpool.c:43   UCX  WARN  object 0x4456ec0 was not returned to mpool ucp_requests
[1621392876.640969] [holy7c08209:261921:0]          mpool.c:43   UCX  WARN  object 0x2e74c40 was not returned to mpool ucp_requests
[1621392876.640995] [holy7c08209:261921:0]          mpool.c:43   UCX  WARN  object 0x2e76680 was not returned to mpool ucp_requests
[1621392876.640999] [holy7c08209:261921:0]          mpool.c:43   UCX  WARN  object 0x2e80cc0 was not returned to mpool ucp_requests
[1621392876.641016] [holy7c08209:261919:0]          mpool.c:43   UCX  WARN  object 0x4bc2dc0 was not returned to mpool ucp_requests
[1621392876.641044] [holy7c08209:261919:0]          mpool.c:43   UCX  WARN  object 0x29199c0 was not returned to mpool ucp_requests
[1621392876.641048] [holy7c08209:261919:0]          mpool.c:43   UCX  WARN  object 0x291d000 was not returned to mpool ucp_requests
[1621392876.636659] [holy7c08209:261927:0]          mpool.c:43   UCX  WARN  object 0x3f2a780 was not returned to mpool ucp_requests
[1621392876.636686] [holy7c08209:261927:0]          mpool.c:43   UCX  WARN  object 0x3f31b00 was not returned to mpool ucp_requests
[1621392876.636690] [holy7c08209:261927:0]          mpool.c:43   UCX  WARN  object 0x3f369c0 was not returned to mpool ucp_requests
[1621392876.636539] [holy7c08209:261930:0]          mpool.c:43   UCX  WARN  object 0x2e06140 was not returned to mpool ucp_requests
[1621392876.640794] [holy7c08209:261920:0]          mpool.c:43   UCX  WARN  object 0x44985c0 was not returned to mpool ucp_requests
[1621392876.640817] [holy7c08209:261920:0]          mpool.c:43   UCX  WARN  object 0x449bdc0 was not returned to mpool ucp_requests
[1621392876.640820] [holy7c08209:261920:0]          mpool.c:43   UCX  WARN  object 0x449dd40 was not returned to mpool ucp_requests
[1621392876.641145] [holy7c08209:261922:0]          mpool.c:43   UCX  WARN  object 0x3f1f040 was not returned to mpool ucp_requests
[1621392876.653380] [holy7c08111:39607:0]          mpool.c:43   UCX  WARN  object 0x6b3a640 was not returned to mpool ucp_requests
[1621392876.660115] [holy7c08111:39615:0]          mpool.c:43   UCX  WARN  object 0x2be5fc0 was not returned to mpool ucp_requests
[1621392876.660137] [holy7c08111:39615:0]          mpool.c:43   UCX  WARN  object 0x2bea400 was not returned to mpool ucp_requests
[1621392876.656860] [holy7c08111:39616:0]          mpool.c:43   UCX  WARN  object 0x4599b00 was not returned to mpool ucp_requests
[1621392876.656883] [holy7c08111:39616:0]          mpool.c:43   UCX  WARN  object 0x459df40 was not returned to mpool ucp_requests
[1621392876.659343] [holy7c08111:39614:0]          mpool.c:43   UCX  WARN  object 0x5d94c80 was not returned to mpool ucp_requests
[1621392876.659369] [holy7c08111:39614:0]          mpool.c:43   UCX  WARN  object 0x4576940 was not returned to mpool ucp_requests
[1621392876.658177] [holy7c08111:39606:0]          mpool.c:43   UCX  WARN  object 0x4075500 was not returned to mpool ucp_requests
[1621392876.647105] [holy7c08209:261929:0]          mpool.c:43   UCX  WARN  object 0x4b61040 was not returned to mpool ucp_requests
[1621392876.647130] [holy7c08209:261929:0]          mpool.c:43   UCX  WARN  object 0x4b61e40 was not returned to mpool ucp_requests
[1621392876.647134] [holy7c08209:261929:0]          mpool.c:43   UCX  WARN  object 0x32d2640 was not returned to mpool ucp_requests