     Program PWSCF v.6.5 starts on 17May2021 at 21: 0: 8

     R & G space division:  proc/nbgrp/npool/nimage =      80
     Reading input from YBCO_BaO_cleave_2.0_sep.pwi
Warning: card &IONS ignored
Warning: card     ION_DYNAMICS = 'BFGS' ignored
Warning: card / ignored
Warning: card &CELL ignored
Warning: card     CELL_DYNAMICS = 'BFGS' ignored
Warning: card     PRESS_CONV_THR = 5 ignored
Warning: card / ignored

     Current dimensions of program PWSCF are:
     Max number of different atomic species (ntypx) = 10
     Max number of k-points (npk) =  40000
     Max angular momentum in pseudopotentials (lmaxx) =  3
     Message from routine volume:
     axis vectors are left-handed

     Message from routine setup:
     using ibrav=0 with symmetry is DISCOURAGED, use correct ibrav instead

     bravais-lattice index     =            0
     lattice parameter (alat)  =      20.5021  a.u.
     unit-cell volume          =   36123.4618 (a.u.)^3
     number of atoms/cell      =          224
     number of atomic types    =            5
     number of electrons       =      1830.00
     number of Kohn-Sham states=         1098
     kinetic-energy cutoff     =      60.0000  Ry
     charge density cutoff     =     720.0000  Ry
     convergence threshold     =      1.0E-08
     mixing beta               =       0.5000
     number of iterations used =           10  local-TF  mixing
     Exchange-correlation= SLA PW PBE PBE
                           (   1   4   3   4   0   0   0)

     celldm(1)=  20.502120  celldm(2)=   0.000000  celldm(3)=   0.000000
     celldm(4)=   0.000000  celldm(5)=   0.000000  celldm(6)=   0.000000

     crystal axes: (cart. coord. in units of alat)
               a(1) = (  -0.716599   0.697485   0.000000 )
               a(2) = (   0.716599   0.697485   0.000000 )
               a(3) = (   0.000000   0.000000   4.193260 )

     reciprocal axes: (cart. coord. in units 2 pi/alat)
               b(1) = ( -0.697740  0.716861  0.000000 )
               b(2) = (  0.697740  0.716861  0.000000 )
               b(3) = (  0.000000  0.000000  0.238478 )

     PseudoPot. # 1 for Ba read from file:
     ./pseudo/Ba.pbe-nsp-van.UPF
     MD5 check sum: 2b9c31dd849566dd297d80989662b7a0
     Pseudo is Ultrasoft + core correction, Zval = 10.0
     Generated by new atomic code, or converted to UPF format
     Using radial grid of  907 points,  6 beta functions with:
                l(1) =   0
                l(2) =   0
                l(3) =   1
                l(4) =   1
                l(5) =   2
                l(6) =   2
     Q(r) pseudized with  6 coefficients,  rinner =    1.200   1.200   1.200
                                                       1.200   1.200

     PseudoPot. # 2 for Ca read from file:
     ./pseudo/Ca.pbe-nsp-van.UPF
     MD5 check sum: 6471098428ff4fa451746d08035ff179
     Pseudo is Ultrasoft + core correction, Zval = 10.0
     Generated by new atomic code, or converted to UPF format
     Using radial grid of  845 points,  6 beta functions with:
                l(1) =   0
                l(2) =   0
                l(3) =   1
                l(4) =   1
                l(5) =   2
                l(6) =   2
     Q(r) pseudized with  6 coefficients,  rinner =    1.200   1.200   1.200
                                                       1.200   1.200

     PseudoPot. # 3 for Cu read from file:
     ./pseudo/Cu.pbe-n-van_ak.UPF
     MD5 check sum: 34e3282627ffb533726feb647e090d62
     Pseudo is Ultrasoft + core correction, Zval = 11.0
     Generated by new atomic code, or converted to UPF format
     Using radial grid of  867 points,  6 beta functions with:
                l(1) =   0
                l(2) =   0
                l(3) =   1
                l(4) =   1
                l(5) =   2
                l(6) =   2
     Q(r) pseudized with  8 coefficients,  rinner =    1.400   1.400   1.400
                                                       1.400   1.400

     PseudoPot. # 4 for O  read from file:
     ./pseudo/O.pbe-van_ak.UPF
     MD5 check sum: 783ce7fe4c79b6a4916957118fed0856
     Pseudo is Ultrasoft, Zval =  6.0
     Generated by new atomic code, or converted to UPF format
     Using radial grid of  737 points,  4 beta functions with:
                l(1) =   0
                l(2) =   0
                l(3) =   1
                l(4) =   1
     Q(r) pseudized with  8 coefficients,  rinner =    0.800   0.800   0.800

     PseudoPot. # 5 for Y  read from file:
     ./pseudo/Y.pbe-nsp-van.UPF
     MD5 check sum: 4412fed3ab108fed87a1b7d6a69a4a38
     Pseudo is Ultrasoft + core correction, Zval = 11.0
     Generated by new atomic code, or converted to UPF format
     Using radial grid of  885 points,  6 beta functions with:
                l(1) =   0
                l(2) =   0
                l(3) =   1
                l(4) =   1
                l(5) =   2
                l(6) =   2
     Q(r) pseudized with  6 coefficients,  rinner =    1.200   1.200   1.200
                                                       1.200   1.200

     atomic species   valence    mass     pseudopotential
        Ba            10.00   137.32700     Ba( 1.00)
        Ca            10.00    40.07800     Ca( 1.00)
        Cu            11.00    63.54600     Cu( 1.00)
        O              6.00    15.99900     O ( 1.00)
        Y             11.00    88.90584     Y ( 1.00)

      4 Sym. Ops. (no inversion) found ( 3 have fractional translation)

   Cartesian axes

     site n.     atom                  positions (alat units)
         1           O   tau(   1) = (   0.3545921   0.8718562  -0.0077406  )
         2           O   tau(   2) = (   0.0037072   0.8718562  -0.0077406  )
         3           Cu  tau(   3) = (  -0.0002581   0.0006065   0.0080789  )
         4           Cu  tau(   4) = (  -0.0002581   0.3481364   0.0080789  )
         5           Cu  tau(   5) = (   0.3585574   0.3481364   0.0080789  )
         6           Cu  tau(   6) = (  -0.3580421   0.6980913   0.0080789  )
         7           Cu  tau(   7) = (   0.3577988   0.6971373   0.0086255  )
         8           Cu  tau(   8) = (   0.0005005   1.0465760   0.0086255  )
         9           Cu  tau(   9) = (  -0.3588016   0.3490903   0.0086255  )
        10           Cu  tau(  10) = (   0.0005005   0.6971373   0.0086255  )
        11           O   tau(  11) = (  -0.0001733   0.5225410  -0.0089757  )
        12           O   tau(  12) = (   0.3584726   0.5225410  -0.0089757  )
        13           O   tau(  13) = (  -0.0001733   1.2211724  -0.0089757  )
        14           O   tau(  14) = (  -0.3581278   0.5236867  -0.0089757  )
        15           O   tau(  15) = (  -0.3544557   0.8718562  -0.0105593  )
        16           O   tau(  16) = (  -0.0038445   0.1743714  -0.0105593  )
        17           O   tau(  17) = (   0.3588818   0.3486599   0.1817056  )
        18           O   tau(  18) = (  -0.0005825   0.3486599   0.1817056  )
        19           O   tau(  19) = (  -0.0005825   0.0000830   0.1817056  )
        20           O   tau(  20) = (  -0.3577167   0.6975677   0.1817056  )
        21           O   tau(  21) = (   0.3584283   0.6967843   0.1825784  )
        22           O   tau(  22) = (  -0.3581712   0.3494443   0.1825784  )
        23           O   tau(  23) = (  -0.0001290   0.6967843   0.1825784  )
        24           O   tau(  24) = (  -0.0001290   1.0469291   0.1825784  )
        25           Ba  tau(  25) = (   0.1791506   0.8718562   0.1908537  )
        26           Ba  tau(  26) = (   0.5374498   0.5231143   0.1919901  )
        27           Ba  tau(  27) = (  -0.1791506   0.5231143   0.1919901  )
        28           Ba  tau(  28) = (  -0.1793773   0.8718562   0.1931958  )
        29           Ba  tau(  29) = (  -0.1789238   0.1743714   0.1931958  )
        30           Ba  tau(  30) = (   0.1791506   0.5222101   0.1929368  )
        31           Ba  tau(  31) = (  -0.5374498   0.5240176   0.1929368  )
        32           Ba  tau(  32) = (   0.1791506   0.1743714   0.1992469  )
        33           Cu  tau(  33) = (  -0.3583426   0.3488452   0.3777458  )
        34           Cu  tau(  34) = (   0.3582559   0.6973834   0.3777458  )
        35           Cu  tau(  35) = (   0.0000433   0.6973834   0.3777458  )
        36           Cu  tau(  36) = (   0.0000433   1.0463299   0.3777458  )
        37           Cu  tau(  37) = (  -0.3586541   0.6975060   0.3775126  )
        38           Cu  tau(  38) = (   0.3579444   0.3487217   0.3775126  )
        39           Cu  tau(  39) = (   0.0003549   0.0000212   0.3775126  )
        40           Cu  tau(  40) = (   0.0003549   0.3487217   0.3775126  )
        41           O   tau(  41) = (  -0.0047976   0.1743714   0.3996864  )
        42           O   tau(  42) = (  -0.3535026   0.8718562   0.3996864  )
        43           O   tau(  43) = (  -0.5374498   0.6924605   0.3956991  )
        44           O   tau(  44) = (   0.1791506   0.3537672   0.3956991  )
        45           O   tau(  45) = (   0.3586385   0.8718562   0.4046840  )
        46           O   tau(  46) = (  -0.0003392   0.8718562   0.4046840  )
        47           O   tau(  47) = (  -0.0004857   0.5230571   0.4066611  )
        48           O   tau(  48) = (   0.3587850   0.5230571   0.4066611  )
        49           O   tau(  49) = (  -0.3578135   0.5231714   0.4066611  )
        50           O   tau(  50) = (  -0.0004857   1.2206562   0.4066611  )
        51           O   tau(  51) = (   0.1791506   1.0461604   0.4028931  )
        52           O   tau(  52) = (   0.1791506   0.6975521   0.4028931  )
        53           O   tau(  53) = (  -0.1792261   0.6967170   0.4025963  )
        54           O   tau(  54) = (  -0.1790731   0.3495106   0.4025963  )
        55           O   tau(  55) = (  -0.1792261   1.0469964   0.4025963  )
        56           O   tau(  56) = (   0.5375263   0.6967170   0.4025963  )
        57           Ca  tau(  57) = (   0.1791506   0.1743714   0.5358617  )
        58           Y   tau(  58) = (  -0.1811525   0.8718562   0.5373908  )
        59           Y   tau(  59) = (  -0.1771467   0.1743714   0.5373908  )
        60           Y   tau(  60) = (   0.1791506   0.8718562   0.5379568  )
[...]
       210           O   tau( 210) = (   0.0037081   0.8718562   2.3484517  )
       211           Cu  tau( 211) = (  -0.0002516   0.0006074   2.3326478  )
       212           Cu  tau( 212) = (  -0.0002516   0.3481345   2.3326478  )
       213           Cu  tau( 213) = (   0.3585509   0.3481345   2.3326478  )
       214           Cu  tau( 214) = (  -0.3580476   0.6980931   2.3326478  )
       215           Cu  tau( 215) = (   0.3577960   0.6971373   2.3321012  )
       216           Cu  tau( 216) = (   0.0005033   1.0465760   2.3321012  )
       217           Cu  tau( 217) = (  -0.3588035   0.3490903   2.3321012  )
       218           Cu  tau( 218) = (   0.0005033   0.6971373   2.3321012  )
       219           O   tau( 219) = (  -0.0001724   0.5225410   2.3496905  )
       220           O   tau( 220) = (   0.3584716   0.5225410   2.3496905  )
       221           O   tau( 221) = (  -0.0001724   1.2211724   2.3496905  )
[...]
   -22.5769 -22.5613 -22.5592 -22.5541 -22.5478 -22.5400 -22.5381 -22.5328
   -22.5147 -22.5038 -22.4934 -22.4693 -22.4512 -22.3327 -22.3018 -22.2216
   -18.6711 -18.5980 -18.5923 -18.5662 -18.5433 -18.5044 -18.4671 -18.4558
   -18.4107 -18.4016 -18.3940 -18.3738 -18.3723 -18.3653 -18.3475 -18.3416
   -18.3250 -18.2912 -18.2663 -18.2531 -18.2458 -18.2303 -18.2052 -18.1859
   -18.1809 -18.1658 -18.1601 -18.1377 -18.1290 -18.1182 -18.1123 -18.1030
   -18.0626 -18.0593 -17.9900 -17.9753 -17.9574 -17.9330 -17.9302 -17.8984
   -17.8555 -17.7963 -16.8897 -16.8611 -16.8544 -16.5329 -16.5328 -16.5104
   -15.2365 -15.0486 -15.0277 -14.9783 -14.8644 -14.8537 -14.8127 -14.8032
   -14.7399 -14.7242 -14.7114 -14.7022 -14.6789 -14.6394 -14.5978 -14.5885
   -14.5844 -14.5745 -14.5637 -14.5550 -14.5475 -14.5302 -14.5234 -14.5221
   -14.5128 -14.4936 -14.4736 -14.4462 -14.4441 -14.4222 -14.4182 -14.4133
   -14.3802 -14.3741 -14.3708 -14.3503 -14.3464 -14.3424 -14.3420 -14.3346
   -14.3221 -14.3199 -14.3195 -14.3035 -14.2871 -14.2711 -14.2710 -14.2366
   -14.2279 -14.2207 -14.2006 -14.1910 -14.1875 -14.1873 -14.1786 -14.1769
   -14.1597 -14.1582 -14.1417 -14.1405 -14.1323 -14.1174 -14.1083 -14.0917
   -14.0722 -14.0715 -14.0671 -14.0476 -14.0182 -14.0115 -14.0029 -13.9921
   -13.9832 -13.9675 -13.9594 -13.9441 -13.9137 -13.8535 -13.8415 -13.8408
   -13.8228 -13.7816 -13.7744 -13.7729 -13.7712 -13.7692 -13.7632 -13.7531
   -13.7524 -13.7519 -13.7517 -13.7513 -13.7408 -13.7366 -13.7197 -13.7030
   -13.7027 -13.7014 -13.6998 -13.6996 -13.6722 -13.6676 -13.6669 -13.6666
   -13.6606 -13.6600 -13.6574 -13.6541 -13.6442 -13.6432 -13.6392 -13.6054
   -13.5999 -13.5838 -13.5774 -13.5637 -13.5202 -13.4820 -13.4649 -13.4355
    -9.2873  -9.2801  -9.0639  -8.9766  -8.9666  -8.9596  -8.9196  -8.8913
    -8.8318  -8.8030  -8.7594  -8.7223  -8.6795  -8.6699  -8.6063  -8.5857
    -8.4896  -8.4870  -8.4687  -8.4591  -8.3892  -8.3866  -8.3155  -8.3001
    -8.2701  -8.2096  -8.2078  -8.2039  -8.2003  -8.1887  -8.1833  -8.1806
    -8.1130  -8.0495  -8.0418  -8.0288  -7.9874  -7.9805  -7.9635  -7.9634
    -7.9598  -7.9516  -7.9413  -7.9392  -7.9283  -7.9238  -7.9171  -7.9129
    -7.9074  -7.8965  -7.8953  -7.8882  -7.8862  -7.8851  -7.8838  -7.8825
    -7.8758  -7.8740  -7.8728  -7.8711  -7.8680  -7.8647  -7.8610  -7.8599
    -7.8552  -7.8497  -7.8435  -7.8388  -7.7166  -7.7155  -7.7021  -7.7020
    -7.6955  -7.6822  -7.6791  -7.6592  -7.6472  -7.6391  -7.6365  -7.6183
    -7.5964  -7.5871  -7.5674  -7.5329  -7.5314  -7.5237  -7.5143  -7.5127
    -7.5037  -7.4933  -7.4248  -7.4246  -7.3733  -7.3435  -7.2933  -7.2431
    -3.8882  -3.7579  -3.4701  -3.4190  -3.3874  -3.3425  -3.3399  -3.3090
    -3.2522  -3.1834  -3.0979  -3.0619  -3.0212  -3.0042  -2.9913  -2.8270
    -2.8214  -2.7826  -2.7823  -2.7427  -2.7264  -2.6981  -2.6747  -2.6663
    -2.6511  -2.6380  -2.6061  -2.5950  -2.5662  -2.4932  -2.4702  -2.3239
    -2.3217  -2.3173  -2.2922  -2.2734  -2.2559  -2.2521  -2.2432  -2.2391
    -2.2291  -2.2208  -2.2095  -2.2062  -2.1867  -2.1822  -2.1636  -2.1602
    -2.1430  -2.1038  -2.0846  -2.0743  -2.0335  -2.0300  -2.0207  -2.0189
    -2.0159  -1.9933  -1.9774  -1.9737  -1.9725  -1.9691  -1.9479  -1.9457
    -1.9431  -1.9347  -1.9335  -1.9164  -1.8881  -1.8760  -1.8729  -1.8719
    -1.8667  -1.8637  -1.8600  -1.8558  -1.8441  -1.8380  -1.8266  -1.7990
    -1.7935  -1.7849  -1.7820  -1.7820  -1.7818  -1.7804  -1.7795  -1.7786
    -1.7738  -1.7718  -1.7714  -1.7648  -1.7628  -1.7597  -1.7554  -1.7501
    -1.7382  -1.7334  -1.7294  -1.7248  -1.7221  -1.7146  -1.7032  -1.6986
    -1.6865  -1.6796  -1.6548  -1.6485  -1.6337  -1.6055  -1.6050  -1.5939
    -1.5931  -1.5929  -1.5913  -1.5465  -1.5321  -1.5152  -1.5002  -1.4913
    -1.4708  -1.4526  -1.4441  -1.4241  -1.4123  -1.3947  -1.3615  -1.3591
    -1.3433  -1.3290  -1.3224  -1.2933  -1.2390  -1.2381  -1.2261  -1.2192
    -1.2074  -1.1978  -1.1671  -1.1655  -1.1530  -1.1520  -1.1138  -1.0795
    -1.0686  -1.0374  -1.0140  -0.9394  -0.9270  -0.9198  -0.8781  -0.8779
    -0.8684  -0.8561  -0.8499  -0.8438  -0.8295  -0.8259  -0.8197  -0.8191
    -0.8085  -0.7982  -0.7786  -0.7663  -0.7463  -0.7385  -0.7383  -0.7329
[...]
     6.8790   6.9483   6.9561   7.0718   7.0901   7.1219   7.1338   7.1589
     7.1616   7.1928   7.2473   7.2513   7.2992   7.3116   7.3279   7.3419
     7.3713   7.3861   7.4471   7.4474   7.4537   7.4655   7.5206   7.5826
     7.6352   7.6771   7.7106   7.9516   7.9576   7.9617   7.9844   7.9874
     7.9921   8.0060   8.0145   8.0200   8.0403   8.0448   8.0567   8.1476
     8.1625   8.1703   8.1740   8.2108   8.2173   8.2380   8.2720   8.2773
     8.3105   8.3464   8.3752   8.3993   8.4094   8.4327   8.4448   8.4521
     8.4637   8.4641   8.4778   8.5272   8.5487   8.5630   8.5965   8.6038
     8.6519   8.6682   8.6901   8.6967   8.7069   8.7134   8.7481   8.7599
     8.7784   8.8048   8.8192   8.8275   8.8388   8.8458   8.9225   8.9263
     8.9275   8.9410   8.9891   9.0275   9.0311   9.0681   9.0826   9.0893
     9.1173   9.1617   9.1693   9.1890   9.2060   9.2198   9.2307   9.2416
     9.2455   9.2525   9.2880   9.2974   9.3045   9.3105   9.3160   9.3511
     9.3592   9.3720   9.3951   9.4112   9.4244   9.4272   9.4329   9.4452
     9.4592   9.4619

     the Fermi energy is     2.9545 ev

!    total energy              =  -14924.42566392 Ry
     Harris-Foulkes estimate   =  -14924.42566389 Ry
     estimated scf accuracy    <          9.4E-09 Ry

     The total energy is the sum of the following terms:

     one-electron contribution = -222679.66701366 Ry
     hartree contribution      =  112573.33470933 Ry
     xc contribution           =   -5117.08050474 Ry
     ewald contribution        =  100299.03705129 Ry
     smearing contrib. (-TS)   =      -0.04990613 Ry

     convergence has been achieved in  42 iterations

     negative rho (up, down):  6.353E-01 0.000E+00

     Forces acting on atoms (cartesian axes, Ry/au):

     atom    1 type  4   force =     0.00011913    0.00000000    0.00024143
     atom    2 type  4   force =    -0.00011913    0.00000000    0.00024143
     atom    3 type  3   force =     0.00008098   -0.00007848   -0.00019705
     atom    4 type  3   force =     0.00008098    0.00007848   -0.00019705
     atom    5 type  3   force =    -0.00008098    0.00007848   -0.00019705
     atom    6 type  3   force =    -0.00008098   -0.00007848   -0.00019705
     atom    7 type  3   force =    -0.00001755   -0.00000656   -0.00037107
     atom    8 type  3   force =     0.00001755    0.00000656   -0.00037107
     atom    9 type  3   force =    -0.00001755    0.00000656   -0.00037107
     atom   10 type  3   force =     0.00001755   -0.00000656   -0.00037107
     atom   11 type  4   force =    -0.00010568    0.00007393    0.00015406
     atom   12 type  4   force =     0.00010568    0.00007393    0.00015406
     atom   13 type  4   force =    -0.00010568   -0.00007393    0.00015406
     atom   14 type  4   force =     0.00010568   -0.00007393    0.00015406
     atom   15 type  4   force =    -0.00017010    0.00000000    0.00016333
     atom   16 type  4   force =     0.00017010    0.00000000    0.00016333
     atom   17 type  4   force =     0.00003104    0.00005256    0.00034829
     atom   18 type  4   force =    -0.00003104    0.00005256    0.00034829
     atom   19 type  4   force =    -0.00003104   -0.00005256    0.00034829
     atom   20 type  4   force =     0.00003104   -0.00005256    0.00034829
     atom   21 type  4   force =     0.00002441    0.00008597    0.00049613
     atom   22 type  4   force =     0.00002441   -0.00008597    0.00049613
     atom   23 type  4   force =    -0.00002441    0.00008597    0.00049613
     atom   24 type  4   force =    -0.00002441   -0.00008597    0.00049613
     atom   25 type  1   force =     0.00000000    0.00000000    0.00000855
     atom   26 type  1   force =     0.00000000    0.00000000   -0.00009455
     atom   27 type  1   force =     0.00000000    0.00000000   -0.00009455
     atom   28 type  1   force =    -0.00018296    0.00000000    0.00001795
     atom   29 type  1   force =     0.00018296    0.00000000    0.00001795
     atom   30 type  1   force =     0.00000000    0.00010284   -0.00022743
     atom   31 type  1   force =     0.00000000   -0.00010284   -0.00022743
     atom   32 type  1   force =     0.00000000    0.00000000   -0.00012432
     atom   33 type  3   force =    -0.00004663   -0.00000927   -0.00008452
     atom   34 type  3   force =    -0.00004663    0.00000927   -0.00008452
     atom   35 type  3   force =     0.00004663    0.00000927   -0.00008452
     atom   36 type  3   force =     0.00004663   -0.00000927   -0.00008452
     atom   37 type  3   force =     0.00003989    0.00002132   -0.00017388
     atom   38 type  3   force =     0.00003989   -0.00002132   -0.00017388
     atom   39 type  3   force =    -0.00003989    0.00002132   -0.00017388
     atom   40 type  3   force =    -0.00003989   -0.00002132   -0.00017388
     atom   41 type  4   force =    -0.00016064    0.00000000   -0.00020542
     atom   42 type  4   force =     0.00016064    0.00000000   -0.00020542
     atom   43 type  4   force =     0.00000000    0.00000361    0.00015538
     atom   44 type  4   force =     0.00000000   -0.00000361    0.00015538
     atom   45 type  4   force =     0.00006439    0.00000000   -0.00018640
     atom   46 type  4   force =    -0.00006439    0.00000000   -0.00018640
     atom   47 type  4   force =    -0.00002530   -0.00000302   -0.00007909
     atom   48 type  4   force =     0.00002530   -0.00000302   -0.00007909
     atom   49 type  4   force =     0.00002530    0.00000302   -0.00007909
     atom   50 type  4   force =    -0.00002530    0.00000302   -0.00007909
     atom   51 type  4   force =     0.00000000   -0.00000549    0.00004601
     atom   52 type  4   force =     0.00000000    0.00000549    0.00004601
     atom   53 type  4   force =     0.00008575    0.00000758    0.00023260
     atom   54 type  4   force =    -0.00008575   -0.00000758    0.00023260
     atom   55 type  4   force =     0.00008575   -0.00000758    0.00023260
     atom   56 type  4   force =    -0.00008575    0.00000758    0.00023260
     atom   57 type  2   force =     0.00000000    0.00000000   -0.00036893
     atom   58 type  5   force =     0.00038847    0.00000000   -0.00065821
     atom   59 type  5   force =    -0.00038847    0.00000000   -0.00065821
     atom   60 type  5   force =     0.00000000    0.00000000   -0.00009128
[...]
     atom  210 type  4   force =    -0.00010867    0.00000000    0.00015127
     atom  211 type  3   force =     0.00008720   -0.00007630   -0.00038077
     atom  212 type  3   force =     0.00008720    0.00007630   -0.00038077
     atom  213 type  3   force =    -0.00008720    0.00007630   -0.00038077
     atom  214 type  3   force =    -0.00008720   -0.00007630   -0.00038077
     atom  215 type  3   force =    -0.00001076   -0.00001911   -0.00027954
     atom  216 type  3   force =     0.00001076    0.00001911   -0.00027954
     atom  217 type  3   force =    -0.00001076    0.00001911   -0.00027954
     atom  218 type  3   force =     0.00001076   -0.00001911   -0.00027954
     atom  219 type  4   force =    -0.00010451    0.00004436    0.00022743
     atom  220 type  4   force =     0.00010451    0.00004436    0.00022743
     atom  221 type  4   force =    -0.00010451   -0.00004436    0.00022743
     atom  222 type  4   force =     0.00010451   -0.00004436    0.00022743
     atom  223 type  4   force =    -0.00016496    0.00000000    0.00020188
     atom  224 type  4   force =     0.00016496    0.00000000    0.00020188

     Total force =     0.139571     Total SCF correction =     0.000390

     Computing stress (Cartesian axis) and pressure

     negative rho (up, down):  6.353E-01 0.000E+00
          total   stress  (Ry/bohr**3)                   (kbar)     P=       -6.96
  -0.00006936  -0.00000000   0.00000000          -10.20       -0.00        0.00
   0.00000000  -0.00003847   0.00000000            0.00       -5.66        0.00
   0.00000000   0.00000000  -0.00003410            0.00        0.00       -5.02

     General routines

     Parallel routines

   This run was terminated on:  22:28:39  17May2021

   JOB DONE.
[1621304919.380597] [holy7c16302:124082:0]          mpool.c:43   UCX  WARN  object 0x2dc9c40 was not returned to mpool ucp_requests
[1621304919.394663] [holy7c06203:208156:0]          mpool.c:43   UCX  WARN  object 0x3c21600 was not returned to mpool ucp_requests
[1621304919.396005] [holy7c16209:95020:0]          mpool.c:43   UCX  WARN  object 0x477ae80 was not returned to mpool ucp_requests
[1621304919.398306] [holy7c06203:208149:0]          mpool.c:43   UCX  WARN  object 0x2eebe00 was not returned to mpool ucp_requests
[1621304919.406946] [holy7c06203:208158:0]          mpool.c:43   UCX  WARN  object 0x2f12140 was not returned to mpool ucp_requests
[1621304919.406203] [holy7c06203:208150:0]          mpool.c:43   UCX  WARN  object 0x30c9cc0 was not returned to mpool ucp_requests
[1621304919.408165] [holy7c08612:177518:0]          mpool.c:43   UCX  WARN  object 0x2b19140 was not returned to mpool ucp_requests
[1621304919.391625] [holy7c16302:124090:0]          mpool.c:43   UCX  WARN  object 0x67e02c0 was not returned to mpool ucp_requests
[1621304919.391655] [holy7c16302:124090:0]          mpool.c:43   UCX  WARN  object 0x45bff80 was not returned to mpool ucp_requests
[1621304919.391815] [holy7c16302:124084:0]          mpool.c:43   UCX  WARN  object 0x2918240 was not returned to mpool ucp_requests
[1621304919.412972] [holy7c16302:124092:0]          mpool.c:43   UCX  WARN  object 0x47bf480 was not returned to mpool ucp_requests
[1621304919.394574] [holy7c16302:124085:0]          mpool.c:43   UCX  WARN  object 0x2f3b1c0 was not returned to mpool ucp_requests
[1621304919.407018] [holy7c06203:208151:0]          mpool.c:43   UCX  WARN  object 0x3be4040 was not returned to mpool ucp_requests
[1621304919.413894] [holy7c06203:208157:0]          mpool.c:43   UCX  WARN  object 0x36aaa00 was not returned to mpool ucp_requests
[1621304919.413913] [holy7c06203:208159:0]          mpool.c:43   UCX  WARN  object 0x3b5d140 was not returned to mpool ucp_requests
[1621304919.406718] [holy7c16302:124091:0]          mpool.c:43   UCX  WARN  object 0x3fa6e40 was not returned to mpool ucp_requests
[1621304919.404001] [holy7c16209:95018:0]          mpool.c:43   UCX  WARN  object 0x3718e40 was not returned to mpool ucp_requests
[1621304919.406171] [holy7c16209:95028:0]          mpool.c:43   UCX  WARN  object 0x59c0880 was not returned to mpool ucp_requests
[1621304919.411842] [holy7c16209:95026:0]          mpool.c:43   UCX  WARN  object 0x5f42340 was not returned to mpool ucp_requests
[1621304919.411866] [holy7c16209:95026:0]          mpool.c:43   UCX  WARN  object 0x3d27940 was not returned to mpool ucp_requests
[1621304919.395422] [holy7c16209:95017:0]          mpool.c:43   UCX  WARN  object 0x3fcb800 was not returned to mpool ucp_requests
[1621304919.398587] [holy7c16209:95019:0]          mpool.c:43   UCX  WARN  object 0x28bd740 was not returned to mpool ucp_requests
[1621304919.405021] [holy7c16209:95027:0]          mpool.c:43   UCX  WARN  object 0x30d6f00 was not returned to mpool ucp_requests
[1621304919.405900] [holy7c16302:124093:0]          mpool.c:43   UCX  WARN  object 0x2c2dc40 was not returned to mpool ucp_requests
[1621304919.406581] [holy7c16302:124083:0]          mpool.c:43   UCX  WARN  object 0x30292c0 was not returned to mpool ucp_requests
[1621304919.406876] [holy7c16209:95025:0]          mpool.c:43   UCX  WARN  object 0x350ce00 was not returned to mpool ucp_requests
[1621304919.407158] [holy7c08612:177512:0]          mpool.c:43   UCX  WARN  object 0x4130d00 was not returned to mpool ucp_requests
[1621304919.409913] [holy7c08612:177520:0]          mpool.c:43   UCX  WARN  object 0x4058e40 was not returned to mpool ucp_requests
[1621304919.411394] [holy7c08612:177513:0]          mpool.c:43   UCX  WARN  object 0x31dcbc0 was not returned to mpool ucp_requests
[1621304919.421730] [holy7c08612:177510:0]          mpool.c:43   UCX  WARN  object 0x3be1e40 was not returned to mpool ucp_requests
[1621304919.423838] [holy7c08612:177519:0]          mpool.c:43   UCX  WARN  object 0x3651240 was not returned to mpool ucp_requests
[1621304919.427529] [holy7c08612:177521:0]          mpool.c:43   UCX  WARN  object 0x3316680 was not returned to mpool ucp_requests
[1621304919.426604] [holy7c08612:177511:0]          mpool.c:43   UCX  WARN  object 0x2f21f80 was not returned to mpool ucp_requests
[1621304919.426631] [holy7c08612:177511:0]          mpool.c:43   UCX  WARN  object 0x2f26580 was not returned to mpool ucp_requests