     Program PWSCF v.6.5 starts on 17May2021 at 12:37:45

     R & G space division:  proc/nbgrp/npool/nimage =      80
     Reading input from YBCO_Y_cleave_0.5_sep.pwi
Warning: card &IONS ignored
Warning: card     ION_DYNAMICS = 'BFGS' ignored
Warning: card / ignored
Warning: card &CELL ignored
Warning: card     CELL_DYNAMICS = 'BFGS' ignored
Warning: card     PRESS_CONV_THR = 5 ignored
Warning: card / ignored

     Current dimensions of program PWSCF are:
     Max number of different atomic species (ntypx) = 10
     Max number of k-points (npk) =  40000
     Max angular momentum in pseudopotentials (lmaxx) =  3
     Message from routine volume:
     axis vectors are left-handed

     Message from routine setup:
     using ibrav=0 with symmetry is DISCOURAGED, use correct ibrav instead

     bravais-lattice index     =            0
     lattice parameter (alat)  =      20.5021  a.u.
     unit-cell volume          =   34932.4146 (a.u.)^3
     number of atoms/cell      =          224
     number of atomic types    =            5
     number of electrons       =      1830.00
     number of Kohn-Sham states=         1098
     kinetic-energy cutoff     =      60.0000  Ry
     charge density cutoff     =     720.0000  Ry
     convergence threshold     =      1.0E-08
     mixing beta               =       0.5000
     number of iterations used =           10  local-TF  mixing
     Exchange-correlation= SLA PW PBE PBE
                           (   1   4   3   4   0   0   0)

     celldm(1)=  20.502120  celldm(2)=   0.000000  celldm(3)=   0.000000
     celldm(4)=   0.000000  celldm(5)=   0.000000  celldm(6)=   0.000000

     crystal axes: (cart. coord. in units of alat)
               a(1) = (  -0.716599   0.697485   0.000000 )
               a(2) = (   0.716599   0.697485   0.000000 )
               a(3) = (   0.000000   0.000000   4.055001 )

     reciprocal axes: (cart. coord. in units 2 pi/alat)
               b(1) = ( -0.697740  0.716861  0.000000 )
               b(2) = (  0.697740  0.716861  0.000000 )
               b(3) = (  0.000000  0.000000  0.246609 )

     PseudoPot. # 1 for Ba read from file:
     ./pseudo/Ba.pbe-nsp-van.UPF
     MD5 check sum: 2b9c31dd849566dd297d80989662b7a0
     Pseudo is Ultrasoft + core correction, Zval = 10.0
     Generated by new atomic code, or converted to UPF format
     Using radial grid of  907 points,  6 beta functions with:
                l(1) =   0
                l(2) =   0
                l(3) =   1
                l(4) =   1
                l(5) =   2
                l(6) =   2
     Q(r) pseudized with  6 coefficients,  rinner =    1.200   1.200   1.200
                                                       1.200   1.200

     PseudoPot. # 2 for Ca read from file:
     ./pseudo/Ca.pbe-nsp-van.UPF
     MD5 check sum: 6471098428ff4fa451746d08035ff179
     Pseudo is Ultrasoft + core correction, Zval = 10.0
     Generated by new atomic code, or converted to UPF format
     Using radial grid of  845 points,  6 beta functions with:
                l(1) =   0
                l(2) =   0
                l(3) =   1
                l(4) =   1
                l(5) =   2
                l(6) =   2
     Q(r) pseudized with  6 coefficients,  rinner =    1.200   1.200   1.200
                                                       1.200   1.200

     PseudoPot. # 3 for Cu read from file:
     ./pseudo/Cu.pbe-n-van_ak.UPF
     MD5 check sum: 34e3282627ffb533726feb647e090d62
     Pseudo is Ultrasoft + core correction, Zval = 11.0
     Generated by new atomic code, or converted to UPF format
     Using radial grid of  867 points,  6 beta functions with:
                l(1) =   0
                l(2) =   0
                l(3) =   1
                l(4) =   1
                l(5) =   2
                l(6) =   2
     Q(r) pseudized with  8 coefficients,  rinner =    1.400   1.400   1.400
                                                       1.400   1.400

     PseudoPot. # 4 for O  read from file:
     ./pseudo/O.pbe-van_ak.UPF
     MD5 check sum: 783ce7fe4c79b6a4916957118fed0856
     Pseudo is Ultrasoft, Zval =  6.0
     Generated by new atomic code, or converted to UPF format
     Using radial grid of  737 points,  4 beta functions with:
                l(1) =   0
                l(2) =   0
                l(3) =   1
                l(4) =   1
     Q(r) pseudized with  8 coefficients,  rinner =    0.800   0.800   0.800

     PseudoPot. # 5 for Y  read from file:
     ./pseudo/Y.pbe-nsp-van.UPF
     MD5 check sum: 4412fed3ab108fed87a1b7d6a69a4a38
     Pseudo is Ultrasoft + core correction, Zval = 11.0
     Generated by new atomic code, or converted to UPF format
     Using radial grid of  885 points,  6 beta functions with:
                l(1) =   0
                l(2) =   0
                l(3) =   1
                l(4) =   1
                l(5) =   2
                l(6) =   2
     Q(r) pseudized with  6 coefficients,  rinner =    1.200   1.200   1.200
                                                       1.200   1.200

     atomic species   valence    mass     pseudopotential
        Ba            10.00   137.32700     Ba( 1.00)
        Ca            10.00    40.07800     Ca( 1.00)
        Cu            11.00    63.54600     Cu( 1.00)
        O              6.00    15.99900     O ( 1.00)
        Y             11.00    88.90584     Y ( 1.00)

      4 Sym. Ops. (no inversion) found ( 3 have fractional translation)

   Cartesian axes

     site n.     atom                  positions (alat units)
         1           O   tau(   1) = (   0.3545921   0.8718562  -0.0077406  )
         2           O   tau(   2) = (   0.0037072   0.8718562  -0.0077406  )
         3           Cu  tau(   3) = (  -0.0002581   0.0006065   0.0080789  )
         4           Cu  tau(   4) = (  -0.0002581   0.3481364   0.0080789  )
         5           Cu  tau(   5) = (   0.3585574   0.3481364   0.0080789  )
         6           Cu  tau(   6) = (  -0.3580421   0.6980913   0.0080789  )
         7           Cu  tau(   7) = (   0.3577988   0.6971373   0.0086255  )
         8           Cu  tau(   8) = (   0.0005005   1.0465760   0.0086255  )
         9           Cu  tau(   9) = (  -0.3588016   0.3490903   0.0086255  )
        10           Cu  tau(  10) = (   0.0005005   0.6971373   0.0086255  )
        11           O   tau(  11) = (  -0.0001733   0.5225410  -0.0089757  )
        12           O   tau(  12) = (   0.3584726   0.5225410  -0.0089757  )
        13           O   tau(  13) = (  -0.0001733   1.2211724  -0.0089757  )
        14           O   tau(  14) = (  -0.3581278   0.5236867  -0.0089757  )
        15           O   tau(  15) = (  -0.3544557   0.8718562  -0.0105593  )
        16           O   tau(  16) = (  -0.0038445   0.1743714  -0.0105593  )
        17           O   tau(  17) = (   0.3588818   0.3486599   0.1817056  )
        18           O   tau(  18) = (  -0.0005825   0.3486599   0.1817056  )
        19           O   tau(  19) = (  -0.0005825   0.0000830   0.1817056  )
        20           O   tau(  20) = (  -0.3577167   0.6975677   0.1817056  )
        21           O   tau(  21) = (   0.3584283   0.6967843   0.1825784  )
        22           O   tau(  22) = (  -0.3581712   0.3494443   0.1825784  )
        23           O   tau(  23) = (  -0.0001290   0.6967843   0.1825784  )
        24           O   tau(  24) = (  -0.0001290   1.0469291   0.1825784  )
        25           Ba  tau(  25) = (   0.1791506   0.8718562   0.1908537  )
        26           Ba  tau(  26) = (   0.5374498   0.5231143   0.1919901  )
        27           Ba  tau(  27) = (  -0.1791506   0.5231143   0.1919901  )
        28           Ba  tau(  28) = (  -0.1793773   0.8718562   0.1931958  )
        29           Ba  tau(  29) = (  -0.1789238   0.1743714   0.1931958  )
        30           Ba  tau(  30) = (   0.1791506   0.5222101   0.1929368  )
        31           Ba  tau(  31) = (  -0.5374498   0.5240176   0.1929368  )
        32           Ba  tau(  32) = (   0.1791506   0.1743714   0.1992469  )
        33           Cu  tau(  33) = (  -0.3583426   0.3488452   0.3777458  )
        34           Cu  tau(  34) = (   0.3582559   0.6973834   0.3777458  )
        35           Cu  tau(  35) = (   0.0000433   0.6973834   0.3777458  )
        36           Cu  tau(  36) = (   0.0000433   1.0463299   0.3777458  )
        37           Cu  tau(  37) = (  -0.3586541   0.6975060   0.3775126  )
        38           Cu  tau(  38) = (   0.3579444   0.3487217   0.3775126  )
        39           Cu  tau(  39) = (   0.0003549   0.0000212   0.3775126  )
        40           Cu  tau(  40) = (   0.0003549   0.3487217   0.3775126  )
        41           O   tau(  41) = (  -0.0047976   0.1743714   0.3996864  )
        42           O   tau(  42) = (  -0.3535026   0.8718562   0.3996864  )
        43           O   tau(  43) = (  -0.5374498   0.6924605   0.3956991  )
        44           O   tau(  44) = (   0.1791506   0.3537672   0.3956991  )
        45           O   tau(  45) = (   0.3586385   0.8718562   0.4046840  )
        46           O   tau(  46) = (  -0.0003392   0.8718562   0.4046840  )
        47           O   tau(  47) = (  -0.0004857   0.5230571   0.4066611  )
        48           O   tau(  48) = (   0.3587850   0.5230571   0.4066611  )
        49           O   tau(  49) = (  -0.3578135   0.5231714   0.4066611  )
        50           O   tau(  50) = (  -0.0004857   1.2206562   0.4066611  )
        51           O   tau(  51) = (   0.1791506   1.0461604   0.4028931  )
        52           O   tau(  52) = (   0.1791506   0.6975521   0.4028931  )
        53           O   tau(  53) = (  -0.1792261   0.6967170   0.4025963  )
        54           O   tau(  54) = (  -0.1790731   0.3495106   0.4025963  )
        55           O   tau(  55) = (  -0.1792261   1.0469964   0.4025963  )
        56           O   tau(  56) = (   0.5375263   0.6967170   0.4025963  )
        57           Ca  tau(  57) = (   0.1791506   0.1743714   0.5358617  )
        58           Y   tau(  58) = (  -0.1811525   0.8718562   0.5373908  )
        59           Y   tau(  59) = (  -0.1771467   0.1743714   0.5373908  )
        60           Y   tau(  60) = (   0.1791506   0.8718562   0.5379568  )
[...]
       210           O   tau( 210) = (   0.0037081   0.8718562   2.2101933  )
       211           Cu  tau( 211) = (  -0.0002516   0.0006074   2.1943895  )
       212           Cu  tau( 212) = (  -0.0002516   0.3481345   2.1943895  )
       213           Cu  tau( 213) = (   0.3585509   0.3481345   2.1943895  )
       214           Cu  tau( 214) = (  -0.3580476   0.6980931   2.1943895  )
       215           Cu  tau( 215) = (   0.3577960   0.6971373   2.1938429  )
       216           Cu  tau( 216) = (   0.0005033   1.0465760   2.1938429  )
       217           Cu  tau( 217) = (  -0.3588035   0.3490903   2.1938429  )
       218           Cu  tau( 218) = (   0.0005033   0.6971373   2.1938429  )
       219           O   tau( 219) = (  -0.0001724   0.5225410   2.2114321  )
       220           O   tau( 220) = (   0.3584716   0.5225410   2.2114321  )
       221           O   tau( 221) = (  -0.0001724   1.2211724   2.2114321  )
[...]
   -22.2637 -22.2556 -22.2380 -22.2213 -22.1971 -22.1888 -22.1735 -22.1705
   -22.1645 -22.1640 -22.1413 -22.1259 -22.1093 -22.0359 -22.0035 -21.9284
   -19.3842 -19.3331 -19.3191 -19.3118 -19.2693 -19.2403 -19.2350 -19.2099
   -19.1868 -19.1708 -19.1202 -19.1000 -19.0912 -19.0673 -19.0664 -19.0403
   -19.0132 -19.0027 -19.0013 -18.9885 -18.9684 -18.4285 -18.3559 -18.3502
   -18.3254 -18.3011 -18.2622 -18.2242 -18.2139 -18.1586 -18.1516 -18.1318
   -18.1299 -18.1224 -18.0492 -18.0233 -17.9879 -17.9628 -17.9437 -17.9397
   -17.8697 -17.8167 -17.6319 -17.6159 -17.5511 -16.6458 -16.6171 -16.6111
   -15.1290 -15.0154 -14.9953 -14.9666 -14.8694 -14.8078 -14.7382 -14.6847
   -14.6410 -14.6256 -14.6135 -14.5471 -14.5124 -14.5109 -14.4780 -14.4706
   -14.4682 -14.4599 -14.4543 -14.4384 -14.4229 -14.4062 -14.3972 -14.3882
   -14.3690 -14.3547 -14.3289 -14.3221 -14.3191 -14.3107 -14.3006 -14.2868
   -14.2817 -14.2740 -14.2688 -14.2634 -14.2555 -14.2386 -14.2253 -14.2240
   -14.2075 -14.1772 -14.1735 -14.1447 -14.1386 -14.1118 -14.1095 -14.1076
   -14.0966 -14.0954 -14.0843 -14.0820 -14.0773 -14.0638 -14.0538 -14.0466
   -14.0400 -14.0313 -13.9901 -13.9565 -13.9373 -13.9189 -13.9099 -13.9099
   -13.8924 -13.8828 -13.8771 -13.8434 -13.8331 -13.8224 -13.8176 -13.8039
   -13.7773 -13.7724 -13.7691 -13.7659 -13.7608 -13.7592 -13.7575 -13.7205
   -13.7134 -13.6931 -13.6658 -13.6479 -13.6420 -13.5622 -13.5416 -13.5381
   -13.5330 -13.5247 -13.5168 -13.5163 -13.5154 -13.5142 -13.5069 -13.5001
   -13.4853 -13.4667 -13.4635 -13.4587 -13.4563 -13.4556 -13.4534 -13.4461
   -13.4373 -13.4304 -13.4237 -13.4233 -13.4210 -13.4154 -13.4055 -13.3751
   -13.3696 -13.3663 -13.3295 -13.3218 -13.3132 -13.2509 -13.2111 -13.1625
    -8.2531  -8.1471  -8.1221  -7.9731  -7.9699  -7.9674  -7.9639  -7.9402
    -7.9105  -7.8912  -7.8690  -7.8381  -7.8362  -7.8319  -7.8314  -7.8162
    -7.8130  -7.7814  -7.7508  -7.7484  -7.7470  -7.7349  -7.7259  -7.7150
    -7.7045  -7.6830  -7.6751  -7.6733  -7.6701  -7.6617  -7.6591  -7.6522
    -7.6517  -7.6486  -7.6398  -7.6346  -7.6253  -7.6084  -7.5991  -7.5861
    -7.5775  -7.5748  -7.5600  -7.5542  -7.5523  -7.5451  -7.5323  -7.5299
    -7.5251  -7.5192  -7.5176  -7.5107  -7.5070  -7.5025  -7.5018  -7.4889
    -7.4874  -7.4791  -7.4626  -7.4592  -7.4483  -7.4427  -7.4419  -7.4163
    -7.4026  -7.3953  -7.3915  -7.3808  -7.3694  -7.3511  -7.3494  -7.3425
    -7.3327  -7.3047  -7.3021  -7.3013  -7.2964  -7.2873  -7.2779  -7.2772
    -7.2647  -7.2414  -7.2172  -7.2171  -7.2137  -7.1725  -7.1603  -7.1509
    -7.1435  -7.1380  -7.1245  -7.0908  -7.0589  -7.0393  -6.9945  -6.9366
    -3.7199  -3.6479  -3.3332  -3.2786  -3.2297  -3.1875  -3.1781  -3.1440
    -3.1008  -2.9885  -2.8664  -2.7787  -2.7672  -2.7506  -2.7443  -2.7170
    -2.6628  -2.6138  -2.6014  -2.5851  -2.5838  -2.5745  -2.5473  -2.5463
    -2.5362  -2.4886  -2.4280  -2.4133  -2.3224  -2.2744  -2.2476  -2.2222
    -2.1675  -2.1555  -2.1491  -2.1084  -2.0962  -2.0818  -2.0811  -2.0718
    -2.0273  -2.0203  -2.0091  -2.0040  -2.0032  -1.9832  -1.9782  -1.9428
    -1.9249  -1.9243  -1.9212  -1.9062  -1.8849  -1.8628  -1.8543  -1.8449
    -1.8366  -1.8356  -1.8329  -1.7971  -1.7938  -1.7842  -1.7791  -1.7656
    -1.7413  -1.7398  -1.7364  -1.7331  -1.7295  -1.7097  -1.7088  -1.7055
    -1.7008  -1.6935  -1.6816  -1.6800  -1.6755  -1.6750  -1.6699  -1.6595
    -1.6592  -1.6417  -1.6358  -1.6315  -1.6308  -1.6291  -1.6268  -1.6206
    -1.6033  -1.6030  -1.5866  -1.5846  -1.5752  -1.5477  -1.5462  -1.5439
    -1.5349  -1.5348  -1.5323  -1.5301  -1.5268  -1.5166  -1.5162  -1.5045
    -1.4772  -1.4676  -1.4471  -1.4410  -1.4372  -1.4170  -1.4123  -1.3964
    -1.3885  -1.3883  -1.3789  -1.3754  -1.3564  -1.3389  -1.3362  -1.3040
    -1.2757  -1.2470  -1.2222  -1.2029  -1.1769  -1.1605  -1.1502  -1.1482
    -1.1028  -1.0917  -1.0445  -0.9962  -0.9923  -0.9850  -0.9772  -0.9702
    -0.9696  -0.9516  -0.9385  -0.9275  -0.9136  -0.9023  -0.9002  -0.8715
    -0.8444  -0.8124  -0.7911  -0.7704  -0.7506  -0.7448  -0.7423  -0.7405
    -0.7074  -0.6847  -0.6672  -0.6622  -0.6496  -0.6310  -0.6258  -0.6144
    -0.6132  -0.6086  -0.6007  -0.5965  -0.5960  -0.5907  -0.5808  -0.5763
[...]
     7.1855   7.1943   7.2244   7.2650   7.3001   7.3093   7.3191   7.3355
     7.3641   7.3952   7.4058   7.4371   7.5275   7.5760   7.5825   7.5981
     7.6946   7.7426   7.8106   7.8431   7.8868   7.9192   8.0390   8.0523
     8.1898   8.1957   8.1974   8.2171   8.2193   8.2202   8.2306   8.2329
     8.2540   8.2628   8.2740   8.3013   8.3298   8.3363   8.3505   8.3739
     8.3896   8.3972   8.4280   8.4379   8.4438   8.4613   8.5632   8.5769
     8.6077   8.6126   8.6300   8.6388   8.6676   8.6782   8.6825   8.6923
     8.7082   8.7192   8.7830   8.7892   8.8097   8.8380   8.8468   8.8696
     8.8784   8.9010   8.9131   8.9613   8.9813   9.0062   9.0245   9.0294
     9.0405   9.0487   9.0546   9.0782   9.0964   9.1340   9.1857   9.1895
     9.2122   9.2195   9.2275   9.2311   9.2346   9.2622   9.3061   9.3096
     9.3412   9.3596   9.3715   9.3743   9.4030   9.4169   9.4265   9.4466
     9.4684   9.4845   9.4881   9.4941   9.5097   9.5189   9.5418   9.5948
     9.6008   9.6019   9.6138   9.6245   9.6366   9.6683   9.6863   9.6950
     9.7152   9.7285

     the Fermi energy is     3.1900 ev

!    total energy              =  -14924.39102181 Ry
     Harris-Foulkes estimate   =  -14924.39102183 Ry
     estimated scf accuracy    <          1.8E-09 Ry

     The total energy is the sum of the following terms:

     one-electron contribution = -248063.90415713 Ry
     hartree contribution      =  125278.97231164 Ry
     xc contribution           =   -5116.98974324 Ry
     ewald contribution        =  112977.58031619 Ry
     smearing contrib. (-TS)   =      -0.04974926 Ry

     convergence has been achieved in  42 iterations

     negative rho (up, down):  6.338E-01 0.000E+00

     Forces acting on atoms (cartesian axes, Ry/au):

     atom    1 type  4   force =     0.00011180    0.00000000    0.00021129
     atom    2 type  4   force =    -0.00011180    0.00000000    0.00021129
     atom    3 type  3   force =     0.00008784   -0.00006124   -0.00017589
     atom    4 type  3   force =     0.00008784    0.00006124   -0.00017589
     atom    5 type  3   force =    -0.00008784    0.00006124   -0.00017589
     atom    6 type  3   force =    -0.00008784   -0.00006124   -0.00017589
     atom    7 type  3   force =    -0.00000824   -0.00002391   -0.00032236
     atom    8 type  3   force =     0.00000824    0.00002391   -0.00032236
     atom    9 type  3   force =    -0.00000824    0.00002391   -0.00032236
     atom   10 type  3   force =     0.00000824   -0.00002391   -0.00032236
     atom   11 type  4   force =    -0.00010378    0.00008190    0.00014048
     atom   12 type  4   force =     0.00010378    0.00008190    0.00014048
     atom   13 type  4   force =    -0.00010378   -0.00008190    0.00014048
     atom   14 type  4   force =     0.00010378   -0.00008190    0.00014048
     atom   15 type  4   force =    -0.00016600    0.00000000    0.00014667
     atom   16 type  4   force =     0.00016600    0.00000000    0.00014667
     atom   17 type  4   force =     0.00002714    0.00005003    0.00039534
     atom   18 type  4   force =    -0.00002714    0.00005003    0.00039534
     atom   19 type  4   force =    -0.00002714   -0.00005003    0.00039534
     atom   20 type  4   force =     0.00002714   -0.00005003    0.00039534
     atom   21 type  4   force =     0.00002710    0.00008367    0.00052668
     atom   22 type  4   force =     0.00002710   -0.00008367    0.00052668
     atom   23 type  4   force =    -0.00002710    0.00008367    0.00052668
     atom   24 type  4   force =    -0.00002710   -0.00008367    0.00052668
     atom   25 type  1   force =     0.00000000    0.00000000    0.00001289
     atom   26 type  1   force =     0.00000000    0.00000000   -0.00007887
     atom   27 type  1   force =     0.00000000    0.00000000   -0.00007887
     atom   28 type  1   force =    -0.00018689    0.00000000    0.00003098
     atom   29 type  1   force =     0.00018689    0.00000000    0.00003098
     atom   30 type  1   force =     0.00000000    0.00009818   -0.00021182
     atom   31 type  1   force =     0.00000000   -0.00009818   -0.00021182
     atom   32 type  1   force =     0.00000000    0.00000000   -0.00009809
     atom   33 type  3   force =    -0.00003784   -0.00000043   -0.00013720
     atom   34 type  3   force =    -0.00003784    0.00000043   -0.00013720
     atom   35 type  3   force =     0.00003784    0.00000043   -0.00013720
     atom   36 type  3   force =     0.00003784   -0.00000043   -0.00013720
     atom   37 type  3   force =     0.00003290    0.00002834   -0.00021019
     atom   38 type  3   force =     0.00003290   -0.00002834   -0.00021019
     atom   39 type  3   force =    -0.00003290    0.00002834   -0.00021019
     atom   40 type  3   force =    -0.00003290   -0.00002834   -0.00021019
     atom   41 type  4   force =    -0.00014096    0.00000000   -0.00026888
     atom   42 type  4   force =     0.00014096    0.00000000   -0.00026888
     atom   43 type  4   force =     0.00000000    0.00001699   -0.00000163
     atom   44 type  4   force =     0.00000000   -0.00001699   -0.00000163
     atom   45 type  4   force =     0.00005786    0.00000000   -0.00017523
     atom   46 type  4   force =    -0.00005786    0.00000000   -0.00017523
     atom   47 type  4   force =    -0.00002527    0.00001390   -0.00012618
     atom   48 type  4   force =     0.00002527    0.00001390   -0.00012618
     atom   49 type  4   force =     0.00002527   -0.00001390   -0.00012618
     atom   50 type  4   force =    -0.00002527   -0.00001390   -0.00012618
     atom   51 type  4   force =     0.00000000   -0.00003084   -0.00005253
     atom   52 type  4   force =     0.00000000    0.00003084   -0.00005253
     atom   53 type  4   force =     0.00009492    0.00000906    0.00009631
     atom   54 type  4   force =    -0.00009492   -0.00000906    0.00009631
     atom   55 type  4   force =     0.00009492   -0.00000906    0.00009631
     atom   56 type  4   force =    -0.00009492    0.00000906    0.00009631
     atom   57 type  2   force =     0.00000000    0.00000000    0.00004090
     atom   58 type  5   force =     0.00028321    0.00000000   -0.00013882
     atom   59 type  5   force =    -0.00028321    0.00000000   -0.00013882
     atom   60 type  5   force =     0.00000000    0.00000000    0.00029354
[...]
     atom  210 type  4   force =    -0.00017383    0.00000000    0.00192541
     atom  211 type  3   force =     0.00013817   -0.00007557   -0.00172290
     atom  212 type  3   force =     0.00013817    0.00007557   -0.00172290
     atom  213 type  3   force =    -0.00013817    0.00007557   -0.00172290
     atom  214 type  3   force =    -0.00013817   -0.00007557   -0.00172290
     atom  215 type  3   force =     0.00004105   -0.00007893   -0.00186644
     atom  216 type  3   force =    -0.00004105    0.00007893   -0.00186644
     atom  217 type  3   force =     0.00004105    0.00007893   -0.00186644
     atom  218 type  3   force =    -0.00004105   -0.00007893   -0.00186644
     atom  219 type  4   force =    -0.00008009    0.00035096    0.00189973
     atom  220 type  4   force =     0.00008009    0.00035096    0.00189973
     atom  221 type  4   force =    -0.00008009   -0.00035096    0.00189973
     atom  222 type  4   force =     0.00008009   -0.00035096    0.00189973
     atom  223 type  4   force =    -0.00024277    0.00000000    0.00145754
     atom  224 type  4   force =     0.00024277    0.00000000    0.00145754

     Total force =     0.267118     Total SCF correction =     0.000149

     Computing stress (Cartesian axis) and pressure

     negative rho (up, down):  6.338E-01 0.000E+00
          total   stress  (Ry/bohr**3)                   (kbar)     P=       -9.25
  -0.00001895  -0.00000000   0.00000000           -2.79       -0.00        0.00
  -0.00000000  -0.00001399   0.00000000           -0.00       -2.06        0.00
   0.00000000   0.00000000  -0.00015574            0.00        0.00      -22.91

     General routines

     Parallel routines

   This run was terminated on:  14: 7: 0  17May2021

   JOB DONE.
[1621274821.002344] [holy7c08610:273446:0]          mpool.c:43   UCX  WARN  object 0x393b600 was not returned to mpool ucp_requests
[1621274821.002374] [holy7c08610:273446:0]          mpool.c:43   UCX  WARN  object 0x393cb00 was not returned to mpool ucp_requests
[1621274821.029938] [holy7c08611:19741:0]          mpool.c:43   UCX  WARN  object 0x68a9b80 was not returned to mpool ucp_requests
[1621274821.005938] [holy7c08610:273452:0]          mpool.c:43   UCX  WARN  object 0x3ac47c0 was not returned to mpool ucp_requests
[1621274821.014191] [holy7c08610:273454:0]          mpool.c:43   UCX  WARN  object 0x2bdfd80 was not returned to mpool ucp_requests
[1621274821.017714] [holy7c08610:273460:0]          mpool.c:43   UCX  WARN  object 0x3689100 was not returned to mpool ucp_requests
[1621274821.015085] [holy7c08610:273444:0]          mpool.c:43   UCX  WARN  object 0x37d0680 was not returned to mpool ucp_requests
[1621274821.013599] [holy7c08610:273459:0]          mpool.c:43   UCX  WARN  object 0x3b4dc80 was not returned to mpool ucp_requests
[1621274821.021186] [holy7c08610:273453:0]          mpool.c:43   UCX  WARN  object 0x44c66c0 was not returned to mpool ucp_requests
[1621274821.019134] [holy7c08610:273451:0]          mpool.c:43   UCX  WARN  object 0x4545380 was not returned to mpool ucp_requests
[1621274821.029763] [holy7c08611:19728:0]          mpool.c:43   UCX  WARN  object 0x34164c0 was not returned to mpool ucp_requests
[1621274821.034138] [holy7c08611:19734:0]          mpool.c:43   UCX  WARN  object 0x40b97c0 was not returned to mpool ucp_requests
[1621274821.037386] [holy7c08611:19727:0]          mpool.c:43   UCX  WARN  object 0x3e1bb00 was not returned to mpool ucp_requests
[1621274821.037412] [holy7c08611:19727:0]          mpool.c:43   UCX  WARN  object 0x3e26a00 was not returned to mpool ucp_requests
[1621274821.037859] [holy7c08611:19720:0]          mpool.c:43   UCX  WARN  object 0x3dafb40 was not returned to mpool ucp_requests
[1621274821.043727] [holy7c08611:19733:0]          mpool.c:43   UCX  WARN  object 0x356b580 was not returned to mpool ucp_requests
[1621274821.040997] [holy7c08611:19742:0]          mpool.c:43   UCX  WARN  object 0x4821640 was not returned to mpool ucp_requests
[1621274821.036551] [holy7c08611:19719:0]          mpool.c:43   UCX  WARN  object 0x2fe0540 was not returned to mpool ucp_requests
[1621274821.048720] [holy7c08611:19736:0]          mpool.c:43   UCX  WARN  object 0x4102180 was not returned to mpool ucp_requests
[1621274821.052487] [holy7c08611:19726:0]          mpool.c:43   UCX  WARN  object 0x39c3140 was not returned to mpool ucp_requests
[1621274821.058014] [holy7c08611:19744:0]          mpool.c:43   UCX  WARN  object 0x455e880 was not returned to mpool ucp_requests
[1621274821.057436] [holy7c08611:19735:0]          mpool.c:43   UCX  WARN  object 0x3aa2080 was not returned to mpool ucp_requests
[1621274821.059867] [holy7c08611:19743:0]          mpool.c:43   UCX  WARN  object 0x3ee2f80 was not returned to mpool ucp_requests
[1621274821.021748] [holy7c08610:273445:0]          mpool.c:43   UCX  WARN  object 0x4651240 was not returned to mpool ucp_requests
[1621274821.021774] [holy7c08610:273445:0]          mpool.c:43   UCX  WARN  object 0x4652900 was not returned to mpool ucp_requests
[1621274821.051276] [holy7c08612:96151:0]          mpool.c:43   UCX  WARN  object 0x4861e00 was not returned to mpool ucp_requests
[1621274821.060494] [holy7c08612:96157:0]          mpool.c:43   UCX  WARN  object 0x3d82e80 was not returned to mpool ucp_requests
[1621274821.060427] [holy7c08612:96159:0]          mpool.c:43   UCX  WARN  object 0x2bd5640 was not returned to mpool ucp_requests
[1621274821.066269] [holy7c08612:96156:0]          mpool.c:43   UCX  WARN  object 0x40d4bc0 was not returned to mpool ucp_requests
[1621274821.062802] [holy7c08612:96158:0]          mpool.c:43   UCX  WARN  object 0x2984f40 was not returned to mpool ucp_requests
[1621274821.064289] [holy7c08612:96149:0]          mpool.c:43   UCX  WARN  object 0x3927cc0 was not returned to mpool ucp_requests
[1621274821.067277] [holy7c08612:96148:0]          mpool.c:43   UCX  WARN  object 0x2f26900 was not returned to mpool ucp_requests
[1621274821.067454] [holy7c08612:96150:0]          mpool.c:43   UCX  WARN  object 0x357bd40 was not returned to mpool ucp_requests
[1621274821.057077] [holy7c08611:19725:0]          mpool.c:43   UCX  WARN  object 0x2952a40 was not returned to mpool ucp_requests