     Program PWSCF v.6.5 starts on 18May2021 at 21:13:52

     R & G space division:  proc/nbgrp/npool/nimage =      80
     Reading input from YBCO_BaO_cleave_5.0_sep.pwi
Warning: card &IONS ignored
Warning: card     ION_DYNAMICS = 'BFGS' ignored
Warning: card / ignored
Warning: card &CELL ignored
Warning: card     CELL_DYNAMICS = 'BFGS' ignored
Warning: card     PRESS_CONV_THR = 5 ignored
Warning: card / ignored

     Current dimensions of program PWSCF are:
     Max number of different atomic species (ntypx) = 10
     Max number of k-points (npk) =  40000
     Max angular momentum in pseudopotentials (lmaxx) =  3
     Message from routine volume:
     axis vectors are left-handed

     Message from routine setup:
     using ibrav=0 with symmetry is DISCOURAGED, use correct ibrav instead

     bravais-lattice index     =            0
     lattice parameter (alat)  =      20.5021  a.u.
     unit-cell volume          =   38505.5562 (a.u.)^3
     number of atoms/cell      =          224
     number of atomic types    =            5
     number of electrons       =      1830.00
     number of Kohn-Sham states=         1098
     kinetic-energy cutoff     =      60.0000  Ry
     charge density cutoff     =     720.0000  Ry
     convergence threshold     =      1.0E-08
     mixing beta               =       0.5000
     number of iterations used =           10  local-TF  mixing
     Exchange-correlation= SLA PW PBE PBE
                           (   1   4   3   4   0   0   0)

     celldm(1)=  20.502120  celldm(2)=   0.000000  celldm(3)=   0.000000
     celldm(4)=   0.000000  celldm(5)=   0.000000  celldm(6)=   0.000000

     crystal axes: (cart. coord. in units of alat)
               a(1) = (  -0.716599   0.697485   0.000000 )
               a(2) = (   0.716599   0.697485   0.000000 )
               a(3) = (   0.000000   0.000000   4.469776 )

     reciprocal axes: (cart. coord. in units 2 pi/alat)
               b(1) = ( -0.697740  0.716861  0.000000 )
               b(2) = (  0.697740  0.716861  0.000000 )
               b(3) = (  0.000000  0.000000  0.223725 )

     PseudoPot. # 1 for Ba read from file:
     ./pseudo/Ba.pbe-nsp-van.UPF
     MD5 check sum: 2b9c31dd849566dd297d80989662b7a0
     Pseudo is Ultrasoft + core correction, Zval = 10.0
     Generated by new atomic code, or converted to UPF format
     Using radial grid of  907 points,  6 beta functions with:
                l(1) =   0
                l(2) =   0
                l(3) =   1
                l(4) =   1
                l(5) =   2
                l(6) =   2
     Q(r) pseudized with  6 coefficients,  rinner =    1.200   1.200   1.200
                                                       1.200   1.200

     PseudoPot. # 2 for Ca read from file:
     ./pseudo/Ca.pbe-nsp-van.UPF
     MD5 check sum: 6471098428ff4fa451746d08035ff179
     Pseudo is Ultrasoft + core correction, Zval = 10.0
     Generated by new atomic code, or converted to UPF format
     Using radial grid of  845 points,  6 beta functions with:
                l(1) =   0
                l(2) =   0
                l(3) =   1
                l(4) =   1
                l(5) =   2
                l(6) =   2
     Q(r) pseudized with  6 coefficients,  rinner =    1.200   1.200   1.200
                                                       1.200   1.200

     PseudoPot. # 3 for Cu read from file:
     ./pseudo/Cu.pbe-n-van_ak.UPF
     MD5 check sum: 34e3282627ffb533726feb647e090d62
     Pseudo is Ultrasoft + core correction, Zval = 11.0
     Generated by new atomic code, or converted to UPF format
     Using radial grid of  867 points,  6 beta functions with:
                l(1) =   0
                l(2) =   0
                l(3) =   1
                l(4) =   1
                l(5) =   2
                l(6) =   2
     Q(r) pseudized with  8 coefficients,  rinner =    1.400   1.400   1.400
                                                       1.400   1.400

     PseudoPot. # 4 for O  read from file:
     ./pseudo/O.pbe-van_ak.UPF
     MD5 check sum: 783ce7fe4c79b6a4916957118fed0856
     Pseudo is Ultrasoft, Zval =  6.0
     Generated by new atomic code, or converted to UPF format
     Using radial grid of  737 points,  4 beta functions with:
                l(1) =   0
                l(2) =   0
                l(3) =   1
                l(4) =   1
     Q(r) pseudized with  8 coefficients,  rinner =    0.800   0.800   0.800

     PseudoPot. # 5 for Y  read from file:
     ./pseudo/Y.pbe-nsp-van.UPF
     MD5 check sum: 4412fed3ab108fed87a1b7d6a69a4a38
     Pseudo is Ultrasoft + core correction, Zval = 11.0
     Generated by new atomic code, or converted to UPF format
     Using radial grid of  885 points,  6 beta functions with:
                l(1) =   0
                l(2) =   0
                l(3) =   1
                l(4) =   1
                l(5) =   2
                l(6) =   2
     Q(r) pseudized with  6 coefficients,  rinner =    1.200   1.200   1.200
                                                       1.200   1.200

     atomic species   valence    mass     pseudopotential
        Ba            10.00   137.32700     Ba( 1.00)
        Ca            10.00    40.07800     Ca( 1.00)
        Cu            11.00    63.54600     Cu( 1.00)
        O              6.00    15.99900     O ( 1.00)
        Y             11.00    88.90584     Y ( 1.00)

      4 Sym. Ops. (no inversion) found ( 3 have fractional translation)

   Cartesian axes

     site n.     atom                  positions (alat units)
         1           O   tau(   1) = (   0.3545921   0.8718562  -0.0077406  )
         2           O   tau(   2) = (   0.0037072   0.8718562  -0.0077406  )
         3           Cu  tau(   3) = (  -0.0002581   0.0006065   0.0080789  )
         4           Cu  tau(   4) = (  -0.0002581   0.3481364   0.0080789  )
         5           Cu  tau(   5) = (   0.3585574   0.3481364   0.0080789  )
         6           Cu  tau(   6) = (  -0.3580421   0.6980913   0.0080789  )
         7           Cu  tau(   7) = (   0.3577988   0.6971373   0.0086255  )
         8           Cu  tau(   8) = (   0.0005005   1.0465760   0.0086255  )
         9           Cu  tau(   9) = (  -0.3588016   0.3490903   0.0086255  )
        10           Cu  tau(  10) = (   0.0005005   0.6971373   0.0086255  )
        11           O   tau(  11) = (  -0.0001733   0.5225410  -0.0089757  )
        12           O   tau(  12) = (   0.3584726   0.5225410  -0.0089757  )
        13           O   tau(  13) = (  -0.0001733   1.2211724  -0.0089757  )
        14           O   tau(  14) = (  -0.3581278   0.5236867  -0.0089757  )
        15           O   tau(  15) = (  -0.3544557   0.8718562  -0.0105593  )
        16           O   tau(  16) = (  -0.0038445   0.1743714  -0.0105593  )
        17           O   tau(  17) = (   0.3588818   0.3486599   0.1817056  )
        18           O   tau(  18) = (  -0.0005825   0.3486599   0.1817056  )
        19           O   tau(  19) = (  -0.0005825   0.0000830   0.1817056  )
        20           O   tau(  20) = (  -0.3577167   0.6975677   0.1817056  )
        21           O   tau(  21) = (   0.3584283   0.6967843   0.1825784  )
        22           O   tau(  22) = (  -0.3581712   0.3494443   0.1825784  )
        23           O   tau(  23) = (  -0.0001290   0.6967843   0.1825784  )
        24           O   tau(  24) = (  -0.0001290   1.0469291   0.1825784  )
        25           Ba  tau(  25) = (   0.1791506   0.8718562   0.1908537  )
        26           Ba  tau(  26) = (   0.5374498   0.5231143   0.1919901  )
        27           Ba  tau(  27) = (  -0.1791506   0.5231143   0.1919901  )
        28           Ba  tau(  28) = (  -0.1793773   0.8718562   0.1931958  )
        29           Ba  tau(  29) = (  -0.1789238   0.1743714   0.1931958  )
        30           Ba  tau(  30) = (   0.1791506   0.5222101   0.1929368  )
        31           Ba  tau(  31) = (  -0.5374498   0.5240176   0.1929368  )
        32           Ba  tau(  32) = (   0.1791506   0.1743714   0.1992469  )
        33           Cu  tau(  33) = (  -0.3583426   0.3488452   0.3777458  )
        34           Cu  tau(  34) = (   0.3582559   0.6973834   0.3777458  )
        35           Cu  tau(  35) = (   0.0000433   0.6973834   0.3777458  )
        36           Cu  tau(  36) = (   0.0000433   1.0463299   0.3777458  )
        37           Cu  tau(  37) = (  -0.3586541   0.6975060   0.3775126  )
        38           Cu  tau(  38) = (   0.3579444   0.3487217   0.3775126  )
        39           Cu  tau(  39) = (   0.0003549   0.0000212   0.3775126  )
        40           Cu  tau(  40) = (   0.0003549   0.3487217   0.3775126  )
        41           O   tau(  41) = (  -0.0047976   0.1743714   0.3996864  )
        42           O   tau(  42) = (  -0.3535026   0.8718562   0.3996864  )
        43           O   tau(  43) = (  -0.5374498   0.6924605   0.3956991  )
        44           O   tau(  44) = (   0.1791506   0.3537672   0.3956991  )
        45           O   tau(  45) = (   0.3586385   0.8718562   0.4046840  )
        46           O   tau(  46) = (  -0.0003392   0.8718562   0.4046840  )
        47           O   tau(  47) = (  -0.0004857   0.5230571   0.4066611  )
        48           O   tau(  48) = (   0.3587850   0.5230571   0.4066611  )
        49           O   tau(  49) = (  -0.3578135   0.5231714   0.4066611  )
        50           O   tau(  50) = (  -0.0004857   1.2206562   0.4066611  )
        51           O   tau(  51) = (   0.1791506   1.0461604   0.4028931  )
        52           O   tau(  52) = (   0.1791506   0.6975521   0.4028931  )
        53           O   tau(  53) = (  -0.1792261   0.6967170   0.4025963  )
        54           O   tau(  54) = (  -0.1790731   0.3495106   0.4025963  )
        55           O   tau(  55) = (  -0.1792261   1.0469964   0.4025963  )
        56           O   tau(  56) = (   0.5375263   0.6967170   0.4025963  )
        57           Ca  tau(  57) = (   0.1791506   0.1743714   0.5358617  )
        58           Y   tau(  58) = (  -0.1811525   0.8718562   0.5373908  )
        59           Y   tau(  59) = (  -0.1771467   0.1743714   0.5373908  )
        60           Y   tau(  60) = (   0.1791506   0.8718562   0.5379568  )
[...]
       210           O   tau( 210) = (   0.0037081   0.8718562   2.6249684  )
       211           Cu  tau( 211) = (  -0.0002516   0.0006074   2.6091645  )
       212           Cu  tau( 212) = (  -0.0002516   0.3481345   2.6091645  )
       213           Cu  tau( 213) = (   0.3585509   0.3481345   2.6091645  )
       214           Cu  tau( 214) = (  -0.3580476   0.6980931   2.6091645  )
       215           Cu  tau( 215) = (   0.3577960   0.6971373   2.6086179  )
       216           Cu  tau( 216) = (   0.0005033   1.0465760   2.6086179  )
       217           Cu  tau( 217) = (  -0.3588035   0.3490903   2.6086179  )
       218           Cu  tau( 218) = (   0.0005033   0.6971373   2.6086179  )
       219           O   tau( 219) = (  -0.0001724   0.5225410   2.6262072  )
       220           O   tau( 220) = (   0.3584716   0.5225410   2.6262072  )
       221           O   tau( 221) = (  -0.0001724   1.2211724   2.6262072  )
[...]
   -24.9502 -24.5522 -24.5443 -24.4586 -24.4102 -24.3838 -24.3402 -24.0597
   -23.0506 -23.0296 -23.0202 -23.0061 -23.0046 -22.9932 -22.9852 -22.9743
   -22.9626 -22.9591 -22.9550 -22.9213 -22.9100 -22.9022 -22.9001 -22.8950
   -22.8717 -22.8699 -22.8646 -22.8556 -22.8251 -22.7834 -22.7530 -22.6747
   -19.0276 -18.9551 -18.9488 -18.9229 -18.9000 -18.8618 -18.8243 -18.8124
   -18.7586 -18.7507 -18.7307 -18.7295 -18.7224 -18.6736 -18.6480 -18.6235
   -18.6116 -18.6056 -18.5918 -18.5876 -18.5623 -18.5426 -18.5377 -18.5173
   -18.5089 -18.4698 -18.4284 -18.4239 -18.4163 -18.3988 -18.3894 -18.3818
   -18.3629 -18.3217 -18.2514 -18.2376 -18.2170 -18.1972 -18.1909 -18.1584
   -18.1176 -18.0574 -17.2474 -17.2188 -17.2121 -16.7899 -16.7878 -16.7647
   -15.5909 -15.4034 -15.3865 -15.3320 -15.3222 -15.2939 -15.2037 -15.1642
   -15.1606 -15.1501 -15.1188 -15.0881 -15.0620 -15.0613 -15.0562 -15.0417
   -15.0212 -14.9830 -14.9211 -14.9161 -14.9123 -14.9073 -14.9010 -14.8842
   -14.8759 -14.8428 -14.8311 -14.8303 -14.8039 -14.7834 -14.7773 -14.7494
   -14.7346 -14.7337 -14.7315 -14.7083 -14.7042 -14.7004 -14.6967 -14.6896
   -14.6705 -14.6662 -14.6636 -14.6599 -14.6536 -14.6490 -14.6398 -14.6204
   -14.5989 -14.5928 -14.5916 -14.5837 -14.5554 -14.5518 -14.5354 -14.5346
   -14.5304 -14.5056 -14.5027 -14.4934 -14.4931 -14.4930 -14.4833 -14.4696
   -14.4619 -14.4533 -14.4444 -14.4314 -14.4247 -14.4241 -14.4159 -14.4063
   -14.4053 -14.4028 -14.3952 -14.3622 -14.3555 -14.3257 -14.3177 -14.3028
   -14.2783 -14.2633 -14.2360 -14.2177 -14.1784 -14.1620 -14.1450 -14.1406
   -14.1199 -14.1143 -14.1092 -14.1069 -14.1066 -14.1030 -14.0930 -14.0924
   -14.0904 -14.0893 -14.0881 -14.0828 -14.0577 -14.0425 -14.0395 -14.0394
   -14.0357 -14.0066 -14.0061 -13.9999 -13.9988 -13.9980 -13.9826 -13.9625
   -13.9065 -13.8826 -13.8765 -13.8357 -13.8233 -13.7864 -13.6918 -13.6441
   -10.3711 -10.2443 -10.0420  -9.9413  -9.9384  -9.9124  -9.8559  -9.8427
    -9.7875  -9.7304  -9.7249  -9.6824  -9.6172  -9.5988  -9.5254  -9.5032
    -9.4039  -9.3729  -9.3071  -9.3054  -9.2437  -9.2121  -9.1089  -8.9872
    -8.8304  -8.8008  -8.7233  -8.5505  -8.5448  -8.5411  -8.5208  -8.5155
    -8.5130  -8.4984  -8.4403  -8.4267  -8.3902  -8.3790  -8.3610  -8.3563
    -8.3433  -8.3414  -8.3225  -8.3157  -8.3063  -8.3018  -8.2945  -8.2914
    -8.2819  -8.2703  -8.2592  -8.2506  -8.2481  -8.2468  -8.2366  -8.2290
    -8.2259  -8.2172  -8.2170  -8.2150  -8.2121  -8.2040  -8.2028  -8.2002
    -8.1968  -8.1871  -8.1815  -8.1731  -8.1700  -8.1573  -8.1563  -8.1359
    -8.1032  -8.0910  -8.0565  -8.0515  -8.0277  -8.0199  -7.9918  -7.9916
    -7.9799  -7.9504  -7.9280  -7.8998  -7.8786  -7.8772  -7.8737  -7.8645
    -7.8552  -7.8449  -7.8360  -7.8296  -7.8253  -7.7985  -7.7467  -7.6989
    -4.2411  -4.0687  -3.8228  -3.7738  -3.7564  -3.7221  -3.6588  -3.6513
    -3.6250  -3.5992  -3.5705  -3.3788  -3.3719  -3.3502  -3.3186  -3.1631
    -3.1614  -3.1223  -3.1204  -3.0727  -3.0218  -3.0093  -3.0050  -3.0016
    -2.9482  -2.9308  -2.9277  -2.9192  -2.9054  -2.8988  -2.8860  -2.7971
    -2.7873  -2.7691  -2.7633  -2.6593  -2.6202  -2.6153  -2.5890  -2.5811
    -2.5653  -2.5359  -2.5355  -2.5309  -2.5235  -2.5102  -2.4849  -2.4443
    -2.4431  -2.4350  -2.4105  -2.4047  -2.3746  -2.3700  -2.3652  -2.3569
    -2.3547  -2.3441  -2.3268  -2.3186  -2.3185  -2.3150  -2.3129  -2.3097
    -2.3049  -2.2966  -2.2954  -2.2859  -2.2851  -2.2712  -2.2700  -2.2508
    -2.2423  -2.2399  -2.2354  -2.2234  -2.2222  -2.2080  -2.2005  -2.1950
    -2.1897  -2.1855  -2.1682  -2.1675  -2.1650  -2.1566  -2.1439  -2.1388
    -2.1332  -2.1237  -2.1199  -2.1183  -2.1179  -2.1174  -2.1155  -2.1018
    -2.0968  -2.0940  -2.0933  -2.0732  -2.0730  -2.0610  -2.0584  -2.0461
    -2.0436  -2.0330  -2.0177  -2.0168  -1.9964  -1.9779  -1.9719  -1.9674
    -1.9554  -1.9102  -1.9094  -1.9082  -1.8822  -1.8765  -1.8260  -1.8075
    -1.7636  -1.7631  -1.7604  -1.7493  -1.7484  -1.7456  -1.7412  -1.7254
    -1.7210  -1.7141  -1.7020  -1.6895  -1.6616  -1.6567  -1.6330  -1.6224
    -1.5844  -1.5672  -1.5524  -1.5504  -1.5283  -1.4910  -1.4438  -1.4059
    -1.4007  -1.3803  -1.3761  -1.3712  -1.3328  -1.3029  -1.2938  -1.2608
    -1.2580  -1.2443  -1.2427  -1.2350  -1.2345  -1.2083  -1.2012  -1.1878
    -1.1868  -1.1760  -1.1721  -1.1630  -1.1465  -1.1352  -1.1345  -1.1304
[...]
     6.3411   6.3453   6.3467   6.3576   6.3608   6.3743   6.4664   6.4912
     6.5031   6.5258   6.5432   6.5899   6.5928   6.6596   6.7162   6.7323
     6.7767   6.8008   6.8025   6.8084   6.8304   6.9093   6.9388   6.9949
     7.0177   7.0251   7.0797   7.0950   7.1001   7.1315   7.1469   7.1785
     7.2297   7.4146   7.4511   7.4851   7.5340   7.5486   7.5955   7.6057
     7.6138   7.6434   7.6535   7.6568   7.6630   7.6759   7.6780   7.6909
     7.6923   7.6997   7.7254   7.7524   7.7918   7.8459   7.8695   7.9171
     7.9245   7.9419   7.9738   7.9753   7.9910   8.0256   8.0273   8.0503
     8.1006   8.1038   8.1072   8.1093   8.1112   8.1191   8.1249   8.1324
     8.1839   8.1919   8.2016   8.2163   8.2584   8.2961   8.3070   8.3234
     8.3457   8.3761   8.4146   8.4225   8.4369   8.4506   8.4510   8.4708
     8.4730   8.5067   8.5088   8.5266   8.5466   8.5630   8.5753   8.6194
     8.6304   8.6326   8.6607   8.6789   8.6934   8.7054   8.7204   8.7568
     8.7625   8.7956   8.8082   8.8530   8.8666   8.8697   8.9040   8.9095
     8.9145   8.9348

     the Fermi energy is     2.6156 ev

!    total energy              =  -14924.23990609 Ry
     Harris-Foulkes estimate   =  -14924.23990604 Ry
     estimated scf accuracy    <          7.9E-09 Ry

     The total energy is the sum of the following terms:

     one-electron contribution = -192621.97531549 Ry
     hartree contribution      =   97518.52684247 Ry
     xc contribution           =   -5117.04182858 Ry
     ewald contribution        =   85296.29949913 Ry
     smearing contrib. (-TS)   =      -0.04910362 Ry

     convergence has been achieved in  48 iterations

     negative rho (up, down):  6.350E-01 0.000E+00

     Forces acting on atoms (cartesian axes, Ry/au):

     atom    1 type  4   force =     0.00012071    0.00000000    0.00022222
     atom    2 type  4   force =    -0.00012071    0.00000000    0.00022222
     atom    3 type  3   force =     0.00008621   -0.00006083   -0.00015313
     atom    4 type  3   force =     0.00008621    0.00006083   -0.00015313
     atom    5 type  3   force =    -0.00008621    0.00006083   -0.00015313
     atom    6 type  3   force =    -0.00008621   -0.00006083   -0.00015313
     atom    7 type  3   force =    -0.00000950   -0.00001560   -0.00031760
     atom    8 type  3   force =     0.00000950    0.00001560   -0.00031760
     atom    9 type  3   force =    -0.00000950    0.00001560   -0.00031760
     atom   10 type  3   force =     0.00000950   -0.00001560   -0.00031760
     atom   11 type  4   force =    -0.00010251    0.00006618    0.00015043
     atom   12 type  4   force =     0.00010251    0.00006618    0.00015043
     atom   13 type  4   force =    -0.00010251   -0.00006618    0.00015043
     atom   14 type  4   force =     0.00010251   -0.00006618    0.00015043
     atom   15 type  4   force =    -0.00017158    0.00000000    0.00014718
     atom   16 type  4   force =     0.00017158    0.00000000    0.00014718
     atom   17 type  4   force =     0.00002900    0.00005949    0.00031496
     atom   18 type  4   force =    -0.00002900    0.00005949    0.00031496
     atom   19 type  4   force =    -0.00002900   -0.00005949    0.00031496
     atom   20 type  4   force =     0.00002900   -0.00005949    0.00031496
     atom   21 type  4   force =     0.00002067    0.00008173    0.00047458
     atom   22 type  4   force =     0.00002067   -0.00008173    0.00047458
     atom   23 type  4   force =    -0.00002067    0.00008173    0.00047458
     atom   24 type  4   force =    -0.00002067   -0.00008173    0.00047458
     atom   25 type  1   force =     0.00000000    0.00000000   -0.00006346
     atom   26 type  1   force =     0.00000000    0.00000000   -0.00017777
     atom   27 type  1   force =     0.00000000    0.00000000   -0.00017777
     atom   28 type  1   force =    -0.00017768    0.00000000   -0.00006003
     atom   29 type  1   force =     0.00017768    0.00000000   -0.00006003
     atom   30 type  1   force =     0.00000000    0.00010932   -0.00030989
     atom   31 type  1   force =     0.00000000   -0.00010932   -0.00030989
     atom   32 type  1   force =     0.00000000    0.00000000   -0.00020978
     atom   33 type  3   force =    -0.00005124   -0.00000947   -0.00000131
     atom   34 type  3   force =    -0.00005124    0.00000947   -0.00000131
     atom   35 type  3   force =     0.00005124    0.00000947   -0.00000131
     atom   36 type  3   force =     0.00005124   -0.00000947   -0.00000131
     atom   37 type  3   force =     0.00002869    0.00002264   -0.00013270
     atom   38 type  3   force =     0.00002869   -0.00002264   -0.00013270
     atom   39 type  3   force =    -0.00002869    0.00002264   -0.00013270
     atom   40 type  3   force =    -0.00002869   -0.00002264   -0.00013270
     atom   41 type  4   force =    -0.00023387    0.00000000    0.00021376
     atom   42 type  4   force =     0.00023387    0.00000000    0.00021376
     atom   43 type  4   force =     0.00000000   -0.00004003    0.00037863
     atom   44 type  4   force =     0.00000000    0.00004003    0.00037863
     atom   45 type  4   force =     0.00007702    0.00000000    0.00025597
     atom   46 type  4   force =    -0.00007702    0.00000000    0.00025597
     atom   47 type  4   force =    -0.00002405   -0.00002887    0.00040555
     atom   48 type  4   force =     0.00002405   -0.00002887    0.00040555
     atom   49 type  4   force =     0.00002405    0.00002887    0.00040555
     atom   50 type  4   force =    -0.00002405    0.00002887    0.00040555
     atom   51 type  4   force =     0.00000000    0.00000744    0.00019807
     atom   52 type  4   force =     0.00000000   -0.00000744    0.00019807
     atom   53 type  4   force =     0.00006223    0.00001016    0.00045521
     atom   54 type  4   force =    -0.00006223   -0.00001016    0.00045521
     atom   55 type  4   force =     0.00006223   -0.00001016    0.00045521
     atom   56 type  4   force =    -0.00006223    0.00001016    0.00045521
     atom   57 type  2   force =     0.00000000    0.00000000   -0.00123761
     atom   58 type  5   force =     0.00045949    0.00000000   -0.00204378
     atom   59 type  5   force =    -0.00045949    0.00000000   -0.00204378
     atom   60 type  5   force =     0.00000000    0.00000000   -0.00136361
[...]
     atom  210 type  4   force =    -0.00010078    0.00000000    0.00028722
     atom  211 type  3   force =     0.00009722   -0.00006409   -0.00054384
     atom  212 type  3   force =     0.00009722    0.00006409   -0.00054384
     atom  213 type  3   force =    -0.00009722    0.00006409   -0.00054384
     atom  214 type  3   force =    -0.00009722   -0.00006409   -0.00054384
     atom  215 type  3   force =     0.00000192   -0.00003259   -0.00045540
     atom  216 type  3   force =    -0.00000192    0.00003259   -0.00045540
     atom  217 type  3   force =     0.00000192    0.00003259   -0.00045540
     atom  218 type  3   force =    -0.00000192   -0.00003259   -0.00045540
     atom  219 type  4   force =    -0.00009691    0.00005258    0.00035440
     atom  220 type  4   force =     0.00009691    0.00005258    0.00035440
     atom  221 type  4   force =    -0.00009691   -0.00005258    0.00035440
     atom  222 type  4   force =     0.00009691   -0.00005258    0.00035440
     atom  223 type  4   force =    -0.00015796    0.00000000    0.00032228
     atom  224 type  4   force =     0.00015796    0.00000000    0.00032228

     Total force =     0.232313     Total SCF correction =     0.000449

     Computing stress (Cartesian axis) and pressure

     negative rho (up, down):  6.350E-01 0.000E+00
          total   stress  (Ry/bohr**3)                   (kbar)     P=       -6.71
  -0.00007691  -0.00000000   0.00000000          -11.31       -0.00        0.00
   0.00000000  -0.00003882   0.00000000            0.00       -5.71        0.00
   0.00000000   0.00000000  -0.00002118            0.00        0.00       -3.12

     General routines

     Parallel routines

   This run was terminated on:  22:55:51  18May2021

   JOB DONE.
[1621392951.239758] [holy7c04101:148216:0]          mpool.c:43   UCX  WARN  object 0x4272000 was not returned to mpool ucp_requests
[1621392951.277940] [holy7c06207:238882:0]          mpool.c:43   UCX  WARN  object 0x2e44440 was not returned to mpool ucp_requests
[1621392951.258219] [holy7c04101:148215:0]          mpool.c:43   UCX  WARN  object 0x2fe7a80 was not returned to mpool ucp_requests
[1621392951.258096] [holy7c04101:148217:0]          mpool.c:43   UCX  WARN  object 0x36b3400 was not returned to mpool ucp_requests
[1621392951.269245] [holy7c04111:51267:0]          mpool.c:43   UCX  WARN  object 0x36770c0 was not returned to mpool ucp_requests
[1621392951.283606] [holy7c06109:182605:0]          mpool.c:43   UCX  WARN  object 0x3f87840 was not returned to mpool ucp_requests
[1621392951.287050] [holy7c06207:238883:0]          mpool.c:43   UCX  WARN  object 0x45062c0 was not returned to mpool ucp_requests
[1621392951.265715] [holy7c04111:51256:0]          mpool.c:43   UCX  WARN  object 0x36b5140 was not returned to mpool ucp_requests
[1621392951.270949] [holy7c04111:51258:0]          mpool.c:43   UCX  WARN  object 0x33b1e80 was not returned to mpool ucp_requests
[1621392951.271108] [holy7c04111:51257:0]          mpool.c:43   UCX  WARN  object 0x2e460c0 was not returned to mpool ucp_requests
[1621392951.271318] [holy7c04111:51265:0]          mpool.c:43   UCX  WARN  object 0x29b1e80 was not returned to mpool ucp_requests
[1621392951.272487] [holy7c04111:51264:0]          mpool.c:43   UCX  WARN  object 0x3865280 was not returned to mpool ucp_requests
[1621392951.272147] [holy7c04111:51266:0]          mpool.c:43   UCX  WARN  object 0x3ad4940 was not returned to mpool ucp_requests
[1621392951.272165] [holy7c04111:51266:0]          mpool.c:43   UCX  WARN  object 0x3adad00 was not returned to mpool ucp_requests
[1621392951.280771] [holy7c04111:51259:0]          mpool.c:43   UCX  WARN  object 0x482c540 was not returned to mpool ucp_requests
[1621392951.286890] [holy7c04205:35099:0]          mpool.c:43   UCX  WARN  object 0x298ce40 was not returned to mpool ucp_requests
[1621392951.287082] [holy7c04205:35101:0]          mpool.c:43   UCX  WARN  object 0x42de640 was not returned to mpool ucp_requests
[1621392951.298006] [holy7c04205:35109:0]          mpool.c:43   UCX  WARN  object 0x401a6c0 was not returned to mpool ucp_requests
[1621392951.296236] [holy7c04205:35107:0]          mpool.c:43   UCX  WARN  object 0x4e47300 was not returned to mpool ucp_requests
[1621392951.286104] [holy7c04205:35102:0]          mpool.c:43   UCX  WARN  object 0x33af400 was not returned to mpool ucp_requests
[1621392951.285243] [holy7c06109:182598:0]          mpool.c:43   UCX  WARN  object 0x3cb2f40 was not returned to mpool ucp_requests
[1621392951.290672] [holy7c06109:182607:0]          mpool.c:43   UCX  WARN  object 0x3497b00 was not returned to mpool ucp_requests
[1621392951.287900] [holy7c06109:182612:0]          mpool.c:43   UCX  WARN  object 0x46bb800 was not returned to mpool ucp_requests
[1621392951.294311] [holy7c06109:182597:0]          mpool.c:43   UCX  WARN  object 0x34da080 was not returned to mpool ucp_requests
[1621392951.294129] [holy7c06109:182599:0]          mpool.c:43   UCX  WARN  object 0x363f040 was not returned to mpool ucp_requests
[1621392951.302895] [holy7c06109:182613:0]          mpool.c:43   UCX  WARN  object 0x343a380 was not returned to mpool ucp_requests
[1621392951.301080] [holy7c04205:35100:0]          mpool.c:43   UCX  WARN  object 0x3005380 was not returned to mpool ucp_requests
[1621392951.303051] [holy7c04205:35108:0]          mpool.c:43   UCX  WARN  object 0x41982c0 was not returned to mpool ucp_requests
[1621392951.303497] [holy7c04205:35110:0]          mpool.c:43   UCX  WARN  object 0x3e983c0 was not returned to mpool ucp_requests
[1621392951.296190] [holy7c06109:182604:0]          mpool.c:43   UCX  WARN  object 0x3e9f840 was not returned to mpool ucp_requests
[1621392951.300659] [holy7c06109:182606:0]          mpool.c:43   UCX  WARN  object 0x450b540 was not returned to mpool ucp_requests
[1621392951.300686] [holy7c06109:182606:0]          mpool.c:43   UCX  WARN  object 0x450ed40 was not returned to mpool ucp_requests
[1621392951.293416] [holy7c06109:182596:0]          mpool.c:43   UCX  WARN  object 0x3c39540 was not returned to mpool ucp_requests