     Program PWSCF v.6.5 starts on 17May2021 at 12:36:12

     R & G space division:  proc/nbgrp/npool/nimage =      80
     Reading input from YBCO_BaO_cleave_0.5_sep.pwi
Warning: card &IONS ignored
Warning: card     ION_DYNAMICS = 'BFGS' ignored
Warning: card / ignored
Warning: card &CELL ignored
Warning: card     CELL_DYNAMICS = 'BFGS' ignored
Warning: card     PRESS_CONV_THR = 5 ignored
Warning: card / ignored

     Current dimensions of program PWSCF are:
     Max number of different atomic species (ntypx) = 10
     Max number of k-points (npk) =  40000
     Max angular momentum in pseudopotentials (lmaxx) =  3
     Message from routine volume:
     axis vectors are left-handed

     Message from routine setup:
     using ibrav=0 with symmetry is DISCOURAGED, use correct ibrav instead

     bravais-lattice index     =            0
     lattice parameter (alat)  =      20.5021  a.u.
     unit-cell volume          =   34932.4146 (a.u.)^3
     number of atoms/cell      =          224
     number of atomic types    =            5
     number of electrons       =      1830.00
     number of Kohn-Sham states=         1098
     kinetic-energy cutoff     =      60.0000  Ry
     charge density cutoff     =     720.0000  Ry
     convergence threshold     =      1.0E-08
     mixing beta               =       0.5000
     number of iterations used =           10  local-TF  mixing
     Exchange-correlation= SLA PW PBE PBE
                           (   1   4   3   4   0   0   0)

     celldm(1)=  20.502120  celldm(2)=   0.000000  celldm(3)=   0.000000
     celldm(4)=   0.000000  celldm(5)=   0.000000  celldm(6)=   0.000000

     crystal axes: (cart. coord. in units of alat)
               a(1) = (  -0.716599   0.697485   0.000000 )
               a(2) = (   0.716599   0.697485   0.000000 )
               a(3) = (   0.000000   0.000000   4.055001 )

     reciprocal axes: (cart. coord. in units 2 pi/alat)
               b(1) = ( -0.697740  0.716861  0.000000 )
               b(2) = (  0.697740  0.716861  0.000000 )
               b(3) = (  0.000000  0.000000  0.246609 )

     PseudoPot. # 1 for Ba read from file:
     ./pseudo/Ba.pbe-nsp-van.UPF
     MD5 check sum: 2b9c31dd849566dd297d80989662b7a0
     Pseudo is Ultrasoft + core correction, Zval = 10.0
     Generated by new atomic code, or converted to UPF format
     Using radial grid of  907 points,  6 beta functions with:
                l(1) =   0
                l(2) =   0
                l(3) =   1
                l(4) =   1
                l(5) =   2
                l(6) =   2
     Q(r) pseudized with  6 coefficients,  rinner =    1.200   1.200   1.200
                                                       1.200   1.200

     PseudoPot. # 2 for Ca read from file:
     ./pseudo/Ca.pbe-nsp-van.UPF
     MD5 check sum: 6471098428ff4fa451746d08035ff179
     Pseudo is Ultrasoft + core correction, Zval = 10.0
     Generated by new atomic code, or converted to UPF format
     Using radial grid of  845 points,  6 beta functions with:
                l(1) =   0
                l(2) =   0
                l(3) =   1
                l(4) =   1
                l(5) =   2
                l(6) =   2
     Q(r) pseudized with  6 coefficients,  rinner =    1.200   1.200   1.200
                                                       1.200   1.200

     PseudoPot. # 3 for Cu read from file:
     ./pseudo/Cu.pbe-n-van_ak.UPF
     MD5 check sum: 34e3282627ffb533726feb647e090d62
     Pseudo is Ultrasoft + core correction, Zval = 11.0
     Generated by new atomic code, or converted to UPF format
     Using radial grid of  867 points,  6 beta functions with:
                l(1) =   0
                l(2) =   0
                l(3) =   1
                l(4) =   1
                l(5) =   2
                l(6) =   2
     Q(r) pseudized with  8 coefficients,  rinner =    1.400   1.400   1.400
                                                       1.400   1.400

     PseudoPot. # 4 for O  read from file:
     ./pseudo/O.pbe-van_ak.UPF
     MD5 check sum: 783ce7fe4c79b6a4916957118fed0856
     Pseudo is Ultrasoft, Zval =  6.0
     Generated by new atomic code, or converted to UPF format
     Using radial grid of  737 points,  4 beta functions with:
                l(1) =   0
                l(2) =   0
                l(3) =   1
                l(4) =   1
     Q(r) pseudized with  8 coefficients,  rinner =    0.800   0.800   0.800

     PseudoPot. # 5 for Y  read from file:
     ./pseudo/Y.pbe-nsp-van.UPF
     MD5 check sum: 4412fed3ab108fed87a1b7d6a69a4a38
     Pseudo is Ultrasoft + core correction, Zval = 11.0
     Generated by new atomic code, or converted to UPF format
     Using radial grid of  885 points,  6 beta functions with:
                l(1) =   0
                l(2) =   0
                l(3) =   1
                l(4) =   1
                l(5) =   2
                l(6) =   2
     Q(r) pseudized with  6 coefficients,  rinner =    1.200   1.200   1.200
                                                       1.200   1.200

     atomic species   valence    mass     pseudopotential
        Ba            10.00   137.32700     Ba( 1.00)
        Ca            10.00    40.07800     Ca( 1.00)
        Cu            11.00    63.54600     Cu( 1.00)
        O              6.00    15.99900     O ( 1.00)
        Y             11.00    88.90584     Y ( 1.00)

      4 Sym. Ops. (no inversion) found ( 3 have fractional translation)

   Cartesian axes

     site n.     atom                  positions (alat units)
         1           O   tau(   1) = (   0.3545921   0.8718562  -0.0077406  )
         2           O   tau(   2) = (   0.0037072   0.8718562  -0.0077406  )
         3           Cu  tau(   3) = (  -0.0002581   0.0006065   0.0080789  )
         4           Cu  tau(   4) = (  -0.0002581   0.3481364   0.0080789  )
         5           Cu  tau(   5) = (   0.3585574   0.3481364   0.0080789  )
         6           Cu  tau(   6) = (  -0.3580421   0.6980913   0.0080789  )
         7           Cu  tau(   7) = (   0.3577988   0.6971373   0.0086255  )
         8           Cu  tau(   8) = (   0.0005005   1.0465760   0.0086255  )
         9           Cu  tau(   9) = (  -0.3588016   0.3490903   0.0086255  )
        10           Cu  tau(  10) = (   0.0005005   0.6971373   0.0086255  )
        11           O   tau(  11) = (  -0.0001733   0.5225410  -0.0089757  )
        12           O   tau(  12) = (   0.3584726   0.5225410  -0.0089757  )
        13           O   tau(  13) = (  -0.0001733   1.2211724  -0.0089757  )
        14           O   tau(  14) = (  -0.3581278   0.5236867  -0.0089757  )
        15           O   tau(  15) = (  -0.3544557   0.8718562  -0.0105593  )
        16           O   tau(  16) = (  -0.0038445   0.1743714  -0.0105593  )
        17           O   tau(  17) = (   0.3588818   0.3486599   0.1817056  )
        18           O   tau(  18) = (  -0.0005825   0.3486599   0.1817056  )
        19           O   tau(  19) = (  -0.0005825   0.0000830   0.1817056  )
        20           O   tau(  20) = (  -0.3577167   0.6975677   0.1817056  )
        21           O   tau(  21) = (   0.3584283   0.6967843   0.1825784  )
        22           O   tau(  22) = (  -0.3581712   0.3494443   0.1825784  )
        23           O   tau(  23) = (  -0.0001290   0.6967843   0.1825784  )
        24           O   tau(  24) = (  -0.0001290   1.0469291   0.1825784  )
        25           Ba  tau(  25) = (   0.1791506   0.8718562   0.1908537  )
        26           Ba  tau(  26) = (   0.5374498   0.5231143   0.1919901  )
        27           Ba  tau(  27) = (  -0.1791506   0.5231143   0.1919901  )
        28           Ba  tau(  28) = (  -0.1793773   0.8718562   0.1931958  )
        29           Ba  tau(  29) = (  -0.1789238   0.1743714   0.1931958  )
        30           Ba  tau(  30) = (   0.1791506   0.5222101   0.1929368  )
        31           Ba  tau(  31) = (  -0.5374498   0.5240176   0.1929368  )
        32           Ba  tau(  32) = (   0.1791506   0.1743714   0.1992469  )
        33           Cu  tau(  33) = (  -0.3583426   0.3488452   0.3777458  )
        34           Cu  tau(  34) = (   0.3582559   0.6973834   0.3777458  )
        35           Cu  tau(  35) = (   0.0000433   0.6973834   0.3777458  )
        36           Cu  tau(  36) = (   0.0000433   1.0463299   0.3777458  )
        37           Cu  tau(  37) = (  -0.3586541   0.6975060   0.3775126  )
        38           Cu  tau(  38) = (   0.3579444   0.3487217   0.3775126  )
        39           Cu  tau(  39) = (   0.0003549   0.0000212   0.3775126  )
        40           Cu  tau(  40) = (   0.0003549   0.3487217   0.3775126  )
        41           O   tau(  41) = (  -0.0047976   0.1743714   0.3996864  )
        42           O   tau(  42) = (  -0.3535026   0.8718562   0.3996864  )
        43           O   tau(  43) = (  -0.5374498   0.6924605   0.3956991  )
        44           O   tau(  44) = (   0.1791506   0.3537672   0.3956991  )
        45           O   tau(  45) = (   0.3586385   0.8718562   0.4046840  )
        46           O   tau(  46) = (  -0.0003392   0.8718562   0.4046840  )
        47           O   tau(  47) = (  -0.0004857   0.5230571   0.4066611  )
        48           O   tau(  48) = (   0.3587850   0.5230571   0.4066611  )
        49           O   tau(  49) = (  -0.3578135   0.5231714   0.4066611  )
        50           O   tau(  50) = (  -0.0004857   1.2206562   0.4066611  )
        51           O   tau(  51) = (   0.1791506   1.0461604   0.4028931  )
        52           O   tau(  52) = (   0.1791506   0.6975521   0.4028931  )
        53           O   tau(  53) = (  -0.1792261   0.6967170   0.4025963  )
        54           O   tau(  54) = (  -0.1790731   0.3495106   0.4025963  )
        55           O   tau(  55) = (  -0.1792261   1.0469964   0.4025963  )
        56           O   tau(  56) = (   0.5375263   0.6967170   0.4025963  )
        57           Ca  tau(  57) = (   0.1791506   0.1743714   0.5358617  )
        58           Y   tau(  58) = (  -0.1811525   0.8718562   0.5373908  )
        59           Y   tau(  59) = (  -0.1771467   0.1743714   0.5373908  )
        60           Y   tau(  60) = (   0.1791506   0.8718562   0.5379568  )
[...]
       210           O   tau( 210) = (   0.0037081   0.8718562   2.2101933  )
       211           Cu  tau( 211) = (  -0.0002516   0.0006074   2.1943895  )
       212           Cu  tau( 212) = (  -0.0002516   0.3481345   2.1943895  )
       213           Cu  tau( 213) = (   0.3585509   0.3481345   2.1943895  )
       214           Cu  tau( 214) = (  -0.3580476   0.6980931   2.1943895  )
       215           Cu  tau( 215) = (   0.3577960   0.6971373   2.1938429  )
       216           Cu  tau( 216) = (   0.0005033   1.0465760   2.1938429  )
       217           Cu  tau( 217) = (  -0.3588035   0.3490903   2.1938429  )
       218           Cu  tau( 218) = (   0.0005033   0.6971373   2.1938429  )
       219           O   tau( 219) = (  -0.0001724   0.5225410   2.2114321  )
       220           O   tau( 220) = (   0.3584716   0.5225410   2.2114321  )
       221           O   tau( 221) = (  -0.0001724   1.2211724   2.2114321  )
[...]

   -37.8875 -37.8602 -37.8567 -37.8527 -37.8503 -37.8370 -37.8353 -37.7818
   -37.7445 -37.7408 -37.7384 -37.7362 -37.7225 -37.7206 -35.4241 -35.2674
   -22.7185 -22.6102 -22.5904 -22.5433 -22.5124 -22.5074 -22.5045 -22.4665
   -22.4586 -22.4550 -22.4470 -22.4469 -22.4392 -22.4245 -22.3940 -22.3640
   -22.3619 -22.3568 -22.3560 -22.3541 -22.3489 -22.3174 -22.3094 -22.3081
   -22.2743 -22.2600 -22.2333 -22.2000 -22.1774 -22.0711 -22.0389 -21.9617
   -18.4660 -18.3933 -18.3876 -18.3626 -18.3570 -18.3386 -18.2996 -18.2888
   -18.2833 -18.2618 -18.2609 -18.2514 -18.2050 -18.1961 -18.1944 -18.1891
   -18.1692 -18.1674 -18.1599 -18.1263 -18.1178 -18.0870 -18.0866 -18.0793
   -18.0617 -18.0608 -18.0520 -18.0291 -18.0253 -18.0003 -17.9811 -17.9770
   -17.9518 -17.9232 -17.9197 -17.9072 -17.8764 -17.8739 -17.8631 -17.8542
   -17.8010 -17.7454 -16.6837 -16.6549 -16.6488 -16.5084 -16.5044 -16.5041
   -15.0331 -14.9293 -14.8456 -14.7760 -14.7521 -14.6898 -14.6519 -14.5927
   -14.5127 -14.5090 -14.4766 -14.4432 -14.4431 -14.4276 -14.4246 -14.4118
   -14.3788 -14.3602 -14.3575 -14.3484 -14.3249 -14.3200 -14.2942 -14.2738
   -14.2705 -14.2620 -14.2541 -14.2425 -14.2297 -14.2287 -14.2246 -14.2156
   -14.2076 -14.1915 -14.1872 -14.1775 -14.1584 -14.1560 -14.1505 -14.1456
   -14.1340 -14.1231 -14.1209 -14.1143 -14.1094 -14.1020 -14.0758 -14.0715
   -14.0695 -14.0654 -14.0633 -14.0629 -14.0278 -14.0196 -14.0151 -13.9944
   -13.9750 -13.9561 -13.9474 -13.9294 -13.9152 -13.9055 -13.8803 -13.8795
   -13.8709 -13.8683 -13.8589 -13.8514 -13.8417 -13.8301 -13.8256 -13.8191
   -13.8149 -13.8110 -13.8043 -13.7968 -13.7797 -13.7634 -13.7563 -13.7508
   -13.7009 -13.6846 -13.6638 -13.6447 -13.6444 -13.6147 -13.5949 -13.5774
   -13.5759 -13.5723 -13.5686 -13.5592 -13.5586 -13.5562 -13.5555 -13.5534
   -13.5129 -13.5058 -13.5057 -13.5032 -13.5027 -13.4981 -13.4714 -13.4697
   -13.4648 -13.4631 -13.4324 -13.4010 -13.3954 -13.3901 -13.3882 -13.3647
   -13.2584 -13.2555 -13.2445 -13.2355 -13.2019 -13.1739 -13.1348 -13.0525
    -8.2960  -8.2923  -8.2844  -8.1063  -8.0491  -8.0135  -8.0123  -8.0067
    -8.0053  -8.0042  -8.0039  -8.0029  -7.9989  -7.9957  -7.9589  -7.9579
    -7.9172  -7.8812  -7.8702  -7.8522  -7.8444  -7.8137  -7.7897  -7.7807
    -7.7732  -7.7651  -7.7562  -7.7542  -7.7538  -7.7455  -7.7441  -7.7437
    -7.7346  -7.7207  -7.7122  -7.7093  -7.7034  -7.7005  -7.6981  -7.6911
    -7.6897  -7.6879  -7.6844  -7.6833  -7.6805  -7.6797  -7.6789  -7.6738
    -7.6710  -7.6657  -7.6644  -7.6558  -7.6498  -7.6490  -7.6351  -7.6266
    -7.5941  -7.5939  -7.5851  -7.5755  -7.5538  -7.5183  -7.5150  -7.5108
    -7.4819  -7.4745  -7.4609  -7.4561  -7.4418  -7.4397  -7.4340  -7.4285
    -7.4269  -7.4219  -7.3899  -7.3825  -7.3696  -7.3596  -7.3568  -7.3531
    -7.3356  -7.3281  -7.3266  -7.3190  -7.3178  -7.3171  -7.3091  -7.2972
    -7.2518  -7.2279  -7.1591  -7.1431  -7.0981  -7.0748  -7.0286  -6.9724
    -3.6864  -3.6171  -3.2676  -3.2173  -3.1988  -3.1809  -3.1579  -3.1400
    -3.0947  -3.0250  -2.9002  -2.8158  -2.7963  -2.7868  -2.7811  -2.6855
    -2.6656  -2.6251  -2.6245  -2.6160  -2.5870  -2.5857  -2.5271  -2.5045
    -2.4661  -2.4516  -2.4376  -2.4255  -2.3587  -2.2805  -2.2544  -2.1944
    -2.1299  -2.1207  -2.1120  -2.0970  -2.0627  -2.0456  -2.0421  -2.0340
    -2.0306  -2.0238  -2.0213  -2.0173  -2.0038  -1.9856  -1.9603  -1.9553
    -1.9535  -1.9382  -1.8816  -1.8717  -1.8503  -1.8363  -1.8331  -1.8301
    -1.8295  -1.8182  -1.8085  -1.7971  -1.7867  -1.7805  -1.7755  -1.7715
    -1.7636  -1.7578  -1.7490  -1.7459  -1.7443  -1.7315  -1.7135  -1.6896
    -1.6797  -1.6725  -1.6693  -1.6660  -1.6651  -1.6535  -1.6533  -1.6399
    -1.6338  -1.6124  -1.5966  -1.5921  -1.5873  -1.5871  -1.5845  -1.5836
    -1.5834  -1.5766  -1.5708  -1.5600  -1.5525  -1.5470  -1.5458  -1.5337
    -1.5175  -1.5143  -1.5009  -1.4989  -1.4902  -1.4895  -1.4852  -1.4786
    -1.4770  -1.4714  -1.4600  -1.4511  -1.4455  -1.4430  -1.4345  -1.4301
    -1.4196  -1.3997  -1.3970  -1.3946  -1.3847  -1.3801  -1.3692  -1.3515
    -1.3499  -1.3364  -1.3258  -1.3225  -1.3148  -1.3089  -1.3026  -1.2733
    -1.2481  -1.1973  -1.1883  -1.1600  -1.0585  -1.0157  -1.0129  -0.9800
    -0.9633  -0.9460  -0.9341  -0.9321  -0.9213  -0.9054  -0.8926  -0.8901
    -0.8452  -0.8009  -0.7925  -0.7629  -0.7340  -0.6878  -0.6828  -0.6614
    -0.6578  -0.6564  -0.6483  -0.6452  -0.6320  -0.6183  -0.6176  -0.6061
    -0.6054  -0.5970  -0.5860  -0.5850  -0.5677  -0.5551  -0.5522  -0.5470
[...]
     7.2845   7.3138   7.3277   7.3620   7.3987   7.4326   7.5289   7.5374
     7.5433   7.6297   7.6562   7.8203   8.1185   8.1344   8.1376   8.1580
     8.1615   8.1754   8.1806   8.1845   8.1940   8.2102   8.2207   8.2231
     8.2317   8.2445   8.2764   8.2897   8.3098   8.3261   8.3474   8.3523
     8.3830   8.4045   8.4360   8.4492   8.4860   8.5158   8.5403   8.5800
     8.6031   8.6110   8.6154   8.6299   8.6323   8.6412   8.6427   8.6521
     8.6619   8.6694   8.6722   8.7247   8.7268   8.7562   8.7872   8.8247
     8.8393   8.8485   8.8631   8.9188   8.9379   8.9913   8.9923   9.0109
     9.0119   9.0189   9.0280   9.0354   9.1115   9.1158   9.1583   9.1762
     9.2048   9.2102   9.2387   9.2419   9.2941   9.3342   9.3432   9.3443
     9.3501   9.3775   9.3990   9.4088   9.4221   9.4256   9.4440   9.4455
     9.4513   9.4576   9.4713   9.5342   9.5465   9.5621   9.5680   9.5724
     9.5916   9.5942   9.6022   9.6156   9.6406   9.6506   9.6639   9.6823
     9.6908   9.6961   9.7160   9.7283   9.7344   9.7430   9.7756   9.7762
     9.7914   9.8243

     the Fermi energy is     3.1506 ev

!    total energy              =  -14924.79558715 Ry
     Harris-Foulkes estimate   =  -14924.79558715 Ry
     estimated scf accuracy    <          7.4E-09 Ry

     The total energy is the sum of the following terms:

     one-electron contribution = -244074.26480599 Ry
     hartree contribution      =  123286.22237919 Ry
     xc contribution           =   -5117.83160226 Ry
     ewald contribution        =  110981.13140015 Ry
     smearing contrib. (-TS)   =      -0.05295825 Ry

     convergence has been achieved in  40 iterations

     negative rho (up, down):  6.353E-01 0.000E+00

     Forces acting on atoms (cartesian axes, Ry/au):

     atom    1 type  4   force =     0.00011505    0.00000000    0.00022627
     atom    2 type  4   force =    -0.00011505    0.00000000    0.00022627
     atom    3 type  3   force =     0.00008770   -0.00006213   -0.00018952
     atom    4 type  3   force =     0.00008770    0.00006213   -0.00018952
     atom    5 type  3   force =    -0.00008770    0.00006213   -0.00018952
     atom    6 type  3   force =    -0.00008770   -0.00006213   -0.00018952
     atom    7 type  3   force =    -0.00000861   -0.00002340   -0.00035591
     atom    8 type  3   force =     0.00000861    0.00002340   -0.00035591
     atom    9 type  3   force =    -0.00000861    0.00002340   -0.00035591
     atom   10 type  3   force =     0.00000861   -0.00002340   -0.00035591
     atom   11 type  4   force =    -0.00010368    0.00007600    0.00015200
     atom   12 type  4   force =     0.00010368    0.00007600    0.00015200
     atom   13 type  4   force =    -0.00010368   -0.00007600    0.00015200
     atom   14 type  4   force =     0.00010368   -0.00007600    0.00015200
     atom   15 type  4   force =    -0.00016501    0.00000000    0.00015746
     atom   16 type  4   force =     0.00016501    0.00000000    0.00015746
     atom   17 type  4   force =     0.00002793    0.00005064    0.00037975
     atom   18 type  4   force =    -0.00002793    0.00005064    0.00037975
     atom   19 type  4   force =    -0.00002793   -0.00005064    0.00037975
     atom   20 type  4   force =     0.00002793   -0.00005064    0.00037975
     atom   21 type  4   force =     0.00002731    0.00008548    0.00052040
     atom   22 type  4   force =     0.00002731   -0.00008548    0.00052040
     atom   23 type  4   force =    -0.00002731    0.00008548    0.00052040
     atom   24 type  4   force =    -0.00002731   -0.00008548    0.00052040
     atom   25 type  1   force =     0.00000000    0.00000000    0.00002612
     atom   26 type  1   force =     0.00000000    0.00000000   -0.00006581
     atom   27 type  1   force =     0.00000000    0.00000000   -0.00006581
     atom   28 type  1   force =    -0.00018526    0.00000000    0.00004319
     atom   29 type  1   force =     0.00018526    0.00000000    0.00004319
     atom   30 type  1   force =     0.00000000    0.00009942   -0.00019873
     atom   31 type  1   force =     0.00000000   -0.00009942   -0.00019873
     atom   32 type  1   force =     0.00000000    0.00000000   -0.00008653
     atom   33 type  3   force =    -0.00003743   -0.00000137   -0.00013990
     atom   34 type  3   force =    -0.00003743    0.00000137   -0.00013990
     atom   35 type  3   force =     0.00003743    0.00000137   -0.00013990
     atom   36 type  3   force =     0.00003743   -0.00000137   -0.00013990
     atom   37 type  3   force =     0.00003960    0.00002399   -0.00022202
     atom   38 type  3   force =     0.00003960   -0.00002399   -0.00022202
     atom   39 type  3   force =    -0.00003960    0.00002399   -0.00022202
     atom   40 type  3   force =    -0.00003960   -0.00002399   -0.00022202
     atom   41 type  4   force =    -0.00012905    0.00000000   -0.00032754
     atom   42 type  4   force =     0.00012905    0.00000000   -0.00032754
     atom   43 type  4   force =     0.00000000    0.00002376   -0.00002203
     atom   44 type  4   force =     0.00000000   -0.00002376   -0.00002203
     atom   45 type  4   force =     0.00005914    0.00000000   -0.00025389
     atom   46 type  4   force =    -0.00005914    0.00000000   -0.00025389
     atom   47 type  4   force =    -0.00002596    0.00001194   -0.00019966
     atom   48 type  4   force =     0.00002596    0.00001194   -0.00019966
     atom   49 type  4   force =     0.00002596   -0.00001194   -0.00019966
     atom   50 type  4   force =    -0.00002596   -0.00001194   -0.00019966
     atom   51 type  4   force =     0.00000000   -0.00002635   -0.00008035
     atom   52 type  4   force =     0.00000000    0.00002635   -0.00008035
     atom   53 type  4   force =     0.00009618    0.00000766    0.00006599
     atom   54 type  4   force =    -0.00009618   -0.00000766    0.00006599
     atom   55 type  4   force =     0.00009618   -0.00000766    0.00006599
     atom   56 type  4   force =    -0.00009618    0.00000766    0.00006599
     atom   57 type  2   force =     0.00000000    0.00000000    0.00009694
     atom   58 type  5   force =     0.00030305    0.00000000   -0.00002086
     atom   59 type  5   force =    -0.00030305    0.00000000   -0.00002086
     atom   60 type  5   force =     0.00000000    0.00000000    0.00042750
[...]
     atom  210 type  4   force =    -0.00011418    0.00000000   -0.00001299
     atom  211 type  3   force =     0.00009266   -0.00005692   -0.00014464
     atom  212 type  3   force =     0.00009266    0.00005692   -0.00014464
     atom  213 type  3   force =    -0.00009266    0.00005692   -0.00014464
     atom  214 type  3   force =    -0.00009266   -0.00005692   -0.00014464
     atom  215 type  3   force =    -0.00000329   -0.00003330   -0.00001375
     atom  216 type  3   force =     0.00000329    0.00003330   -0.00001375
     atom  217 type  3   force =    -0.00000329    0.00003330   -0.00001375
     atom  218 type  3   force =     0.00000329   -0.00003330   -0.00001375
     atom  219 type  4   force =    -0.00010478    0.00005153    0.00004892
     atom  220 type  4   force =     0.00010478    0.00005153    0.00004892
     atom  221 type  4   force =    -0.00010478   -0.00005153    0.00004892
     atom  222 type  4   force =     0.00010478   -0.00005153    0.00004892
     atom  223 type  4   force =    -0.00016480    0.00000000    0.00001933
     atom  224 type  4   force =     0.00016480    0.00000000    0.00001933

     Total force =     0.076951     Total SCF correction =     0.000403

     Computing stress (Cartesian axis) and pressure

     negative rho (up, down):  6.353E-01 0.000E+00
          total   stress  (Ry/bohr**3)                   (kbar)     P=       -4.82
  -0.00003483  -0.00000000   0.00000000           -5.12       -0.00        0.00
  -0.00000000  -0.00002383   0.00000000           -0.00       -3.51        0.00
   0.00000000   0.00000000  -0.00003970            0.00        0.00       -5.84

     General routines

     Parallel routines

   This run was terminated on:  14:12: 0  17May2021

   JOB DONE.
[1621275120.717504] [holy7c08610:273269:0]          mpool.c:43   UCX  WARN  object 0x2b07100 was not returned to mpool ucp_requests
[1621275120.720994] [holy7c08506:143730:0]          mpool.c:43   UCX  WARN  object 0x4845440 was not returned to mpool ucp_requests
[1621275120.723423] [holy7c08608:221971:0]          mpool.c:43   UCX  WARN  object 0x5c15b80 was not returned to mpool ucp_requests
[1621275120.723554] [holy7c08506:143728:0]          mpool.c:43   UCX  WARN  object 0x41cb180 was not returned to mpool ucp_requests
[1621275120.727460] [holy7c08506:143736:0]          mpool.c:43   UCX  WARN  object 0x38764c0 was not returned to mpool ucp_requests
[1621275120.741496] [holy7c08609:80395:0]          mpool.c:43   UCX  WARN  object 0x2c31e00 was not returned to mpool ucp_requests
[1621275120.719817] [holy7c08610:273271:0]          mpool.c:43   UCX  WARN  object 0x2ad8cc0 was not returned to mpool ucp_requests
[1621275120.724798] [holy7c08610:273279:0]          mpool.c:43   UCX  WARN  object 0x4bbcc00 was not returned to mpool ucp_requests
[1621275120.724836] [holy7c08610:273270:0]          mpool.c:43   UCX  WARN  object 0x34ff440 was not returned to mpool ucp_requests
[1621275120.728964] [holy7c08610:273278:0]          mpool.c:43   UCX  WARN  object 0x36b8680 was not returned to mpool ucp_requests
[1621275120.730734] [holy7c08610:273268:0]          mpool.c:43   UCX  WARN  object 0x3bb1640 was not returned to mpool ucp_requests
[1621275120.728187] [holy7c08610:273277:0]          mpool.c:43   UCX  WARN  object 0x59837c0 was not returned to mpool ucp_requests
[1621275120.751671] [holy7c08610:273276:0]          mpool.c:43   UCX  WARN  object 0x577d480 was not returned to mpool ucp_requests
[1621275120.728958] [holy7c08608:221979:0]          mpool.c:43   UCX  WARN  object 0x3341d80 was not returned to mpool ucp_requests
[1621275120.728988] [holy7c08608:221979:0]          mpool.c:43   UCX  WARN  object 0x3342b80 was not returned to mpool ucp_requests
[1621275120.729170] [holy7c08608:221970:0]          mpool.c:43   UCX  WARN  object 0x473a5c0 was not returned to mpool ucp_requests
[1621275120.732495] [holy7c08608:221978:0]          mpool.c:43   UCX  WARN  object 0x2daf500 was not returned to mpool ucp_requests
[1621275120.738516] [holy7c08608:221973:0]          mpool.c:43   UCX  WARN  object 0x3d10ac0 was not returned to mpool ucp_requests
[1621275120.739610] [holy7c08608:221972:0]          mpool.c:43   UCX  WARN  object 0x34d4000 was not returned to mpool ucp_requests
[1621275120.741437] [holy7c08608:221981:0]          mpool.c:43   UCX  WARN  object 0x2df2f40 was not returned to mpool ucp_requests
[1621275120.742843] [holy7c08608:221980:0]          mpool.c:43   UCX  WARN  object 0x43edd80 was not returned to mpool ucp_requests
[1621275120.743713] [holy7c08608:221965:0]          mpool.c:43   UCX  WARN  object 0x3ec6dc0 was not returned to mpool ucp_requests
[1621275120.733389] [holy7c08506:143729:0]          mpool.c:43   UCX  WARN  object 0x5aa6440 was not returned to mpool ucp_requests
[1621275120.738271] [holy7c08506:143735:0]          mpool.c:43   UCX  WARN  object 0x2c11140 was not returned to mpool ucp_requests
[1621275120.745708] [holy7c08609:80396:0]          mpool.c:43   UCX  WARN  object 0x337af40 was not returned to mpool ucp_requests
[1621275120.749204] [holy7c08609:80405:0]          mpool.c:43   UCX  WARN  object 0x2b38600 was not returned to mpool ucp_requests
[1621275120.752617] [holy7c08609:80394:0]          mpool.c:43   UCX  WARN  object 0x3c07d40 was not returned to mpool ucp_requests
[1621275120.752559] [holy7c08609:80397:0]          mpool.c:43   UCX  WARN  object 0x4534640 was not returned to mpool ucp_requests
[1621275120.756474] [holy7c08609:80403:0]          mpool.c:43   UCX  WARN  object 0x3da2ac0 was not returned to mpool ucp_requests
[1621275120.762997] [holy7c08609:80402:0]          mpool.c:43   UCX  WARN  object 0x302e940 was not returned to mpool ucp_requests
[1621275120.757185] [holy7c08609:80404:0]          mpool.c:43   UCX  WARN  object 0x2c1c240 was not returned to mpool ucp_requests
[1621275120.745681] [holy7c08506:143737:0]          mpool.c:43   UCX  WARN  object 0x30f9400 was not returned to mpool ucp_requests