     Program PWSCF v.6.5 starts on 18May2021 at 12:21:23

     R & G space division:  proc/nbgrp/npool/nimage =      80
     Reading input from YBCO_BaO_cleave_2.5_sep.pwi
Warning: card &IONS ignored
Warning: card     ION_DYNAMICS = 'BFGS' ignored
Warning: card / ignored
Warning: card &CELL ignored
Warning: card     CELL_DYNAMICS = 'BFGS' ignored
Warning: card     PRESS_CONV_THR = 5 ignored
Warning: card / ignored

     Current dimensions of program PWSCF are:
     Max number of different atomic species (ntypx) = 10
     Max number of k-points (npk) =  40000
     Max angular momentum in pseudopotentials (lmaxx) =  3
     Message from routine volume:
     axis vectors are left-handed

     Message from routine setup:
     using ibrav=0 with symmetry is DISCOURAGED, use correct ibrav instead

     bravais-lattice index     =            0
     lattice parameter (alat)  =      20.5021  a.u.
     unit-cell volume          =   36520.4775 (a.u.)^3
     number of atoms/cell      =          224
     number of atomic types    =            5
     number of electrons       =      1830.00
     number of Kohn-Sham states=         1098
     kinetic-energy cutoff     =      60.0000  Ry
     charge density cutoff     =     720.0000  Ry
     convergence threshold     =      1.0E-08
     mixing beta               =       0.5000
     number of iterations used =           10  local-TF  mixing
     Exchange-correlation= SLA PW PBE PBE
                           (   1   4   3   4   0   0   0)

     celldm(1)=  20.502120  celldm(2)=   0.000000  celldm(3)=   0.000000
     celldm(4)=   0.000000  celldm(5)=   0.000000  celldm(6)=   0.000000

     crystal axes: (cart. coord. in units of alat)
               a(1) = (  -0.716599   0.697485   0.000000 )
               a(2) = (   0.716599   0.697485   0.000000 )
               a(3) = (   0.000000   0.000000   4.239346 )

     reciprocal axes: (cart. coord. in units 2 pi/alat)
               b(1) = ( -0.697740  0.716861  0.000000 )
               b(2) = (  0.697740  0.716861  0.000000 )
               b(3) = (  0.000000  0.000000  0.235885 )

     PseudoPot. # 1 for Ba read from file:
     ./pseudo/Ba.pbe-nsp-van.UPF
     MD5 check sum: 2b9c31dd849566dd297d80989662b7a0
     Pseudo is Ultrasoft + core correction, Zval = 10.0
     Generated by new atomic code, or converted to UPF format
     Using radial grid of  907 points,  6 beta functions with:
                l(1) =   0
                l(2) =   0
                l(3) =   1
                l(4) =   1
                l(5) =   2
                l(6) =   2
     Q(r) pseudized with  6 coefficients,  rinner =    1.200   1.200   1.200
                                                       1.200   1.200

     PseudoPot. # 2 for Ca read from file:
     ./pseudo/Ca.pbe-nsp-van.UPF
     MD5 check sum: 6471098428ff4fa451746d08035ff179
     Pseudo is Ultrasoft + core correction, Zval = 10.0
     Generated by new atomic code, or converted to UPF format
     Using radial grid of  845 points,  6 beta functions with:
                l(1) =   0
                l(2) =   0
                l(3) =   1
                l(4) =   1
                l(5) =   2
                l(6) =   2
     Q(r) pseudized with  6 coefficients,  rinner =    1.200   1.200   1.200
                                                       1.200   1.200

     PseudoPot. # 3 for Cu read from file:
     ./pseudo/Cu.pbe-n-van_ak.UPF
     MD5 check sum: 34e3282627ffb533726feb647e090d62
     Pseudo is Ultrasoft + core correction, Zval = 11.0
     Generated by new atomic code, or converted to UPF format
     Using radial grid of  867 points,  6 beta functions with:
                l(1) =   0
                l(2) =   0
                l(3) =   1
                l(4) =   1
                l(5) =   2
                l(6) =   2
     Q(r) pseudized with  8 coefficients,  rinner =    1.400   1.400   1.400
                                                       1.400   1.400

     PseudoPot. # 4 for O  read from file:
     ./pseudo/O.pbe-van_ak.UPF
     MD5 check sum: 783ce7fe4c79b6a4916957118fed0856
     Pseudo is Ultrasoft, Zval =  6.0
     Generated by new atomic code, or converted to UPF format
     Using radial grid of  737 points,  4 beta functions with:
                l(1) =   0
                l(2) =   0
                l(3) =   1
                l(4) =   1
     Q(r) pseudized with  8 coefficients,  rinner =    0.800   0.800   0.800

     PseudoPot. # 5 for Y  read from file:
     ./pseudo/Y.pbe-nsp-van.UPF
     MD5 check sum: 4412fed3ab108fed87a1b7d6a69a4a38
     Pseudo is Ultrasoft + core correction, Zval = 11.0
     Generated by new atomic code, or converted to UPF format
     Using radial grid of  885 points,  6 beta functions with:
                l(1) =   0
                l(2) =   0
                l(3) =   1
                l(4) =   1
                l(5) =   2
                l(6) =   2
     Q(r) pseudized with  6 coefficients,  rinner =    1.200   1.200   1.200
                                                       1.200   1.200

     atomic species   valence    mass     pseudopotential
        Ba            10.00   137.32700     Ba( 1.00)
        Ca            10.00    40.07800     Ca( 1.00)
        Cu            11.00    63.54600     Cu( 1.00)
        O              6.00    15.99900     O ( 1.00)
        Y             11.00    88.90584     Y ( 1.00)

      4 Sym. Ops. (no inversion) found ( 3 have fractional translation)

   Cartesian axes

     site n.     atom                  positions (alat units)
         1           O   tau(   1) = (   0.3545921   0.8718562  -0.0077406  )
         2           O   tau(   2) = (   0.0037072   0.8718562  -0.0077406  )
         3           Cu  tau(   3) = (  -0.0002581   0.0006065   0.0080789  )
         4           Cu  tau(   4) = (  -0.0002581   0.3481364   0.0080789  )
         5           Cu  tau(   5) = (   0.3585574   0.3481364   0.0080789  )
         6           Cu  tau(   6) = (  -0.3580421   0.6980913   0.0080789  )
         7           Cu  tau(   7) = (   0.3577988   0.6971373   0.0086255  )
         8           Cu  tau(   8) = (   0.0005005   1.0465760   0.0086255  )
         9           Cu  tau(   9) = (  -0.3588016   0.3490903   0.0086255  )
        10           Cu  tau(  10) = (   0.0005005   0.6971373   0.0086255  )
        11           O   tau(  11) = (  -0.0001733   0.5225410  -0.0089757  )
        12           O   tau(  12) = (   0.3584726   0.5225410  -0.0089757  )
        13           O   tau(  13) = (  -0.0001733   1.2211724  -0.0089757  )
        14           O   tau(  14) = (  -0.3581278   0.5236867  -0.0089757  )
        15           O   tau(  15) = (  -0.3544557   0.8718562  -0.0105593  )
        16           O   tau(  16) = (  -0.0038445   0.1743714  -0.0105593  )
        17           O   tau(  17) = (   0.3588818   0.3486599   0.1817056  )
        18           O   tau(  18) = (  -0.0005825   0.3486599   0.1817056  )
        19           O   tau(  19) = (  -0.0005825   0.0000830   0.1817056  )
        20           O   tau(  20) = (  -0.3577167   0.6975677   0.1817056  )
        21           O   tau(  21) = (   0.3584283   0.6967843   0.1825784  )
        22           O   tau(  22) = (  -0.3581712   0.3494443   0.1825784  )
        23           O   tau(  23) = (  -0.0001290   0.6967843   0.1825784  )
        24           O   tau(  24) = (  -0.0001290   1.0469291   0.1825784  )
        25           Ba  tau(  25) = (   0.1791506   0.8718562   0.1908537  )
        26           Ba  tau(  26) = (   0.5374498   0.5231143   0.1919901  )
        27           Ba  tau(  27) = (  -0.1791506   0.5231143   0.1919901  )
        28           Ba  tau(  28) = (  -0.1793773   0.8718562   0.1931958  )
        29           Ba  tau(  29) = (  -0.1789238   0.1743714   0.1931958  )
        30           Ba  tau(  30) = (   0.1791506   0.5222101   0.1929368  )
        31           Ba  tau(  31) = (  -0.5374498   0.5240176   0.1929368  )
        32           Ba  tau(  32) = (   0.1791506   0.1743714   0.1992469  )
        33           Cu  tau(  33) = (  -0.3583426   0.3488452   0.3777458  )
        34           Cu  tau(  34) = (   0.3582559   0.6973834   0.3777458  )
        35           Cu  tau(  35) = (   0.0000433   0.6973834   0.3777458  )
        36           Cu  tau(  36) = (   0.0000433   1.0463299   0.3777458  )
        37           Cu  tau(  37) = (  -0.3586541   0.6975060   0.3775126  )
        38           Cu  tau(  38) = (   0.3579444   0.3487217   0.3775126  )
        39           Cu  tau(  39) = (   0.0003549   0.0000212   0.3775126  )
        40           Cu  tau(  40) = (   0.0003549   0.3487217   0.3775126  )
        41           O   tau(  41) = (  -0.0047976   0.1743714   0.3996864  )
        42           O   tau(  42) = (  -0.3535026   0.8718562   0.3996864  )
        43           O   tau(  43) = (  -0.5374498   0.6924605   0.3956991  )
        44           O   tau(  44) = (   0.1791506   0.3537672   0.3956991  )
        45           O   tau(  45) = (   0.3586385   0.8718562   0.4046840  )
        46           O   tau(  46) = (  -0.0003392   0.8718562   0.4046840  )
        47           O   tau(  47) = (  -0.0004857   0.5230571   0.4066611  )
        48           O   tau(  48) = (   0.3587850   0.5230571   0.4066611  )
        49           O   tau(  49) = (  -0.3578135   0.5231714   0.4066611  )
        50           O   tau(  50) = (  -0.0004857   1.2206562   0.4066611  )
        51           O   tau(  51) = (   0.1791506   1.0461604   0.4028931  )
        52           O   tau(  52) = (   0.1791506   0.6975521   0.4028931  )
        53           O   tau(  53) = (  -0.1792261   0.6967170   0.4025963  )
        54           O   tau(  54) = (  -0.1790731   0.3495106   0.4025963  )
        55           O   tau(  55) = (  -0.1792261   1.0469964   0.4025963  )
        56           O   tau(  56) = (   0.5375263   0.6967170   0.4025963  )
        57           Ca  tau(  57) = (   0.1791506   0.1743714   0.5358617  )
        58           Y   tau(  58) = (  -0.1811525   0.8718562   0.5373908  )
        59           Y   tau(  59) = (  -0.1771467   0.1743714   0.5373908  )
        60           Y   tau(  60) = (   0.1791506   0.8718562   0.5379568  )
[...]
       210           O   tau( 210) = (   0.0037081   0.8718562   2.3945378  )
       211           Cu  tau( 211) = (  -0.0002516   0.0006074   2.3787339  )
       212           Cu  tau( 212) = (  -0.0002516   0.3481345   2.3787339  )
       213           Cu  tau( 213) = (   0.3585509   0.3481345   2.3787339  )
       214           Cu  tau( 214) = (  -0.3580476   0.6980931   2.3787339  )
       215           Cu  tau( 215) = (   0.3577960   0.6971373   2.3781873  )
       216           Cu  tau( 216) = (   0.0005033   1.0465760   2.3781873  )
       217           Cu  tau( 217) = (  -0.3588035   0.3490903   2.3781873  )
       218           Cu  tau( 218) = (   0.0005033   0.6971373   2.3781873  )
       219           O   tau( 219) = (  -0.0001724   0.5225410   2.3957766  )
       220           O   tau( 220) = (   0.3584716   0.5225410   2.3957766  )
       221           O   tau( 221) = (  -0.0001724   1.2211724   2.3957766  )
[...]
   -18.7329 -18.6600 -18.6541 -18.6279 -18.6051 -18.5664 -18.5292 -18.5176
   -18.4636 -18.4559 -18.4454 -18.4357 -18.4343 -18.4273 -18.3827 -18.3768
   -18.3611 -18.3531 -18.3283 -18.2923 -18.2884 -18.2804 -18.2672 -18.2478
   -18.2427 -18.2002 -18.1949 -18.1744 -18.1719 -18.1629 -18.1531 -18.1368
   -18.1213 -18.0959 -18.0240 -18.0100 -17.9909 -17.9682 -17.9643 -17.9320
   -17.8901 -17.8305 -16.9519 -16.9234 -16.9166 -16.5652 -16.5645 -16.5415
   -15.2978 -15.1100 -15.0719 -15.0395 -14.9199 -14.9133 -14.9103 -14.8605
   -14.8372 -14.7908 -14.7719 -14.7691 -14.7423 -14.7114 -14.6832 -14.6628
   -14.6507 -14.6416 -14.6397 -14.6285 -14.6247 -14.6115 -14.5906 -14.5845
   -14.5654 -14.5638 -14.5542 -14.5353 -14.5098 -14.4838 -14.4792 -14.4654
   -14.4340 -14.4277 -14.4244 -14.4110 -14.4057 -14.3936 -14.3892 -14.3848
   -14.3815 -14.3801 -14.3791 -14.3630 -14.3351 -14.3319 -14.3208 -14.3031
   -14.2937 -14.2830 -14.2758 -14.2713 -14.2628 -14.2389 -14.2369 -14.2350
   -14.2220 -14.2067 -14.2034 -14.1948 -14.1907 -14.1849 -14.1736 -14.1527
   -14.1482 -14.1331 -14.1306 -14.1117 -14.1032 -14.0738 -14.0652 -14.0605
   -14.0452 -14.0314 -14.0223 -13.9945 -13.9825 -13.9719 -13.9512 -13.9097
   -13.8875 -13.8720 -13.8704 -13.8694 -13.8645 -13.8454 -13.8326 -13.8280
   -13.8275 -13.8273 -13.8114 -13.8107 -13.8093 -13.8085 -13.7916 -13.7630
   -13.7624 -13.7618 -13.7599 -13.7579 -13.7565 -13.7561 -13.7536 -13.7330
   -13.7249 -13.7245 -13.7215 -13.7182 -13.7182 -13.6984 -13.6904 -13.6808
   -13.6698 -13.6350 -13.6299 -13.6223 -13.5858 -13.5769 -13.4996 -13.4526
    -9.5627  -9.5163  -9.3048  -9.2112  -9.2045  -9.1947  -9.1459  -9.1243
    -9.0641  -9.0258  -8.9971  -8.9558  -8.9086  -8.8956  -8.8284  -8.8071
    -8.7066  -8.6792  -8.6112  -8.6084  -8.5480  -8.5407  -8.5246  -8.5193
    -8.4238  -8.3552  -8.3182  -8.2680  -8.2623  -8.2586  -8.2446  -8.2392
    -8.2366  -8.1286  -8.1079  -8.0847  -8.0679  -8.0510  -8.0460  -8.0240
    -8.0190  -8.0102  -8.0076  -7.9999  -7.9948  -7.9883  -7.9838  -7.9734
    -7.9726  -7.9661  -7.9626  -7.9617  -7.9538  -7.9468  -7.9455  -7.9434
    -7.9417  -7.9393  -7.9351  -7.9305  -7.9295  -7.9284  -7.9239  -7.9205
    -7.9198  -7.9110  -7.9055  -7.8944  -7.8030  -7.7884  -7.7879  -7.7739
    -7.7677  -7.7514  -7.7375  -7.7334  -7.7219  -7.7152  -7.6975  -7.6818
    -7.6741  -7.6455  -7.6233  -7.6186  -7.5913  -7.5821  -7.5727  -7.5686
    -7.5596  -7.5491  -7.5102  -7.5096  -7.4592  -7.4290  -7.3783  -7.3286
    -3.9491  -3.8074  -3.5311  -3.4799  -3.4511  -3.4046  -3.3895  -3.3601
    -3.3040  -3.2794  -3.1963  -3.0959  -3.0833  -3.0695  -3.0539  -2.8838
    -2.8797  -2.8408  -2.8400  -2.7859  -2.7801  -2.7363  -2.7269  -2.7225
    -2.7114  -2.6697  -2.6590  -2.6477  -2.6292  -2.5623  -2.5424  -2.4220
    -2.4130  -2.3764  -2.3692  -2.3544  -2.3471  -2.3201  -2.3033  -2.2978
    -2.2801  -2.2639  -2.2637  -2.2589  -2.2399  -2.2259  -2.2254  -2.2179
    -2.1786  -2.1517  -2.1465  -2.1364  -2.0919  -2.0882  -2.0778  -2.0759
    -2.0748  -2.0496  -2.0358  -2.0309  -2.0306  -2.0259  -2.0088  -2.0039
    -1.9943  -1.9919  -1.9835  -1.9782  -1.9507  -1.9334  -1.9298  -1.9269
    -1.9235  -1.9215  -1.9134  -1.9101  -1.9053  -1.8961  -1.8868  -1.8853
    -1.8782  -1.8688  -1.8614  -1.8541  -1.8422  -1.8391  -1.8387  -1.8372
    -1.8371  -1.8363  -1.8294  -1.8283  -1.8278  -1.8219  -1.8193  -1.8182
    -1.8097  -1.8061  -1.8044  -1.8034  -1.7905  -1.7737  -1.7659  -1.7654
    -1.7543  -1.7491  -1.7218  -1.7172  -1.6973  -1.6710  -1.6708  -1.6584
    -1.6577  -1.6446  -1.6441  -1.6096  -1.5784  -1.5706  -1.5419  -1.5355
    -1.5282  -1.4962  -1.4820  -1.4609  -1.4607  -1.4328  -1.4302  -1.4154
    -1.3961  -1.3952  -1.3562  -1.3400  -1.3329  -1.3249  -1.3189  -1.3053
    -1.3049  -1.2613  -1.2599  -1.2384  -1.2178  -1.2112  -1.1829  -1.1235
    -1.1171  -1.0860  -1.0825  -1.0151  -1.0062  -0.9785  -0.9631  -0.9422
    -0.9403  -0.9245  -0.9070  -0.9035  -0.8968  -0.8803  -0.8748  -0.8701
    -0.8673  -0.8659  -0.8597  -0.8350  -0.8120  -0.8035  -0.7992  -0.7986
[...]
     6.7825   6.8157   6.8610   6.8890   7.0017   7.0045   7.0428   7.0610
     7.0673   7.0825   7.0876   7.1024   7.1315   7.1353   7.1474   7.1913
     7.2231   7.2385   7.2564   7.2826   7.3097   7.3327   7.3736   7.3914
     7.5187   7.5594   7.5848   7.8033   7.8387   7.8909   7.9018   7.9220
     7.9237   7.9276   7.9378   7.9494   7.9502   7.9608   7.9752   7.9806
     8.0072   8.0260   8.0540   8.0864   8.1180   8.1390   8.1795   8.2056
     8.2110   8.2462   8.3072   8.3365   8.3450   8.3599   8.3787   8.3845
     8.3846   8.4003   8.4022   8.4162   8.4179   8.4236   8.4628   8.4907
     8.4996   8.5397   8.5803   8.5964   8.5989   8.6107   8.6190   8.6323
     8.6782   8.6865   8.7368   8.7369   8.7583   8.7646   8.7690   8.7794
     8.8138   8.8222   8.8618   8.9275   8.9434   8.9592   8.9632   8.9721
     8.9913   9.0064   9.0366   9.0476   9.0681   9.0774   9.0948   9.1335
     9.1427   9.1467   9.1616   9.1705   9.1836   9.1917   9.1933   9.2068
     9.2188   9.2404   9.2483   9.2795   9.2902   9.2943   9.3052   9.3103
     9.3532   9.3896

     the Fermi energy is     2.8966 ev

!    total energy              =  -14924.36719105 Ry
     Harris-Foulkes estimate   =  -14924.36719112 Ry
     estimated scf accuracy    <          9.4E-09 Ry

     The total energy is the sum of the following terms:

     one-electron contribution = -216540.75530409 Ry
     hartree contribution      =  109499.19149751 Ry
     xc contribution           =   -5117.05766484 Ry
     ewald contribution        =   97234.30322065 Ry
     smearing contrib. (-TS)   =      -0.04894028 Ry

     convergence has been achieved in  45 iterations

     negative rho (up, down):  6.352E-01 0.000E+00

     Forces acting on atoms (cartesian axes, Ry/au):

     atom    1 type  4   force =     0.00011391    0.00000000    0.00023125
     atom    2 type  4   force =    -0.00011391    0.00000000    0.00023125
     atom    3 type  3   force =     0.00009069   -0.00006021   -0.00016765
     atom    4 type  3   force =     0.00009069    0.00006021   -0.00016765
     atom    5 type  3   force =    -0.00009069    0.00006021   -0.00016765
     atom    6 type  3   force =    -0.00009069   -0.00006021   -0.00016765
     atom    7 type  3   force =    -0.00000732   -0.00002426   -0.00034974
     atom    8 type  3   force =     0.00000732    0.00002426   -0.00034974
     atom    9 type  3   force =    -0.00000732    0.00002426   -0.00034974
     atom   10 type  3   force =     0.00000732   -0.00002426   -0.00034974
     atom   11 type  4   force =    -0.00010499    0.00006845    0.00014926
     atom   12 type  4   force =     0.00010499    0.00006845    0.00014926
     atom   13 type  4   force =    -0.00010499   -0.00006845    0.00014926
     atom   14 type  4   force =     0.00010499   -0.00006845    0.00014926
     atom   15 type  4   force =    -0.00016821    0.00000000    0.00015930
     atom   16 type  4   force =     0.00016821    0.00000000    0.00015930
     atom   17 type  4   force =     0.00002703    0.00005369    0.00034690
     atom   18 type  4   force =    -0.00002703    0.00005369    0.00034690
     atom   19 type  4   force =    -0.00002703   -0.00005369    0.00034690
     atom   20 type  4   force =     0.00002703   -0.00005369    0.00034690
     atom   21 type  4   force =     0.00002505    0.00008550    0.00049996
     atom   22 type  4   force =     0.00002505   -0.00008550    0.00049996
     atom   23 type  4   force =    -0.00002505    0.00008550    0.00049996
     atom   24 type  4   force =    -0.00002505   -0.00008550    0.00049996
     atom   25 type  1   force =     0.00000000    0.00000000   -0.00000995
     atom   26 type  1   force =     0.00000000    0.00000000   -0.00011292
     atom   27 type  1   force =     0.00000000    0.00000000   -0.00011292
     atom   28 type  1   force =    -0.00018018    0.00000000    0.00000155
     atom   29 type  1   force =     0.00018018    0.00000000    0.00000155
     atom   30 type  1   force =     0.00000000    0.00010629   -0.00024420
     atom   31 type  1   force =     0.00000000   -0.00010629   -0.00024420
     atom   32 type  1   force =     0.00000000    0.00000000   -0.00014164
     atom   33 type  3   force =    -0.00004617   -0.00000877   -0.00003777
     atom   34 type  3   force =    -0.00004617    0.00000877   -0.00003777
     atom   35 type  3   force =     0.00004617    0.00000877   -0.00003777
     atom   36 type  3   force =     0.00004617   -0.00000877   -0.00003777
     atom   37 type  3   force =     0.00003888    0.00002072   -0.00016614
     atom   38 type  3   force =     0.00003888   -0.00002072   -0.00016614
     atom   39 type  3   force =    -0.00003888    0.00002072   -0.00016614
     atom   40 type  3   force =    -0.00003888   -0.00002072   -0.00016614
     atom   41 type  4   force =    -0.00017713    0.00000000   -0.00012197
     atom   42 type  4   force =     0.00017713    0.00000000   -0.00012197
     atom   43 type  4   force =     0.00000000   -0.00000427    0.00020576
     atom   44 type  4   force =     0.00000000    0.00000427    0.00020576
     atom   45 type  4   force =     0.00006807    0.00000000   -0.00010132
     atom   46 type  4   force =    -0.00006807    0.00000000   -0.00010132
     atom   47 type  4   force =    -0.00002471   -0.00001014    0.00001950
     atom   48 type  4   force =     0.00002471   -0.00001014    0.00001950
     atom   49 type  4   force =     0.00002471    0.00001014    0.00001950
     atom   50 type  4   force =    -0.00002471    0.00001014    0.00001950
     atom   51 type  4   force =     0.00000000    0.00000019    0.00007637
     atom   52 type  4   force =     0.00000000   -0.00000019    0.00007637
     atom   53 type  4   force =     0.00007861    0.00000830    0.00028419
     atom   54 type  4   force =    -0.00007861   -0.00000830    0.00028419
     atom   55 type  4   force =     0.00007861   -0.00000830    0.00028419
     atom   56 type  4   force =    -0.00007861    0.00000830    0.00028419
     atom   57 type  2   force =     0.00000000    0.00000000   -0.00056685
     atom   58 type  5   force =     0.00040819    0.00000000   -0.00096003
     atom   59 type  5   force =    -0.00040819    0.00000000   -0.00096003
     atom   60 type  5   force =     0.00000000    0.00000000   -0.00036190
[...]
     atom  210 type  4   force =    -0.00010470    0.00000000    0.00019132
     atom  211 type  3   force =     0.00009800   -0.00006135   -0.00040880
     atom  212 type  3   force =     0.00009800    0.00006135   -0.00040880
     atom  213 type  3   force =    -0.00009800    0.00006135   -0.00040880
     atom  214 type  3   force =    -0.00009800   -0.00006135   -0.00040880
     atom  215 type  3   force =    -0.00000048   -0.00003432   -0.00030637
     atom  216 type  3   force =     0.00000048    0.00003432   -0.00030637
     atom  217 type  3   force =    -0.00000048    0.00003432   -0.00030637
     atom  218 type  3   force =     0.00000048   -0.00003432   -0.00030637
     atom  219 type  4   force =    -0.00009954    0.00003790    0.00026358
     atom  220 type  4   force =     0.00009954    0.00003790    0.00026358
     atom  221 type  4   force =    -0.00009954   -0.00003790    0.00026358
     atom  222 type  4   force =     0.00009954   -0.00003790    0.00026358
     atom  223 type  4   force =    -0.00015972    0.00000000    0.00023659
     atom  224 type  4   force =     0.00015972    0.00000000    0.00023659

     Total force =     0.164006     Total SCF correction =     0.000429

     Computing stress (Cartesian axis) and pressure

     negative rho (up, down):  6.352E-01 0.000E+00
          total   stress  (Ry/bohr**3)                   (kbar)     P=       -6.93
  -0.00007247   0.00000000   0.00000000          -10.66        0.00        0.00
   0.00000000  -0.00003882   0.00000000            0.00       -5.71        0.00
   0.00000000   0.00000000  -0.00003004            0.00        0.00       -4.42

     General routines

     Parallel routines

   This run was terminated on:  13:52: 0  18May2021

   JOB DONE.
[1621360320.507952] [holy7c08204:197322:0]          mpool.c:43   UCX  WARN  object 0x3531140 was not returned to mpool ucp_requests
[1621360320.507828] [holy7c08105:191703:0]          mpool.c:43   UCX  WARN  object 0x3353bc0 was not returned to mpool ucp_requests
[1621360320.508733] [holy7c06212:89829:0]          mpool.c:43   UCX  WARN  object 0x2e14c00 was not returned to mpool ucp_requests
[1621360320.510242] [holy7c06212:89837:0]          mpool.c:43   UCX  WARN  object 0x37ba480 was not returned to mpool ucp_requests
[1621360320.510291] [holy7c06212:89837:0]          mpool.c:43   UCX  WARN  object 0x37c2280 was not returned to mpool ucp_requests
[1621360320.510530] [holy7c06212:89835:0]          mpool.c:43   UCX  WARN  object 0x466c2c0 was not returned to mpool ucp_requests
[1621360320.531527] [holy7c08102:59704:0]          mpool.c:43   UCX  WARN  object 0x3e55680 was not returned to mpool ucp_requests
[1621360320.531551] [holy7c08102:59704:0]          mpool.c:43   UCX  WARN  object 0x3e5b340 was not returned to mpool ucp_requests
[1621360320.510874] [holy7c08105:191711:0]          mpool.c:43   UCX  WARN  object 0x3287f40 was not returned to mpool ucp_requests
[1621360320.508107] [holy7c08105:191701:0]          mpool.c:43   UCX  WARN  object 0x3b21240 was not returned to mpool ucp_requests
[1621360320.508044] [holy7c08204:197323:0]          mpool.c:43   UCX  WARN  object 0x3a9f500 was not returned to mpool ucp_requests
[1621360320.525204] [holy7c08105:191709:0]          mpool.c:43   UCX  WARN  object 0x4113580 was not returned to mpool ucp_requests
[1621360320.509067] [holy7c08204:197321:0]          mpool.c:43   UCX  WARN  object 0x2b2f540 was not returned to mpool ucp_requests
[1621360320.507613] [holy7c08204:197324:0]          mpool.c:43   UCX  WARN  object 0x325f7c0 was not returned to mpool ucp_requests
[1621360320.509982] [holy7c08204:197331:0]          mpool.c:43   UCX  WARN  object 0x416f300 was not returned to mpool ucp_requests
[1621360320.511051] [holy7c08204:197329:0]          mpool.c:43   UCX  WARN  object 0x3da6180 was not returned to mpool ucp_requests
[1621360320.509014] [holy7c08204:197330:0]          mpool.c:43   UCX  WARN  object 0x3c44b80 was not returned to mpool ucp_requests
[1621360320.509637] [holy7c08204:197332:0]          mpool.c:43   UCX  WARN  object 0x3198500 was not returned to mpool ucp_requests
[1621360320.518568] [holy7c08105:191710:0]          mpool.c:43   UCX  WARN  object 0x411eac0 was not returned to mpool ucp_requests
[1621360320.519688] [holy7c08105:191712:0]          mpool.c:43   UCX  WARN  object 0x4331ac0 was not returned to mpool ucp_requests
[1621360320.516319] [holy7c08105:191702:0]          mpool.c:43   UCX  WARN  object 0x38f4100 was not returned to mpool ucp_requests
[1621360320.516426] [holy7c08105:191704:0]          mpool.c:43   UCX  WARN  object 0x6a83780 was not returned to mpool ucp_requests
[1621360320.517008] [holy7c06212:89830:0]          mpool.c:43   UCX  WARN  object 0x4029a40 was not returned to mpool ucp_requests
[1621360320.517563] [holy7c06212:89828:0]          mpool.c:43   UCX  WARN  object 0x2d46700 was not returned to mpool ucp_requests
[1621360320.522798] [holy7c06212:89838:0]          mpool.c:43   UCX  WARN  object 0x43b5880 was not returned to mpool ucp_requests
[1621360320.543741] [holy7c06212:89836:0]          mpool.c:43   UCX  WARN  object 0x3df4840 was not returned to mpool ucp_requests
[1621360320.534835] [holy7c08102:59707:0]          mpool.c:43   UCX  WARN  object 0x428f480 was not returned to mpool ucp_requests
[1621360320.541526] [holy7c08102:59696:0]          mpool.c:43   UCX  WARN  object 0x2b88600 was not returned to mpool ucp_requests
[1621360320.534886] [holy7c08102:59706:0]          mpool.c:43   UCX  WARN  object 0x2e35880 was not returned to mpool ucp_requests
[1621360320.534908] [holy7c08102:59706:0]          mpool.c:43   UCX  WARN  object 0x2e3b000 was not returned to mpool ucp_requests
[1621360320.539563] [holy7c08102:59698:0]          mpool.c:43   UCX  WARN  object 0x398c8c0 was not returned to mpool ucp_requests
[1621360320.538957] [holy7c08102:59699:0]          mpool.c:43   UCX  WARN  object 0x3b9c500 was not returned to mpool ucp_requests
[1621360320.540703] [holy7c08102:59697:0]          mpool.c:43   UCX  WARN  object 0x4054a80 was not returned to mpool ucp_requests
[1621360320.543378] [holy7c08102:59705:0]          mpool.c:43   UCX  WARN  object 0x32feb80 was not returned to mpool ucp_requests
[1621360320.543399] [holy7c08102:59705:0]          mpool.c:43   UCX  WARN  object 0x3301900 was not returned to mpool ucp_requests