     Program PWSCF v.6.5 starts on 17May2021 at 22:28:28

     R & G space division:  proc/nbgrp/npool/nimage =      80
     Reading input from YBCO_CuO_cleave_2.5_sep.pwi
Warning: card &IONS ignored
Warning: card     ION_DYNAMICS = 'BFGS' ignored
Warning: card / ignored
Warning: card &CELL ignored
Warning: card     CELL_DYNAMICS = 'BFGS' ignored
Warning: card     PRESS_CONV_THR = 5 ignored
Warning: card / ignored

     Current dimensions of program PWSCF are:
     Max number of different atomic species (ntypx) = 10
     Max number of k-points (npk) =  40000
     Max angular momentum in pseudopotentials (lmaxx) =  3
     Message from routine volume:
     axis vectors are left-handed

     Message from routine setup:
     using ibrav=0 with symmetry is DISCOURAGED, use correct ibrav instead

     bravais-lattice index     =            0
     lattice parameter (alat)  =      20.5021  a.u.
     unit-cell volume          =   36520.4775 (a.u.)^3
     number of atoms/cell      =          224
     number of atomic types    =            5
     number of electrons       =      1830.00
     number of Kohn-Sham states=         1098
     kinetic-energy cutoff     =      60.0000  Ry
     charge density cutoff     =     720.0000  Ry
     convergence threshold     =      1.0E-08
     mixing beta               =       0.5000
     number of iterations used =           10  local-TF  mixing
     Exchange-correlation= SLA PW PBE PBE
                           (   1   4   3   4   0   0   0)

     celldm(1)=  20.502120  celldm(2)=   0.000000  celldm(3)=   0.000000
     celldm(4)=   0.000000  celldm(5)=   0.000000  celldm(6)=   0.000000

     crystal axes: (cart. coord. in units of alat)
               a(1) = (  -0.716599   0.697485   0.000000 )
               a(2) = (   0.716599   0.697485   0.000000 )
               a(3) = (   0.000000   0.000000   4.239346 )

     reciprocal axes: (cart. coord. in units 2 pi/alat)
               b(1) = ( -0.697740  0.716861  0.000000 )
               b(2) = (  0.697740  0.716861  0.000000 )
               b(3) = (  0.000000  0.000000  0.235885 )

     PseudoPot. # 1 for Ba read from file:
     ./pseudo/Ba.pbe-nsp-van.UPF
     MD5 check sum: 2b9c31dd849566dd297d80989662b7a0
     Pseudo is Ultrasoft + core correction, Zval = 10.0
     Generated by new atomic code, or converted to UPF format
     Using radial grid of  907 points,  6 beta functions with:
                l(1) =   0
                l(2) =   0
                l(3) =   1
                l(4) =   1
                l(5) =   2
                l(6) =   2
     Q(r) pseudized with  6 coefficients,  rinner =    1.200   1.200   1.200
                                                       1.200   1.200

     PseudoPot. # 2 for Ca read from file:
     ./pseudo/Ca.pbe-nsp-van.UPF
     MD5 check sum: 6471098428ff4fa451746d08035ff179
     Pseudo is Ultrasoft + core correction, Zval = 10.0
     Generated by new atomic code, or converted to UPF format
     Using radial grid of  845 points,  6 beta functions with:
                l(1) =   0
                l(2) =   0
                l(3) =   1
                l(4) =   1
                l(5) =   2
                l(6) =   2
     Q(r) pseudized with  6 coefficients,  rinner =    1.200   1.200   1.200
                                                       1.200   1.200

     PseudoPot. # 3 for Cu read from file:
     ./pseudo/Cu.pbe-n-van_ak.UPF
     MD5 check sum: 34e3282627ffb533726feb647e090d62
     Pseudo is Ultrasoft + core correction, Zval = 11.0
     Generated by new atomic code, or converted to UPF format
     Using radial grid of  867 points,  6 beta functions with:
                l(1) =   0
                l(2) =   0
                l(3) =   1
                l(4) =   1
                l(5) =   2
                l(6) =   2
     Q(r) pseudized with  8 coefficients,  rinner =    1.400   1.400   1.400
                                                       1.400   1.400

     PseudoPot. # 4 for O  read from file:
     ./pseudo/O.pbe-van_ak.UPF
     MD5 check sum: 783ce7fe4c79b6a4916957118fed0856
     Pseudo is Ultrasoft, Zval =  6.0
     Generated by new atomic code, or converted to UPF format
     Using radial grid of  737 points,  4 beta functions with:
                l(1) =   0
                l(2) =   0
                l(3) =   1
                l(4) =   1
     Q(r) pseudized with  8 coefficients,  rinner =    0.800   0.800   0.800

     PseudoPot. # 5 for Y  read from file:
     ./pseudo/Y.pbe-nsp-van.UPF
     MD5 check sum: 4412fed3ab108fed87a1b7d6a69a4a38
     Pseudo is Ultrasoft + core correction, Zval = 11.0
     Generated by new atomic code, or converted to UPF format
     Using radial grid of  885 points,  6 beta functions with:
                l(1) =   0
                l(2) =   0
                l(3) =   1
                l(4) =   1
                l(5) =   2
                l(6) =   2
     Q(r) pseudized with  6 coefficients,  rinner =    1.200   1.200   1.200
                                                       1.200   1.200

     atomic species   valence    mass     pseudopotential
        Ba            10.00   137.32700     Ba( 1.00)
        Ca            10.00    40.07800     Ca( 1.00)
        Cu            11.00    63.54600     Cu( 1.00)
        O              6.00    15.99900     O ( 1.00)
        Y             11.00    88.90584     Y ( 1.00)

      4 Sym. Ops. (no inversion) found ( 3 have fractional translation)

   Cartesian axes

     site n.     atom                  positions (alat units)
         1           O   tau(   1) = (   0.3545921   0.8718562  -0.0077406  )
         2           O   tau(   2) = (   0.0037072   0.8718562  -0.0077406  )
         3           Cu  tau(   3) = (  -0.0002581   0.0006065   0.0080789  )
         4           Cu  tau(   4) = (  -0.0002581   0.3481364   0.0080789  )
         5           Cu  tau(   5) = (   0.3585574   0.3481364   0.0080789  )
         6           Cu  tau(   6) = (  -0.3580421   0.6980913   0.0080789  )
         7           Cu  tau(   7) = (   0.3577988   0.6971373   0.0086255  )
         8           Cu  tau(   8) = (   0.0005005   1.0465760   0.0086255  )
         9           Cu  tau(   9) = (  -0.3588016   0.3490903   0.0086255  )
        10           Cu  tau(  10) = (   0.0005005   0.6971373   0.0086255  )
        11           O   tau(  11) = (  -0.0001733   0.5225410  -0.0089757  )
        12           O   tau(  12) = (   0.3584726   0.5225410  -0.0089757  )
        13           O   tau(  13) = (  -0.0001733   1.2211724  -0.0089757  )
        14           O   tau(  14) = (  -0.3581278   0.5236867  -0.0089757  )
        15           O   tau(  15) = (  -0.3544557   0.8718562  -0.0105593  )
        16           O   tau(  16) = (  -0.0038445   0.1743714  -0.0105593  )
        17           O   tau(  17) = (   0.3588818   0.3486599   0.1817056  )
        18           O   tau(  18) = (  -0.0005825   0.3486599   0.1817056  )
        19           O   tau(  19) = (  -0.0005825   0.0000830   0.1817056  )
        20           O   tau(  20) = (  -0.3577167   0.6975677   0.1817056  )
        21           O   tau(  21) = (   0.3584283   0.6967843   0.1825784  )
        22           O   tau(  22) = (  -0.3581712   0.3494443   0.1825784  )
        23           O   tau(  23) = (  -0.0001290   0.6967843   0.1825784  )
        24           O   tau(  24) = (  -0.0001290   1.0469291   0.1825784  )
        25           Ba  tau(  25) = (   0.1791506   0.8718562   0.1908537  )
        26           Ba  tau(  26) = (   0.5374498   0.5231143   0.1919901  )
        27           Ba  tau(  27) = (  -0.1791506   0.5231143   0.1919901  )
        28           Ba  tau(  28) = (  -0.1793773   0.8718562   0.1931958  )
        29           Ba  tau(  29) = (  -0.1789238   0.1743714   0.1931958  )
        30           Ba  tau(  30) = (   0.1791506   0.5222101   0.1929368  )
        31           Ba  tau(  31) = (  -0.5374498   0.5240176   0.1929368  )
        32           Ba  tau(  32) = (   0.1791506   0.1743714   0.1992469  )
        33           Cu  tau(  33) = (  -0.3583426   0.3488452   0.3777458  )
        34           Cu  tau(  34) = (   0.3582559   0.6973834   0.3777458  )
        35           Cu  tau(  35) = (   0.0000433   0.6973834   0.3777458  )
        36           Cu  tau(  36) = (   0.0000433   1.0463299   0.3777458  )
        37           Cu  tau(  37) = (  -0.3586541   0.6975060   0.3775126  )
        38           Cu  tau(  38) = (   0.3579444   0.3487217   0.3775126  )
        39           Cu  tau(  39) = (   0.0003549   0.0000212   0.3775126  )
        40           Cu  tau(  40) = (   0.0003549   0.3487217   0.3775126  )
        41           O   tau(  41) = (  -0.0047976   0.1743714   0.3996864  )
        42           O   tau(  42) = (  -0.3535026   0.8718562   0.3996864  )
        43           O   tau(  43) = (  -0.5374498   0.6924605   0.3956991  )
        44           O   tau(  44) = (   0.1791506   0.3537672   0.3956991  )
        45           O   tau(  45) = (   0.3586385   0.8718562   0.4046840  )
        46           O   tau(  46) = (  -0.0003392   0.8718562   0.4046840  )
        47           O   tau(  47) = (  -0.0004857   0.5230571   0.4066611  )
        48           O   tau(  48) = (   0.3587850   0.5230571   0.4066611  )
        49           O   tau(  49) = (  -0.3578135   0.5231714   0.4066611  )
        50           O   tau(  50) = (  -0.0004857   1.2206562   0.4066611  )
        51           O   tau(  51) = (   0.1791506   1.0461604   0.4028931  )
        52           O   tau(  52) = (   0.1791506   0.6975521   0.4028931  )
        53           O   tau(  53) = (  -0.1792261   0.6967170   0.4025963  )
        54           O   tau(  54) = (  -0.1790731   0.3495106   0.4025963  )
        55           O   tau(  55) = (  -0.1792261   1.0469964   0.4025963  )
        56           O   tau(  56) = (   0.5375263   0.6967170   0.4025963  )
        57           Ca  tau(  57) = (   0.1791506   0.1743714   0.5358617  )
        58           Y   tau(  58) = (  -0.1811525   0.8718562   0.5373908  )
        59           Y   tau(  59) = (  -0.1771467   0.1743714   0.5373908  )
        60           Y   tau(  60) = (   0.1791506   0.8718562   0.5379568  )
[...]
       210           O   tau( 210) = (   0.0037081   0.8718562   2.3945378  )
       211           Cu  tau( 211) = (  -0.0002516   0.0006074   2.3787339  )
       212           Cu  tau( 212) = (  -0.0002516   0.3481345   2.3787339  )
       213           Cu  tau( 213) = (   0.3585509   0.3481345   2.3787339  )
       214           Cu  tau( 214) = (  -0.3580476   0.6980931   2.3787339  )
       215           Cu  tau( 215) = (   0.3577960   0.6971373   2.3781873  )
       216           Cu  tau( 216) = (   0.0005033   1.0465760   2.3781873  )
       217           Cu  tau( 217) = (  -0.3588035   0.3490903   2.3781873  )
       218           Cu  tau( 218) = (   0.0005033   0.6971373   2.3781873  )
       219           O   tau( 219) = (  -0.0001724   0.5225410   2.3957766  )
       220           O   tau( 220) = (   0.3584716   0.5225410   2.3957766  )
       221           O   tau( 221) = (  -0.0001724   1.2211724   2.3957766  )
[...]
   -22.7174 -22.7157 -22.7109 -22.7087 -22.6850 -22.6721 -22.6711 -22.6398
   -22.6388 -22.6311 -22.5964 -22.5760 -22.5633 -22.5277 -22.4469 -22.2425
   -18.8927 -18.8204 -18.8146 -18.8057 -18.7905 -18.7628 -18.7349 -18.7292
   -18.7271 -18.7125 -18.6863 -18.6863 -18.6758 -18.6410 -18.6235 -18.6163
   -18.6045 -18.6004 -18.5974 -18.5923 -18.5877 -18.5335 -18.5287 -18.5125
   -18.5113 -18.5105 -18.4954 -18.4854 -18.4524 -18.4337 -18.4252 -18.4085
   -18.4046 -18.4017 -18.3648 -18.3449 -18.3345 -18.3226 -18.3203 -18.2814
   -18.2452 -18.1921 -17.1121 -17.0854 -17.0796 -17.0218 -16.9909 -16.9894
   -15.4490 -15.3886 -15.2614 -15.2015 -15.1904 -15.1361 -15.0554 -15.0036
   -14.9316 -14.9135 -14.8781 -14.8623 -14.8572 -14.8365 -14.8333 -14.7969
   -14.7725 -14.7657 -14.7419 -14.7293 -14.7105 -14.7004 -14.6983 -14.6912
   -14.6786 -14.6657 -14.6619 -14.6520 -14.6416 -14.6356 -14.6195 -14.6073
   -14.5930 -14.5847 -14.5623 -14.5568 -14.5238 -14.5223 -14.5102 -14.5022
   -14.5000 -14.4980 -14.4869 -14.4834 -14.4731 -14.4727 -14.4691 -14.4570
   -14.4540 -14.4502 -14.4316 -14.4261 -14.4212 -14.4160 -14.3843 -14.3739
   -14.3684 -14.3672 -14.3656 -14.3555 -14.3516 -14.3492 -14.3363 -14.3348
   -14.3127 -14.3094 -14.2950 -14.2885 -14.2857 -14.2816 -14.2679 -14.2627
   -14.2483 -14.2363 -14.2335 -14.2310 -14.2157 -14.2134 -14.2100 -14.1913
   -14.1758 -14.1616 -14.1600 -14.1596 -14.1463 -14.1089 -14.0858 -14.0814
   -13.9419 -13.9373 -13.9253 -13.9242 -13.9207 -13.9199 -13.9194 -13.9023
   -13.9022 -13.9019 -13.8704 -13.8669 -13.8525 -13.8486 -13.8479 -13.8346
   -13.8279 -13.8146 -13.8080 -13.7727 -13.7445 -13.7083 -13.6980 -13.6775
   -12.7712 -12.7580 -12.6841 -12.6836 -12.6219 -12.6210 -12.5830 -12.5060
    -8.6594  -8.6463  -8.5055  -8.3795  -8.3739  -8.3702  -8.3659  -8.3606
    -8.3567  -8.2741  -8.2652  -8.2191  -8.2139  -8.2062  -8.2061  -8.2006
    -8.1671  -8.1584  -8.1563  -8.1543  -8.1383  -8.1352  -8.1227  -8.1204
    -8.1180  -8.1113  -8.1071  -8.1013  -8.0975  -8.0817  -8.0778  -8.0694
    -8.0680  -8.0664  -8.0632  -8.0619  -8.0581  -8.0554  -8.0523  -8.0473
    -8.0464  -8.0446  -8.0422  -8.0413  -8.0375  -8.0333  -8.0332  -8.0320
    -8.0291  -8.0276  -8.0181  -8.0163  -7.9953  -7.9926  -7.9738  -7.9400
    -7.9376  -7.9128  -7.8856  -7.8733  -7.8733  -7.8718  -7.8635  -7.8491
    -7.8357  -7.8316  -7.8090  -7.7957  -7.7806  -7.7735  -7.7674  -7.7570
    -7.7500  -7.7441  -7.7436  -7.7028  -7.6937  -7.6892  -7.6844  -7.6828
    -7.6805  -7.6740  -7.6721  -7.6709  -7.6542  -7.6418  -7.6194  -7.5701
    -7.5328  -7.5209  -7.5005  -7.4897  -7.4679  -7.4491  -7.2555  -7.2522
    -4.1030  -4.0352  -3.6845  -3.6306  -3.6138  -3.6091  -3.5678  -3.5438
    -3.5150  -3.4897  -3.2694  -3.2421  -3.2151  -3.1739  -3.1463  -3.1142
    -2.9877  -2.9705  -2.9480  -2.9306  -2.9187  -2.9054  -2.8842  -2.8658
    -2.8545  -2.8467  -2.8224  -2.8093  -2.8006  -2.7177  -2.6950  -2.6932
    -2.6261  -2.6018  -2.4941  -2.4849  -2.4636  -2.4319  -2.4223  -2.4187
    -2.4121  -2.4102  -2.4069  -2.4037  -2.3943  -2.3844  -2.3327  -2.3276
    -2.3274  -2.2813  -2.2583  -2.2507  -2.2066  -2.1962  -2.1940  -2.1911
    -2.1864  -2.1749  -2.1602  -2.1443  -2.1436  -2.1377  -2.1343  -2.1300
    -2.1298  -2.1109  -2.1088  -2.1054  -2.1026  -2.0974  -2.0873  -2.0735
    -2.0734  -2.0644  -2.0510  -2.0334  -2.0275  -2.0256  -2.0236  -2.0199
    -1.9988  -1.9941  -1.9920  -1.9891  -1.9816  -1.9555  -1.9498  -1.9487
    -1.9448  -1.9423  -1.9422  -1.9339  -1.9294  -1.9242  -1.9236  -1.9231
    -1.9136  -1.9117  -1.8952  -1.8935  -1.8744  -1.8726  -1.8706  -1.8634
    -1.8521  -1.8456  -1.8429  -1.8254  -1.8228  -1.8189  -1.8159  -1.8087
    -1.7888  -1.7855  -1.7843  -1.7823  -1.7817  -1.7668  -1.7562  -1.7476
    -1.7448  -1.7371  -1.7359  -1.7261  -1.7093  -1.7071  -1.6882  -1.6780
    -1.6677  -1.6408  -1.6374  -1.5551  -1.4198  -1.3825  -1.3567  -1.3471
    -1.3211  -1.2881  -1.2503  -1.1498  -1.1424  -1.1267  -1.1240  -1.0937
    -1.0786  -1.0582  -1.0467  -1.0350  -1.0350  -1.0222  -1.0201  -1.0143
    -1.0104  -0.9962  -0.9942  -0.9913  -0.9801  -0.9771  -0.9703  -0.9605
    -0.9518  -0.9422  -0.9220  -0.9082  -0.9063  -0.9049  -0.8998  -0.8898
[...]
     6.9432   6.9636   6.9660   6.9895   7.0079   7.0550   7.1369   7.1769
     7.2114   7.2500   7.2618   7.3119   7.5576   7.5702   7.6193   7.6632
     7.6656   7.7229   7.7279   7.7377   7.7737   7.7851   7.7929   7.8019
     7.8124   7.8156   7.8162   7.8285   7.8314   7.8345   7.8705   7.8740
     7.8888   7.9108   7.9221   7.9804   8.0008   8.0054   8.0223   8.0889
     8.0990   8.1298   8.1462   8.1501   8.1541   8.1812   8.2411   8.2455
     8.2680   8.2802   8.2914   8.2963   8.2963   8.3156   8.3672   8.4149
     8.4355   8.4357   8.4677   8.4804   8.4844   8.5203   8.5739   8.6033
     8.6229   8.6251   8.6452   8.6712   8.6952   8.7001   8.7154   8.7394
     8.7640   8.8192   8.8347   8.8585   8.8626   8.8996   8.9165   8.9351
     8.9549   8.9690   9.0061   9.0195   9.0257   9.0270   9.0369   9.0487
     9.0596   9.0609   9.0667   9.0860   9.0994   9.1227   9.1286   9.1444
     9.1519   9.1540   9.1676   9.1700   9.1759   9.1839   9.1952   9.2208
     9.2336   9.2416   9.2594   9.2603   9.2725   9.2934   9.2961   9.2984
     9.3249   9.3489

     the Fermi energy is     2.7859 ev

!    total energy              =  -14923.89623567 Ry
     Harris-Foulkes estimate   =  -14923.89623567 Ry
     estimated scf accuracy    <          4.1E-09 Ry

     The total energy is the sum of the following terms:

     one-electron contribution = -213363.35449856 Ry
     hartree contribution      =  107906.99628245 Ry
     xc contribution           =   -5117.02272191 Ry
     ewald contribution        =   95649.55662355 Ry
     smearing contrib. (-TS)   =      -0.07192120 Ry

     convergence has been achieved in  42 iterations

     negative rho (up, down):  6.348E-01 0.000E+00

     Forces acting on atoms (cartesian axes, Ry/au):

     atom    1 type  4   force =     0.00008887    0.00000000   -0.00044868
     atom    2 type  4   force =    -0.00008887    0.00000000   -0.00044868
     atom    3 type  3   force =     0.00008800   -0.00003492    0.00016081
     atom    4 type  3   force =     0.00008800    0.00003492    0.00016081
     atom    5 type  3   force =    -0.00008800    0.00003492    0.00016081
     atom    6 type  3   force =    -0.00008800   -0.00003492    0.00016081
     atom    7 type  3   force =     0.00000060   -0.00000502   -0.00005164
     atom    8 type  3   force =    -0.00000060    0.00000502   -0.00005164
     atom    9 type  3   force =     0.00000060    0.00000502   -0.00005164
     atom   10 type  3   force =    -0.00000060   -0.00000502   -0.00005164
     atom   11 type  4   force =    -0.00011434    0.00005691   -0.00045937
     atom   12 type  4   force =     0.00011434    0.00005691   -0.00045937
     atom   13 type  4   force =    -0.00011434   -0.00005691   -0.00045937
     atom   14 type  4   force =     0.00011434   -0.00005691   -0.00045937
     atom   15 type  4   force =    -0.00014306    0.00000000   -0.00055117
     atom   16 type  4   force =     0.00014306    0.00000000   -0.00055117
     atom   17 type  4   force =    -0.00000380    0.00005616    0.00067799
     atom   18 type  4   force =     0.00000380    0.00005616    0.00067799
     atom   19 type  4   force =     0.00000380   -0.00005616    0.00067799
     atom   20 type  4   force =    -0.00000380   -0.00005616    0.00067799
     atom   21 type  4   force =     0.00004241    0.00004383    0.00088697
     atom   22 type  4   force =     0.00004241   -0.00004383    0.00088697
     atom   23 type  4   force =    -0.00004241    0.00004383    0.00088697
     atom   24 type  4   force =    -0.00004241   -0.00004383    0.00088697
     atom   25 type  1   force =     0.00000000    0.00000000   -0.00020970
     atom   26 type  1   force =     0.00000000    0.00000000   -0.00033494
     atom   27 type  1   force =     0.00000000    0.00000000   -0.00033494
     atom   28 type  1   force =    -0.00015617    0.00000000   -0.00020487
     atom   29 type  1   force =     0.00015617    0.00000000   -0.00020487
     atom   30 type  1   force =     0.00000000    0.00012179   -0.00045184
     atom   31 type  1   force =     0.00000000   -0.00012179   -0.00045184
     atom   32 type  1   force =     0.00000000    0.00000000   -0.00034523
     atom   33 type  3   force =    -0.00004279   -0.00001074   -0.00053774
     atom   34 type  3   force =    -0.00004279    0.00001074   -0.00053774
     atom   35 type  3   force =     0.00004279    0.00001074   -0.00053774
     atom   36 type  3   force =     0.00004279   -0.00001074   -0.00053774
     atom   37 type  3   force =     0.00002063   -0.00004337   -0.00053910
     atom   38 type  3   force =     0.00002063    0.00004337   -0.00053910
     atom   39 type  3   force =    -0.00002063   -0.00004337   -0.00053910
     atom   40 type  3   force =    -0.00002063    0.00004337   -0.00053910
     atom   41 type  4   force =    -0.00040958    0.00000000    0.00145600
     atom   42 type  4   force =     0.00040958    0.00000000    0.00145600
     atom   43 type  4   force =     0.00000000   -0.00010596    0.00134076
     atom   44 type  4   force =     0.00000000    0.00010596    0.00134076
     atom   45 type  4   force =     0.00006811    0.00000000    0.00170004
     atom   46 type  4   force =    -0.00006811    0.00000000    0.00170004
     atom   47 type  4   force =    -0.00001591   -0.00010276    0.00171872
     atom   48 type  4   force =     0.00001591   -0.00010276    0.00171872
     atom   49 type  4   force =     0.00001591    0.00010276    0.00171872
     atom   50 type  4   force =    -0.00001591    0.00010276    0.00171872
     atom   51 type  4   force =     0.00000000   -0.00002593    0.00133841
     atom   52 type  4   force =     0.00000000    0.00002593    0.00133841
     atom   53 type  4   force =     0.00002916    0.00003721    0.00155224
     atom   54 type  4   force =    -0.00002916   -0.00003721    0.00155224
     atom   55 type  4   force =     0.00002916   -0.00003721    0.00155224
     atom   56 type  4   force =    -0.00002916    0.00003721    0.00155224
     atom   57 type  2   force =     0.00000000    0.00000000   -0.00325323
     atom   58 type  5   force =     0.00053376    0.00000000   -0.00548455
     atom   59 type  5   force =    -0.00053376    0.00000000   -0.00548455
     atom   60 type  5   force =     0.00000000    0.00000000   -0.00476379
[...]
     atom  210 type  4   force =    -0.00006349    0.00000000   -0.00012050
     atom  211 type  3   force =     0.00008935   -0.00004998    0.00069592
     atom  212 type  3   force =     0.00008935    0.00004998    0.00069592
     atom  213 type  3   force =    -0.00008935    0.00004998    0.00069592
     atom  214 type  3   force =    -0.00008935   -0.00004998    0.00069592
     atom  215 type  3   force =     0.00000318   -0.00002957    0.00093600
     atom  216 type  3   force =    -0.00000318    0.00002957    0.00093600
     atom  217 type  3   force =     0.00000318    0.00002957    0.00093600
     atom  218 type  3   force =    -0.00000318   -0.00002957    0.00093600
     atom  219 type  4   force =    -0.00010345    0.00019290   -0.00004215
     atom  220 type  4   force =     0.00010345    0.00019290   -0.00004215
     atom  221 type  4   force =    -0.00010345   -0.00019290   -0.00004215
     atom  222 type  4   force =     0.00010345   -0.00019290   -0.00004215
     atom  223 type  4   force =    -0.00011509    0.00000000    0.00002298
     atom  224 type  4   force =     0.00011509    0.00000000    0.00002298

     Total force =     0.157501     Total SCF correction =     0.000272

     Computing stress (Cartesian axis) and pressure

     negative rho (up, down):  6.348E-01 0.000E+00
          total   stress  (Ry/bohr**3)                   (kbar)     P=       -6.76
  -0.00000348   0.00000000   0.00000000           -0.51        0.00        0.00
   0.00000000  -0.00010167   0.00000000            0.00      -14.96        0.00
   0.00000000   0.00000000  -0.00003271            0.00        0.00       -4.81

     General routines

     Parallel routines

   This run was terminated on:  23:59:34  17May2021

   JOB DONE.
[1621310374.874105] [holy7c06511:253829:0]          mpool.c:43   UCX  WARN  object 0x2bc4a00 was not returned to mpool ucp_requests
[1621310374.902793] [holy7c06607:266162:0]          mpool.c:43   UCX  WARN  object 0x3c45940 was not returned to mpool ucp_requests
[1621310374.879691] [holy7c06511:253830:0]          mpool.c:43   UCX  WARN  object 0x67fe440 was not returned to mpool ucp_requests
[1621310374.917205] [holy7c06509:28594:0]          mpool.c:43   UCX  WARN  object 0x3aabfc0 was not returned to mpool ucp_requests
[1621310374.924288] [holy7c06509:28595:0]          mpool.c:43   UCX  WARN  object 0x5d84940 was not returned to mpool ucp_requests
[1621310374.924653] [holy7c06509:28593:0]          mpool.c:43   UCX  WARN  object 0x4355480 was not returned to mpool ucp_requests
[1621310374.935485] [holy7c06509:28603:0]          mpool.c:43   UCX  WARN  object 0x400f500 was not returned to mpool ucp_requests
[1621310374.936899] [holy7c06509:28601:0]          mpool.c:43   UCX  WARN  object 0x29bbd40 was not returned to mpool ucp_requests
[1621310374.935368] [holy7c06601:139416:0]          mpool.c:43   UCX  WARN  object 0x371af40 was not returned to mpool ucp_requests
[1621310374.938609] [holy7c06509:28600:0]          mpool.c:43   UCX  WARN  object 0x4326140 was not returned to mpool ucp_requests
[1621310374.941121] [holy7c06509:28602:0]          mpool.c:43   UCX  WARN  object 0x3553640 was not returned to mpool ucp_requests
[1621310374.930931] [holy7c06510:179986:0]          mpool.c:43   UCX  WARN  object 0x4676d40 was not returned to mpool ucp_requests
[1621310374.912751] [holy7c06607:266161:0]          mpool.c:43   UCX  WARN  object 0x4a5e340 was not returned to mpool ucp_requests
[1621310374.943823] [holy7c06601:139430:0]          mpool.c:43   UCX  WARN  object 0x3c48dc0 was not returned to mpool ucp_requests
[1621310374.951435] [holy7c06601:139421:0]          mpool.c:43   UCX  WARN  object 0x604cf40 was not returned to mpool ucp_requests
[1621310374.951554] [holy7c06601:139422:0]          mpool.c:43   UCX  WARN  object 0x3c01c00 was not returned to mpool ucp_requests
[1621310374.947886] [holy7c06601:139415:0]          mpool.c:43   UCX  WARN  object 0x30cf940 was not returned to mpool ucp_requests
[1621310374.948986] [holy7c06601:139423:0]          mpool.c:43   UCX  WARN  object 0x36d3380 was not returned to mpool ucp_requests
[1621310374.947611] [holy7c06601:139414:0]          mpool.c:43   UCX  WARN  object 0x3acbe40 was not returned to mpool ucp_requests
[1621310374.961038] [holy7c06601:139424:0]          mpool.c:43   UCX  WARN  object 0x5eefdc0 was not returned to mpool ucp_requests
[1621310374.957503] [holy7c06601:139429:0]          mpool.c:43   UCX  WARN  object 0x34af2c0 was not returned to mpool ucp_requests
[1621310374.959676] [holy7c06601:139413:0]          mpool.c:43   UCX  WARN  object 0x326c440 was not returned to mpool ucp_requests
[1621310374.939797] [holy7c06510:179987:0]          mpool.c:43   UCX  WARN  object 0x38a9000 was not returned to mpool ucp_requests
[1621310374.939827] [holy7c06510:179987:0]          mpool.c:43   UCX  WARN  object 0x38a9fc0 was not returned to mpool ucp_requests
[1621310374.934367] [holy7c06510:179979:0]          mpool.c:43   UCX  WARN  object 0x3a87440 was not returned to mpool ucp_requests
[1621310374.934391] [holy7c06510:179979:0]          mpool.c:43   UCX  WARN  object 0x3a8d480 was not returned to mpool ucp_requests
[1621310374.934106] [holy7c06510:179981:0]          mpool.c:43   UCX  WARN  object 0x58d0d40 was not returned to mpool ucp_requests
[1621310374.943604] [holy7c06510:179989:0]          mpool.c:43   UCX  WARN  object 0x464fac0 was not returned to mpool ucp_requests
[1621310374.949055] [holy7c06510:179995:0]          mpool.c:43   UCX  WARN  object 0x407bc80 was not returned to mpool ucp_requests
[1621310374.949459] [holy7c06510:179988:0]          mpool.c:43   UCX  WARN  object 0x3df4300 was not returned to mpool ucp_requests
[1621310374.949479] [holy7c06510:179988:0]          mpool.c:43   UCX  WARN  object 0x3dfa500 was not returned to mpool ucp_requests
[1621310374.946250] [holy7c06510:179978:0]          mpool.c:43   UCX  WARN  object 0x3684740 was not returned to mpool ucp_requests
[1621310374.951782] [holy7c06510:179994:0]          mpool.c:43   UCX  WARN  object 0x41b2d00 was not returned to mpool ucp_requests
[1621310374.951958] [holy7c06510:179980:0]          mpool.c:43   UCX  WARN  object 0x2c59d80 was not returned to mpool ucp_requests