     Program PWSCF v.6.5 starts on 18May2021 at 21:17: 6

     R & G space division:  proc/nbgrp/npool/nimage =      80
     Reading input from YBCO_Y_cleave_5.0_sep.pwi
Warning: card &IONS ignored
Warning: card     ION_DYNAMICS = 'BFGS' ignored
Warning: card / ignored
Warning: card &CELL ignored
Warning: card     CELL_DYNAMICS = 'BFGS' ignored
Warning: card     PRESS_CONV_THR = 5 ignored
Warning: card / ignored

     Current dimensions of program PWSCF are:
     Max number of different atomic species (ntypx) = 10
     Max number of k-points (npk) =  40000
     Max angular momentum in pseudopotentials (lmaxx) =  3
     Message from routine volume:
     axis vectors are left-handed

     Message from routine setup:
     using ibrav=0 with symmetry is DISCOURAGED, use correct ibrav instead

     bravais-lattice index     =            0
     lattice parameter (alat)  =      20.5021  a.u.
     unit-cell volume          =   38505.5562 (a.u.)^3
     number of atoms/cell      =          224
     number of atomic types    =            5
     number of electrons       =      1830.00
     number of Kohn-Sham states=         1098
     kinetic-energy cutoff     =      60.0000  Ry
     charge density cutoff     =     720.0000  Ry
     convergence threshold     =      1.0E-08
     mixing beta               =       0.5000
     number of iterations used =           10  local-TF  mixing
     Exchange-correlation= SLA PW PBE PBE
                           (   1   4   3   4   0   0   0)

     celldm(1)=  20.502120  celldm(2)=   0.000000  celldm(3)=   0.000000
     celldm(4)=   0.000000  celldm(5)=   0.000000  celldm(6)=   0.000000

     crystal axes: (cart. coord. in units of alat)
               a(1) = (  -0.716599   0.697485   0.000000 )
               a(2) = (   0.716599   0.697485   0.000000 )
               a(3) = (   0.000000   0.000000   4.469776 )

     reciprocal axes: (cart. coord. in units 2 pi/alat)
               b(1) = ( -0.697740  0.716861  0.000000 )
               b(2) = (  0.697740  0.716861  0.000000 )
               b(3) = (  0.000000  0.000000  0.223725 )

     PseudoPot. # 1 for Ba read from file:
     ./pseudo/Ba.pbe-nsp-van.UPF
     MD5 check sum: 2b9c31dd849566dd297d80989662b7a0
     Pseudo is Ultrasoft + core correction, Zval = 10.0
     Generated by new atomic code, or converted to UPF format
     Using radial grid of  907 points,  6 beta functions with:
                l(1) =   0
                l(2) =   0
                l(3) =   1
                l(4) =   1
                l(5) =   2
                l(6) =   2
     Q(r) pseudized with  6 coefficients,  rinner =    1.200   1.200   1.200
                                                       1.200   1.200

     PseudoPot. # 2 for Ca read from file:
     ./pseudo/Ca.pbe-nsp-van.UPF
     MD5 check sum: 6471098428ff4fa451746d08035ff179
     Pseudo is Ultrasoft + core correction, Zval = 10.0
     Generated by new atomic code, or converted to UPF format
     Using radial grid of  845 points,  6 beta functions with:
                l(1) =   0
                l(2) =   0
                l(3) =   1
                l(4) =   1
                l(5) =   2
                l(6) =   2
     Q(r) pseudized with  6 coefficients,  rinner =    1.200   1.200   1.200
                                                       1.200   1.200

     PseudoPot. # 3 for Cu read from file:
     ./pseudo/Cu.pbe-n-van_ak.UPF
     MD5 check sum: 34e3282627ffb533726feb647e090d62
     Pseudo is Ultrasoft + core correction, Zval = 11.0
     Generated by new atomic code, or converted to UPF format
     Using radial grid of  867 points,  6 beta functions with:
                l(1) =   0
                l(2) =   0
                l(3) =   1
                l(4) =   1
                l(5) =   2
                l(6) =   2
     Q(r) pseudized with  8 coefficients,  rinner =    1.400   1.400   1.400
                                                       1.400   1.400

     PseudoPot. # 4 for O  read from file:
     ./pseudo/O.pbe-van_ak.UPF
     MD5 check sum: 783ce7fe4c79b6a4916957118fed0856
     Pseudo is Ultrasoft, Zval =  6.0
     Generated by new atomic code, or converted to UPF format
     Using radial grid of  737 points,  4 beta functions with:
                l(1) =   0
                l(2) =   0
                l(3) =   1
                l(4) =   1
     Q(r) pseudized with  8 coefficients,  rinner =    0.800   0.800   0.800

     PseudoPot. # 5 for Y  read from file:
     ./pseudo/Y.pbe-nsp-van.UPF
     MD5 check sum: 4412fed3ab108fed87a1b7d6a69a4a38
     Pseudo is Ultrasoft + core correction, Zval = 11.0
     Generated by new atomic code, or converted to UPF format
     Using radial grid of  885 points,  6 beta functions with:
                l(1) =   0
                l(2) =   0
                l(3) =   1
                l(4) =   1
                l(5) =   2
                l(6) =   2
     Q(r) pseudized with  6 coefficients,  rinner =    1.200   1.200   1.200
                                                       1.200   1.200

     atomic species   valence    mass     pseudopotential
        Ba            10.00   137.32700     Ba( 1.00)
        Ca            10.00    40.07800     Ca( 1.00)
        Cu            11.00    63.54600     Cu( 1.00)
        O              6.00    15.99900     O ( 1.00)
        Y             11.00    88.90584     Y ( 1.00)

      4 Sym. Ops. (no inversion) found ( 3 have fractional translation)

   Cartesian axes

     site n.     atom                  positions (alat units)
         1           O   tau(   1) = (   0.3545921   0.8718562  -0.0077406  )
         2           O   tau(   2) = (   0.0037072   0.8718562  -0.0077406  )
         3           Cu  tau(   3) = (  -0.0002581   0.0006065   0.0080789  )
         4           Cu  tau(   4) = (  -0.0002581   0.3481364   0.0080789  )
         5           Cu  tau(   5) = (   0.3585574   0.3481364   0.0080789  )
         6           Cu  tau(   6) = (  -0.3580421   0.6980913   0.0080789  )
         7           Cu  tau(   7) = (   0.3577988   0.6971373   0.0086255  )
         8           Cu  tau(   8) = (   0.0005005   1.0465760   0.0086255  )
         9           Cu  tau(   9) = (  -0.3588016   0.3490903   0.0086255  )
        10           Cu  tau(  10) = (   0.0005005   0.6971373   0.0086255  )
        11           O   tau(  11) = (  -0.0001733   0.5225410  -0.0089757  )
        12           O   tau(  12) = (   0.3584726   0.5225410  -0.0089757  )
        13           O   tau(  13) = (  -0.0001733   1.2211724  -0.0089757  )
        14           O   tau(  14) = (  -0.3581278   0.5236867  -0.0089757  )
        15           O   tau(  15) = (  -0.3544557   0.8718562  -0.0105593  )
        16           O   tau(  16) = (  -0.0038445   0.1743714  -0.0105593  )
        17           O   tau(  17) = (   0.3588818   0.3486599   0.1817056  )
        18           O   tau(  18) = (  -0.0005825   0.3486599   0.1817056  )
        19           O   tau(  19) = (  -0.0005825   0.0000830   0.1817056  )
        20           O   tau(  20) = (  -0.3577167   0.6975677   0.1817056  )
        21           O   tau(  21) = (   0.3584283   0.6967843   0.1825784  )
        22           O   tau(  22) = (  -0.3581712   0.3494443   0.1825784  )
        23           O   tau(  23) = (  -0.0001290   0.6967843   0.1825784  )
        24           O   tau(  24) = (  -0.0001290   1.0469291   0.1825784  )
        25           Ba  tau(  25) = (   0.1791506   0.8718562   0.1908537  )
        26           Ba  tau(  26) = (   0.5374498   0.5231143   0.1919901  )
        27           Ba  tau(  27) = (  -0.1791506   0.5231143   0.1919901  )
        28           Ba  tau(  28) = (  -0.1793773   0.8718562   0.1931958  )
        29           Ba  tau(  29) = (  -0.1789238   0.1743714   0.1931958  )
        30           Ba  tau(  30) = (   0.1791506   0.5222101   0.1929368  )
        31           Ba  tau(  31) = (  -0.5374498   0.5240176   0.1929368  )
        32           Ba  tau(  32) = (   0.1791506   0.1743714   0.1992469  )
        33           Cu  tau(  33) = (  -0.3583426   0.3488452   0.3777458  )
        34           Cu  tau(  34) = (   0.3582559   0.6973834   0.3777458  )
        35           Cu  tau(  35) = (   0.0000433   0.6973834   0.3777458  )
        36           Cu  tau(  36) = (   0.0000433   1.0463299   0.3777458  )
        37           Cu  tau(  37) = (  -0.3586541   0.6975060   0.3775126  )
        38           Cu  tau(  38) = (   0.3579444   0.3487217   0.3775126  )
        39           Cu  tau(  39) = (   0.0003549   0.0000212   0.3775126  )
        40           Cu  tau(  40) = (   0.0003549   0.3487217   0.3775126  )
        41           O   tau(  41) = (  -0.0047976   0.1743714   0.3996864  )
        42           O   tau(  42) = (  -0.3535026   0.8718562   0.3996864  )
        43           O   tau(  43) = (  -0.5374498   0.6924605   0.3956991  )
        44           O   tau(  44) = (   0.1791506   0.3537672   0.3956991  )
        45           O   tau(  45) = (   0.3586385   0.8718562   0.4046840  )
        46           O   tau(  46) = (  -0.0003392   0.8718562   0.4046840  )
        47           O   tau(  47) = (  -0.0004857   0.5230571   0.4066611  )
        48           O   tau(  48) = (   0.3587850   0.5230571   0.4066611  )
        49           O   tau(  49) = (  -0.3578135   0.5231714   0.4066611  )
        50           O   tau(  50) = (  -0.0004857   1.2206562   0.4066611  )
        51           O   tau(  51) = (   0.1791506   1.0461604   0.4028931  )
        52           O   tau(  52) = (   0.1791506   0.6975521   0.4028931  )
        53           O   tau(  53) = (  -0.1792261   0.6967170   0.4025963  )
        54           O   tau(  54) = (  -0.1790731   0.3495106   0.4025963  )
        55           O   tau(  55) = (  -0.1792261   1.0469964   0.4025963  )
        56           O   tau(  56) = (   0.5375263   0.6967170   0.4025963  )
        57           Ca  tau(  57) = (   0.1791506   0.1743714   0.5358617  )
        58           Y   tau(  58) = (  -0.1811525   0.8718562   0.5373908  )
        59           Y   tau(  59) = (  -0.1771467   0.1743714   0.5373908  )
        60           Y   tau(  60) = (   0.1791506   0.8718562   0.5379568  )
[...]
       210           O   tau( 210) = (   0.0037081   0.8718562   2.6249684  )
       211           Cu  tau( 211) = (  -0.0002516   0.0006074   2.6091645  )
       212           Cu  tau( 212) = (  -0.0002516   0.3481345   2.6091645  )
       213           Cu  tau( 213) = (   0.3585509   0.3481345   2.6091645  )
       214           Cu  tau( 214) = (  -0.3580476   0.6980931   2.6091645  )
       215           Cu  tau( 215) = (   0.3577960   0.6971373   2.6086179  )
       216           Cu  tau( 216) = (   0.0005033   1.0465760   2.6086179  )
       217           Cu  tau( 217) = (  -0.3588035   0.3490903   2.6086179  )
       218           Cu  tau( 218) = (   0.0005033   0.6971373   2.6086179  )
       219           O   tau( 219) = (  -0.0001724   0.5225410   2.6262072  )
       220           O   tau( 220) = (   0.3584716   0.5225410   2.6262072  )
       221           O   tau( 221) = (  -0.0001724   1.2211724   2.6262072  )
[...]
   -23.4408 -23.3797 -23.3526 -23.3138 -23.2836 -23.1861 -23.1752 -23.1538
   -23.1293 -23.1177 -23.1098 -23.0624 -23.0268 -23.0247 -23.0196 -23.0104
   -22.9801 -22.9785 -22.9360 -22.9027 -22.8816 -22.7717 -22.7710 -22.7390
   -22.7218 -22.7168 -22.7048 -22.6630 -22.6195 -22.6191 -22.6154 -22.5743
   -21.5573 -21.5376 -21.5301 -21.5274 -21.5078 -21.4869 -21.4818 -21.4727
   -21.4500 -21.4314 -21.4252 -21.4075 -21.3815 -21.3630 -21.3559 -21.3516
   -21.3141 -21.3094 -21.2986 -21.2625 -21.2425 -20.1034 -20.0758 -20.0602
   -19.1361 -19.0632 -19.0576 -19.0321 -19.0082 -18.9695 -18.9317 -18.9210
   -18.8664 -18.8591 -18.8389 -18.8372 -18.8302 -18.7563 -18.7308 -18.6952
   -18.6701 -18.6512 -18.6466 -18.5772 -18.5243 -17.3537 -17.3252 -17.3188
   -16.4595 -16.3568 -16.3122 -16.2116 -16.0334 -15.9885 -15.9501 -15.8697
   -15.8548 -15.8454 -15.7753 -15.7505 -15.7220 -15.7013 -15.6410 -15.6340
   -15.5134 -15.5004 -15.4435 -15.3185 -15.2010 -15.1762 -15.1547 -15.1429
   -15.1064 -15.0831 -15.0286 -15.0178 -14.9977 -14.9921 -14.9878 -14.9831
   -14.9586 -14.9555 -14.9382 -14.9121 -14.8981 -14.8852 -14.8824 -14.8758
   -14.8745 -14.8641 -14.8238 -14.8154 -14.8115 -14.8049 -14.7945 -14.7924
   -14.7867 -14.7851 -14.7839 -14.7686 -14.7360 -14.7157 -14.6997 -14.6647
   -14.6430 -14.6257 -14.6168 -14.5984 -14.5928 -14.5834 -14.5625 -14.5441
   -14.5380 -14.5318 -14.5264 -14.5230 -14.5112 -14.4905 -14.4763 -14.4677
   -14.4404 -14.4402 -14.4321 -14.4233 -14.3918 -14.3867 -14.3177 -14.2816
   -14.2737 -14.2690 -14.2462 -14.2410 -14.2397 -14.2345 -14.2184 -14.2177
   -14.1680 -14.1649 -14.1531 -14.1476 -14.1427 -14.1412 -14.1399 -14.1324
   -14.1319 -14.1252 -14.1244 -14.1235 -14.1149 -14.0898 -14.0792 -14.0648
   -14.0554 -14.0490 -14.0485 -14.0228 -13.9839 -13.9632 -13.9504 -13.9302
   -13.9065 -13.8180 -13.7677 -13.7599 -13.6749 -13.6068 -13.5890 -13.5198
    -9.1070  -8.9551  -8.9175  -8.8597  -8.8404  -8.8254  -8.8050  -8.7679
    -8.7536  -8.7194  -8.7081  -8.6924  -8.6750  -8.6694  -8.6657  -8.6209
    -8.6045  -8.5792  -8.5470  -8.5416  -8.5158  -8.5149  -8.4855  -8.4824
    -8.4604  -8.4528  -8.4283  -8.4171  -8.4065  -8.3979  -8.3976  -8.3757
    -8.3721  -8.3717  -8.3610  -8.3536  -8.3506  -8.3491  -8.3418  -8.3365
    -8.3271  -8.3084  -8.3042  -8.2995  -8.2950  -8.2929  -8.2925  -8.2885
    -8.2740  -8.2647  -8.2513  -8.2244  -8.1810  -8.1732  -8.1670  -8.1446
    -8.1437  -8.1412  -8.1357  -8.1276  -8.1046  -8.1008  -8.0814  -8.0718
    -8.0526  -8.0372  -8.0248  -7.9983  -7.9918  -7.9892  -7.9882  -7.9798
    -7.9738  -7.9690  -7.9607  -7.9596  -7.9457  -7.9180  -7.9146  -7.8846
    -7.8765  -7.8690  -7.8624  -7.8576  -7.8376  -7.8056  -7.8054  -7.7789
    -7.7709  -7.7321  -7.7247  -7.6853  -7.6790  -7.6229  -7.6166  -7.5951
    -4.8703  -4.4878  -4.4258  -4.3540  -4.2993  -3.9356  -3.8849  -3.8525
    -3.8073  -3.7982  -3.7497  -3.7281  -3.6117  -3.5112  -3.4869  -3.4728
    -3.4630  -3.4558  -3.3537  -3.2867  -3.2736  -3.2569  -3.2479  -3.2202
    -3.1922  -3.1722  -3.1677  -3.1627  -3.1329  -3.1252  -3.1177  -3.1149
    -3.0972  -3.0680  -3.0406  -3.0327  -2.9969  -2.9624  -2.9501  -2.9423
    -2.8610  -2.8608  -2.8436  -2.8403  -2.7886  -2.7838  -2.7736  -2.7286
    -2.7104  -2.7093  -2.7052  -2.6867  -2.6650  -2.6616  -2.6318  -2.6285
    -2.5649  -2.5616  -2.5517  -2.5434  -2.5392  -2.5030  -2.4990  -2.4954
    -2.4919  -2.4831  -2.4600  -2.4546  -2.4434  -2.4389  -2.4235  -2.4173
    -2.4135  -2.4120  -2.4108  -2.4000  -2.3977  -2.3789  -2.3786  -2.3779
    -2.3675  -2.3655  -2.3381  -2.3366  -2.3354  -2.3340  -2.3272  -2.3247
    -2.3071  -2.2982  -2.2911  -2.2909  -2.2527  -2.2525  -2.2493  -2.2455
    -2.2385  -2.2322  -2.2217  -2.2216  -2.2154  -2.2122  -2.1923  -2.1845
    -2.1746  -2.1667  -2.1657  -2.1485  -2.1460  -2.1456  -2.1357  -2.1204
    -2.1201  -2.1179  -2.0997  -2.0959  -2.0901  -2.0877  -2.0685  -2.0620
    -2.0563  -2.0351  -2.0058  -1.9830  -1.9640  -1.9458  -1.9221  -1.9164
    -1.8754  -1.8675  -1.8510  -1.8276  -1.7979  -1.7611  -1.7551  -1.7073
    -1.6845  -1.6765  -1.6529  -1.6470  -1.6427  -1.6414  -1.6377  -1.6261
    -1.6144  -1.6085  -1.5854  -1.5588  -1.5567  -1.5011  -1.4799  -1.4612
    -1.4421  -1.3930  -1.3883  -1.3872  -1.3746  -1.3425  -1.3409  -1.3236
    -1.3187  -1.3170  -1.3109  -1.2998  -1.2898  -1.2859  -1.2786  -1.2770
[...]
     5.4215   5.4555   5.5838   5.6749   5.8450   5.8785   5.8894   5.9021
     5.9495   6.0104   6.0634   6.0883   6.1267   6.1296   6.1332   6.1563
     6.2162   6.2228   6.2540   6.2591   6.2872   6.3328   6.3802   6.3803
     6.4075   6.4084   6.4119   6.4130   6.4398   6.4413   6.4523   6.4826
     6.4994   6.5045   6.5522   6.6087   6.6316   6.6575   6.6912   6.7285
     6.7353   6.8076   6.8779   6.8972   6.9876   6.9963   7.0149   7.0568
     7.1110   7.1375   7.2252   7.3106   7.4681   7.4825   7.4856   7.4901
     7.5072   7.5170   7.5267   7.5281   7.5469   7.5503   7.5740   7.6166
     7.6824   7.7018   7.7131   7.7307   7.7451   7.7999   7.8030   7.8050
     7.8288   7.8441   7.8483   7.8859   7.9155   7.9815   7.9888   7.9940
     8.0048   8.0438   8.0486   8.0756   8.0848   8.1364   8.1377   8.1411
     8.1794   8.2134   8.2560   8.2929   8.3427   8.3497   8.3614   8.3776
     8.3793   8.4401   8.4470   8.5059   8.5094   8.5154   8.5367   8.5535
     8.5768   8.5786   8.6153   8.6187   8.6476   8.7139   8.7220   8.7321
     8.7511   8.7595

     the Fermi energy is     2.4885 ev

!    total energy              =  -14921.38558866 Ry
     Harris-Foulkes estimate   =  -14921.38558869 Ry
     estimated scf accuracy    <          5.3E-09 Ry

     The total energy is the sum of the following terms:

     one-electron contribution = -228392.55378990 Ry
     hartree contribution      =  115389.89314529 Ry
     xc contribution           =   -5113.62815643 Ry
     ewald contribution        =  103194.97147910 Ry
     smearing contrib. (-TS)   =      -0.06826671 Ry

     convergence has been achieved in  47 iterations

     negative rho (up, down):  6.313E-01 0.000E+00

     Forces acting on atoms (cartesian axes, Ry/au):

     atom    1 type  4   force =     0.00011802    0.00000000    0.00023565
     atom    2 type  4   force =    -0.00011802    0.00000000    0.00023565
     atom    3 type  3   force =     0.00008541   -0.00006860   -0.00016692
     atom    4 type  3   force =     0.00008541    0.00006860   -0.00016692
     atom    5 type  3   force =    -0.00008541    0.00006860   -0.00016692
     atom    6 type  3   force =    -0.00008541   -0.00006860   -0.00016692
     atom    7 type  3   force =    -0.00001151   -0.00001589   -0.00032096
     atom    8 type  3   force =     0.00001151    0.00001589   -0.00032096
     atom    9 type  3   force =    -0.00001151    0.00001589   -0.00032096
     atom   10 type  3   force =     0.00001151   -0.00001589   -0.00032096
     atom   11 type  4   force =    -0.00010317    0.00006917    0.00015276
     atom   12 type  4   force =     0.00010317    0.00006917    0.00015276
     atom   13 type  4   force =    -0.00010317   -0.00006917    0.00015276
     atom   14 type  4   force =     0.00010317   -0.00006917    0.00015276
     atom   15 type  4   force =    -0.00017089    0.00000000    0.00015842
     atom   16 type  4   force =     0.00017089    0.00000000    0.00015842
     atom   17 type  4   force =     0.00003304    0.00004898    0.00035327
     atom   18 type  4   force =    -0.00003304    0.00004898    0.00035327
     atom   19 type  4   force =    -0.00003304   -0.00004898    0.00035327
     atom   20 type  4   force =     0.00003304   -0.00004898    0.00035327
     atom   21 type  4   force =     0.00002494    0.00008737    0.00049314
     atom   22 type  4   force =     0.00002494   -0.00008737    0.00049314
     atom   23 type  4   force =    -0.00002494    0.00008737    0.00049314
     atom   24 type  4   force =    -0.00002494   -0.00008737    0.00049314
     atom   25 type  1   force =     0.00000000    0.00000000   -0.00000519
     atom   26 type  1   force =     0.00000000    0.00000000   -0.00010239
     atom   27 type  1   force =     0.00000000    0.00000000   -0.00010239
     atom   28 type  1   force =    -0.00018338    0.00000000    0.00001112
     atom   29 type  1   force =     0.00018338    0.00000000    0.00001112
     atom   30 type  1   force =     0.00000000    0.00010250   -0.00023203
     atom   31 type  1   force =     0.00000000   -0.00010250   -0.00023203
     atom   32 type  1   force =     0.00000000    0.00000000   -0.00012282
     atom   33 type  3   force =    -0.00004053   -0.00000645   -0.00015550
     atom   34 type  3   force =    -0.00004053    0.00000645   -0.00015550
     atom   35 type  3   force =     0.00004053    0.00000645   -0.00015550
     atom   36 type  3   force =     0.00004053   -0.00000645   -0.00015550
     atom   37 type  3   force =     0.00003947    0.00001879   -0.00023171
     atom   38 type  3   force =     0.00003947   -0.00001879   -0.00023171
     atom   39 type  3   force =    -0.00003947    0.00001879   -0.00023171
     atom   40 type  3   force =    -0.00003947   -0.00001879   -0.00023171
     atom   41 type  4   force =    -0.00016765    0.00000000   -0.00018436
     atom   42 type  4   force =     0.00016765    0.00000000   -0.00018436
     atom   43 type  4   force =     0.00000000    0.00000135    0.00015268
     atom   44 type  4   force =     0.00000000   -0.00000135    0.00015268
     atom   45 type  4   force =     0.00006265    0.00000000   -0.00011592
     atom   46 type  4   force =    -0.00006265    0.00000000   -0.00011592
     atom   47 type  4   force =    -0.00002470   -0.00000338   -0.00004297
     atom   48 type  4   force =     0.00002470   -0.00000338   -0.00004297
     atom   49 type  4   force =     0.00002470    0.00000338   -0.00004297
     atom   50 type  4   force =    -0.00002470    0.00000338   -0.00004297
     atom   51 type  4   force =     0.00000000   -0.00002346    0.00008828
     atom   52 type  4   force =     0.00000000    0.00002346    0.00008828
     atom   53 type  4   force =     0.00008892    0.00001033    0.00025207
     atom   54 type  4   force =    -0.00008892   -0.00001033    0.00025207
     atom   55 type  4   force =     0.00008892   -0.00001033    0.00025207
     atom   56 type  4   force =    -0.00008892    0.00001033    0.00025207
     atom   57 type  2   force =     0.00000000    0.00000000   -0.00026862
     atom   58 type  5   force =     0.00032242    0.00000000   -0.00059595
     atom   59 type  5   force =    -0.00032242    0.00000000   -0.00059595
     atom   60 type  5   force =     0.00000000    0.00000000   -0.00011481
[...]
     atom  210 type  4   force =    -0.00018660    0.00000000    0.00650450
     atom  211 type  3   force =     0.00022575    0.00003585   -0.00310577
     atom  212 type  3   force =     0.00022575   -0.00003585   -0.00310577
     atom  213 type  3   force =    -0.00022575   -0.00003585   -0.00310577
     atom  214 type  3   force =    -0.00022575    0.00003585   -0.00310577
     atom  215 type  3   force =     0.00008008   -0.00022942   -0.00332332
     atom  216 type  3   force =    -0.00008008    0.00022942   -0.00332332
     atom  217 type  3   force =     0.00008008    0.00022942   -0.00332332
     atom  218 type  3   force =    -0.00008008   -0.00022942   -0.00332332
     atom  219 type  4   force =    -0.00008059    0.00111358    0.00612420
     atom  220 type  4   force =     0.00008059    0.00111358    0.00612420
     atom  221 type  4   force =    -0.00008059   -0.00111358    0.00612420
     atom  222 type  4   force =     0.00008059   -0.00111358    0.00612420
     atom  223 type  4   force =    -0.00033984    0.00000000    0.00540545
     atom  224 type  4   force =     0.00033984    0.00000000    0.00540545

     Total force =     0.456251     Total SCF correction =     0.000358

     Computing stress (Cartesian axis) and pressure

     negative rho (up, down):  6.313E-01 0.000E+00
          total   stress  (Ry/bohr**3)                   (kbar)     P=       -9.65
  -0.00005170   0.00000000   0.00000000           -7.61        0.00        0.00
   0.00000000  -0.00004825   0.00000000            0.00       -7.10        0.00
   0.00000000   0.00000000  -0.00009686            0.00        0.00      -14.25

     General routines

     Parallel routines

   This run was terminated on:  22:57:38  18May2021

   JOB DONE.
[1621393058.826371] [holy7c10611:75943:0]          mpool.c:43   UCX  WARN  object 0x3441d80 was not returned to mpool ucp_requests
[1621393058.837991] [holy7c12408:128673:0]          mpool.c:43   UCX  WARN  object 0x4c434c0 was not returned to mpool ucp_requests
[1621393058.837027] [holy7c12408:128681:0]          mpool.c:43   UCX  WARN  object 0x4584cc0 was not returned to mpool ucp_requests
[1621393058.841509] [holy7c12408:128676:0]          mpool.c:43   UCX  WARN  object 0x578ee00 was not returned to mpool ucp_requests
[1621393058.836253] [holy7c08509:25529:0]          mpool.c:43   UCX  WARN  object 0x3717400 was not returned to mpool ucp_requests
[1621393058.843514] [holy7c12408:128683:0]          mpool.c:43   UCX  WARN  object 0x4686180 was not returned to mpool ucp_requests
[1621393058.843115] [holy7c10111:183019:0]          mpool.c:43   UCX  WARN  object 0x2bfb280 was not returned to mpool ucp_requests
[1621393058.846029] [holy7c12408:128674:0]          mpool.c:43   UCX  WARN  object 0x28883c0 was not returned to mpool ucp_requests
[1621393058.846396] [holy7c10111:183021:0]          mpool.c:43   UCX  WARN  object 0x3ec1440 was not returned to mpool ucp_requests
[1621393058.847369] [holy7c12408:128675:0]          mpool.c:43   UCX  WARN  object 0x2e7b840 was not returned to mpool ucp_requests
[1621393058.849789] [holy7c10111:183020:0]          mpool.c:43   UCX  WARN  object 0x4529e40 was not returned to mpool ucp_requests
[1621393058.849817] [holy7c10111:183020:0]          mpool.c:43   UCX  WARN  object 0x4531540 was not returned to mpool ucp_requests
[1621393058.850576] [holy7c10111:183028:0]          mpool.c:43   UCX  WARN  object 0x3c717c0 was not returned to mpool ucp_requests
[1621393058.850511] [holy7c10111:183027:0]          mpool.c:43   UCX  WARN  object 0x4d6b380 was not returned to mpool ucp_requests
[1621393058.850537] [holy7c10111:183027:0]          mpool.c:43   UCX  WARN  object 0x3518f00 was not returned to mpool ucp_requests
[1621393058.848755] [holy7c12408:128682:0]          mpool.c:43   UCX  WARN  object 0x43c9680 was not returned to mpool ucp_requests
[1621393058.849653] [holy7c10111:183022:0]          mpool.c:43   UCX  WARN  object 0x3609340 was not returned to mpool ucp_requests
[1621393058.847278] [holy7c12408:128668:0]          mpool.c:43   UCX  WARN  object 0x3d5ac40 was not returned to mpool ucp_requests
[1621393058.849670] [holy7c12408:128667:0]          mpool.c:43   UCX  WARN  object 0x4606780 was not returned to mpool ucp_requests
[1621393058.859131] [holy7c10111:183014:0]          mpool.c:43   UCX  WARN  object 0x51dae00 was not returned to mpool ucp_requests
[1621393058.863380] [holy7c10111:183029:0]          mpool.c:43   UCX  WARN  object 0x3f97280 was not returned to mpool ucp_requests
[1621393058.863442] [holy7c10111:183030:0]          mpool.c:43   UCX  WARN  object 0x33bb580 was not returned to mpool ucp_requests
[1621393058.837757] [holy7c10611:75939:0]          mpool.c:43   UCX  WARN  object 0x2a91e40 was not returned to mpool ucp_requests
[1621393058.834329] [holy7c10611:75950:0]          mpool.c:43   UCX  WARN  object 0x6a01480 was not returned to mpool ucp_requests
[1621393058.837004] [holy7c10611:75944:0]          mpool.c:43   UCX  WARN  object 0x344d400 was not returned to mpool ucp_requests
[1621393058.836281] [holy7c10611:75945:0]          mpool.c:43   UCX  WARN  object 0x2c8f100 was not returned to mpool ucp_requests
[1621393058.837811] [holy7c10611:75951:0]          mpool.c:43   UCX  WARN  object 0x465d180 was not returned to mpool ucp_requests
[1621393058.840234] [holy7c08509:25530:0]          mpool.c:43   UCX  WARN  object 0x4604700 was not returned to mpool ucp_requests
[1621393058.851288] [holy7c08509:25535:0]          mpool.c:43   UCX  WARN  object 0x3aa1480 was not returned to mpool ucp_requests
[1621393058.844755] [holy7c08509:25536:0]          mpool.c:43   UCX  WARN  object 0x5846080 was not returned to mpool ucp_requests
[1621393058.843059] [holy7c08509:25528:0]          mpool.c:43   UCX  WARN  object 0x499d7c0 was not returned to mpool ucp_requests
[1621393058.843879] [holy7c08509:25537:0]          mpool.c:43   UCX  WARN  object 0x32e2a40 was not returned to mpool ucp_requests
[1621393058.865825] [holy7c12508:252290:0]          mpool.c:43   UCX  WARN  object 0x3281680 was not returned to mpool ucp_requests