     Program PWSCF v.6.5 starts on 17May2021 at 20:49:21

     R & G space division:  proc/nbgrp/npool/nimage =      80
     Reading input from YBCO_CuO_cleave_2.0_sep.pwi
Warning: card &IONS ignored
Warning: card     ION_DYNAMICS = 'BFGS' ignored
Warning: card / ignored
Warning: card &CELL ignored
Warning: card     CELL_DYNAMICS = 'BFGS' ignored
Warning: card     PRESS_CONV_THR = 5 ignored
Warning: card / ignored

     Current dimensions of program PWSCF are:
     Max number of different atomic species (ntypx) = 10
     Max number of k-points (npk) =  40000
     Max angular momentum in pseudopotentials (lmaxx) =  3
     Message from routine volume:
     axis vectors are left-handed

     Message from routine setup:
     using ibrav=0 with symmetry is DISCOURAGED, use correct ibrav instead

     bravais-lattice index     =            0
     lattice parameter (alat)  =      20.5021  a.u.
     unit-cell volume          =   36123.4618 (a.u.)^3
     number of atoms/cell      =          224
     number of atomic types    =            5
     number of electrons       =      1830.00
     number of Kohn-Sham states=         1098
     kinetic-energy cutoff     =      60.0000  Ry
     charge density cutoff     =     720.0000  Ry
     convergence threshold     =      1.0E-08
     mixing beta               =       0.5000
     number of iterations used =           10  local-TF  mixing
     Exchange-correlation= SLA PW PBE PBE
                           (   1   4   3   4   0   0   0)

     celldm(1)=  20.502120  celldm(2)=   0.000000  celldm(3)=   0.000000
     celldm(4)=   0.000000  celldm(5)=   0.000000  celldm(6)=   0.000000

     crystal axes: (cart. coord. in units of alat)
               a(1) = (  -0.716599   0.697485   0.000000 )
               a(2) = (   0.716599   0.697485   0.000000 )
               a(3) = (   0.000000   0.000000   4.193260 )

     reciprocal axes: (cart. coord. in units 2 pi/alat)
               b(1) = ( -0.697740  0.716861  0.000000 )
               b(2) = (  0.697740  0.716861  0.000000 )
               b(3) = (  0.000000  0.000000  0.238478 )

     PseudoPot. # 1 for Ba read from file:
     ./pseudo/Ba.pbe-nsp-van.UPF
     MD5 check sum: 2b9c31dd849566dd297d80989662b7a0
     Pseudo is Ultrasoft + core correction, Zval = 10.0
     Generated by new atomic code, or converted to UPF format
     Using radial grid of  907 points,  6 beta functions with:
                l(1) =   0
                l(2) =   0
                l(3) =   1
                l(4) =   1
                l(5) =   2
                l(6) =   2
     Q(r) pseudized with  6 coefficients,  rinner =    1.200   1.200   1.200
                                                       1.200   1.200

     PseudoPot. # 2 for Ca read from file:
     ./pseudo/Ca.pbe-nsp-van.UPF
     MD5 check sum: 6471098428ff4fa451746d08035ff179
     Pseudo is Ultrasoft + core correction, Zval = 10.0
     Generated by new atomic code, or converted to UPF format
     Using radial grid of  845 points,  6 beta functions with:
                l(1) =   0
                l(2) =   0
                l(3) =   1
                l(4) =   1
                l(5) =   2
                l(6) =   2
     Q(r) pseudized with  6 coefficients,  rinner =    1.200   1.200   1.200
                                                       1.200   1.200

     PseudoPot. # 3 for Cu read from file:
     ./pseudo/Cu.pbe-n-van_ak.UPF
     MD5 check sum: 34e3282627ffb533726feb647e090d62
     Pseudo is Ultrasoft + core correction, Zval = 11.0
     Generated by new atomic code, or converted to UPF format
     Using radial grid of  867 points,  6 beta functions with:
                l(1) =   0
                l(2) =   0
                l(3) =   1
                l(4) =   1
                l(5) =   2
                l(6) =   2
     Q(r) pseudized with  8 coefficients,  rinner =    1.400   1.400   1.400
                                                       1.400   1.400

     PseudoPot. # 4 for O  read from file:
     ./pseudo/O.pbe-van_ak.UPF
     MD5 check sum: 783ce7fe4c79b6a4916957118fed0856
     Pseudo is Ultrasoft, Zval =  6.0
     Generated by new atomic code, or converted to UPF format
     Using radial grid of  737 points,  4 beta functions with:
                l(1) =   0
                l(2) =   0
                l(3) =   1
                l(4) =   1
     Q(r) pseudized with  8 coefficients,  rinner =    0.800   0.800   0.800

     PseudoPot. # 5 for Y  read from file:
     ./pseudo/Y.pbe-nsp-van.UPF
     MD5 check sum: 4412fed3ab108fed87a1b7d6a69a4a38
     Pseudo is Ultrasoft + core correction, Zval = 11.0
     Generated by new atomic code, or converted to UPF format
     Using radial grid of  885 points,  6 beta functions with:
                l(1) =   0
                l(2) =   0
                l(3) =   1
                l(4) =   1
                l(5) =   2
                l(6) =   2
     Q(r) pseudized with  6 coefficients,  rinner =    1.200   1.200   1.200
                                                       1.200   1.200

     atomic species   valence    mass     pseudopotential
        Ba            10.00   137.32700     Ba( 1.00)
        Ca            10.00    40.07800     Ca( 1.00)
        Cu            11.00    63.54600     Cu( 1.00)
        O              6.00    15.99900     O ( 1.00)
        Y             11.00    88.90584     Y ( 1.00)

      4 Sym. Ops. (no inversion) found ( 3 have fractional translation)

   Cartesian axes

     site n.     atom                  positions (alat units)
         1           O   tau(   1) = (   0.3545921   0.8718562  -0.0077406  )
         2           O   tau(   2) = (   0.0037072   0.8718562  -0.0077406  )
         3           Cu  tau(   3) = (  -0.0002581   0.0006065   0.0080789  )
         4           Cu  tau(   4) = (  -0.0002581   0.3481364   0.0080789  )
         5           Cu  tau(   5) = (   0.3585574   0.3481364   0.0080789  )
         6           Cu  tau(   6) = (  -0.3580421   0.6980913   0.0080789  )
         7           Cu  tau(   7) = (   0.3577988   0.6971373   0.0086255  )
         8           Cu  tau(   8) = (   0.0005005   1.0465760   0.0086255  )
         9           Cu  tau(   9) = (  -0.3588016   0.3490903   0.0086255  )
        10           Cu  tau(  10) = (   0.0005005   0.6971373   0.0086255  )
        11           O   tau(  11) = (  -0.0001733   0.5225410  -0.0089757  )
        12           O   tau(  12) = (   0.3584726   0.5225410  -0.0089757  )
        13           O   tau(  13) = (  -0.0001733   1.2211724  -0.0089757  )
        14           O   tau(  14) = (  -0.3581278   0.5236867  -0.0089757  )
        15           O   tau(  15) = (  -0.3544557   0.8718562  -0.0105593  )
        16           O   tau(  16) = (  -0.0038445   0.1743714  -0.0105593  )
        17           O   tau(  17) = (   0.3588818   0.3486599   0.1817056  )
        18           O   tau(  18) = (  -0.0005825   0.3486599   0.1817056  )
        19           O   tau(  19) = (  -0.0005825   0.0000830   0.1817056  )
        20           O   tau(  20) = (  -0.3577167   0.6975677   0.1817056  )
        21           O   tau(  21) = (   0.3584283   0.6967843   0.1825784  )
        22           O   tau(  22) = (  -0.3581712   0.3494443   0.1825784  )
        23           O   tau(  23) = (  -0.0001290   0.6967843   0.1825784  )
        24           O   tau(  24) = (  -0.0001290   1.0469291   0.1825784  )
        25           Ba  tau(  25) = (   0.1791506   0.8718562   0.1908537  )
        26           Ba  tau(  26) = (   0.5374498   0.5231143   0.1919901  )
        27           Ba  tau(  27) = (  -0.1791506   0.5231143   0.1919901  )
        28           Ba  tau(  28) = (  -0.1793773   0.8718562   0.1931958  )
        29           Ba  tau(  29) = (  -0.1789238   0.1743714   0.1931958  )
        30           Ba  tau(  30) = (   0.1791506   0.5222101   0.1929368  )
        31           Ba  tau(  31) = (  -0.5374498   0.5240176   0.1929368  )
        32           Ba  tau(  32) = (   0.1791506   0.1743714   0.1992469  )
        33           Cu  tau(  33) = (  -0.3583426   0.3488452   0.3777458  )
        34           Cu  tau(  34) = (   0.3582559   0.6973834   0.3777458  )
        35           Cu  tau(  35) = (   0.0000433   0.6973834   0.3777458  )
        36           Cu  tau(  36) = (   0.0000433   1.0463299   0.3777458  )
        37           Cu  tau(  37) = (  -0.3586541   0.6975060   0.3775126  )
        38           Cu  tau(  38) = (   0.3579444   0.3487217   0.3775126  )
        39           Cu  tau(  39) = (   0.0003549   0.0000212   0.3775126  )
        40           Cu  tau(  40) = (   0.0003549   0.3487217   0.3775126  )
        41           O   tau(  41) = (  -0.0047976   0.1743714   0.3996864  )
        42           O   tau(  42) = (  -0.3535026   0.8718562   0.3996864  )
        43           O   tau(  43) = (  -0.5374498   0.6924605   0.3956991  )
        44           O   tau(  44) = (   0.1791506   0.3537672   0.3956991  )
        45           O   tau(  45) = (   0.3586385   0.8718562   0.4046840  )
        46           O   tau(  46) = (  -0.0003392   0.8718562   0.4046840  )
        47           O   tau(  47) = (  -0.0004857   0.5230571   0.4066611  )
        48           O   tau(  48) = (   0.3587850   0.5230571   0.4066611  )
        49           O   tau(  49) = (  -0.3578135   0.5231714   0.4066611  )
        50           O   tau(  50) = (  -0.0004857   1.2206562   0.4066611  )
        51           O   tau(  51) = (   0.1791506   1.0461604   0.4028931  )
        52           O   tau(  52) = (   0.1791506   0.6975521   0.4028931  )
        53           O   tau(  53) = (  -0.1792261   0.6967170   0.4025963  )
        54           O   tau(  54) = (  -0.1790731   0.3495106   0.4025963  )
        55           O   tau(  55) = (  -0.1792261   1.0469964   0.4025963  )
        56           O   tau(  56) = (   0.5375263   0.6967170   0.4025963  )
        57           Ca  tau(  57) = (   0.1791506   0.1743714   0.5358617  )
        58           Y   tau(  58) = (  -0.1811525   0.8718562   0.5373908  )
        59           Y   tau(  59) = (  -0.1771467   0.1743714   0.5373908  )
        60           Y   tau(  60) = (   0.1791506   0.8718562   0.5379568  )
[...]
       210           O   tau( 210) = (   0.0037081   0.8718562   2.3484517  )
       211           Cu  tau( 211) = (  -0.0002516   0.0006074   2.3326478  )
       212           Cu  tau( 212) = (  -0.0002516   0.3481345   2.3326478  )
       213           Cu  tau( 213) = (   0.3585509   0.3481345   2.3326478  )
       214           Cu  tau( 214) = (  -0.3580476   0.6980931   2.3326478  )
       215           Cu  tau( 215) = (   0.3577960   0.6971373   2.3321012  )
       216           Cu  tau( 216) = (   0.0005033   1.0465760   2.3321012  )
       217           Cu  tau( 217) = (  -0.3588035   0.3490903   2.3321012  )
       218           Cu  tau( 218) = (   0.0005033   0.6971373   2.3321012  )
       219           O   tau( 219) = (  -0.0001724   0.5225410   2.3496905  )
       220           O   tau( 220) = (   0.3584716   0.5225410   2.3496905  )
       221           O   tau( 221) = (  -0.0001724   1.2211724   2.3496905  )
[...]
   -22.7999 -22.7867 -22.7539 -22.7426 -22.7405 -22.7344 -22.7295 -22.7215
   -22.7139 -22.7041 -22.6617 -22.6545 -22.6519 -22.6514 -22.6494 -22.6443
   -22.6380 -22.6363 -22.6315 -22.6219 -22.6049 -22.5917 -22.5854 -22.5534
   -22.5310 -22.5230 -22.4887 -22.4751 -22.4678 -22.4397 -22.3592 -22.1530
   -18.8102 -18.7380 -18.7322 -18.7266 -18.7080 -18.6805 -18.6557 -18.6501
   -18.6447 -18.6331 -18.6066 -18.6039 -18.5934 -18.5617 -18.5411 -18.5338
   -18.5249 -18.5207 -18.5149 -18.5099 -18.5053 -18.4544 -18.4495 -18.4330
   -18.4309 -18.4289 -18.4164 -18.4030 -18.3700 -18.3541 -18.3428 -18.3260
   -18.3223 -18.3221 -18.2856 -18.2654 -18.2521 -18.2433 -18.2413 -18.1990
   -18.1661 -18.1130 -17.0294 -17.0027 -16.9969 -16.9417 -16.9112 -16.9094
   -15.3668 -15.3085 -15.1792 -15.1211 -15.1081 -15.0557 -14.9735 -14.9238
   -14.8491 -14.8316 -14.7963 -14.7819 -14.7778 -14.7546 -14.7531 -14.7167
   -14.6904 -14.6835 -14.6597 -14.6473 -14.6309 -14.6205 -14.6160 -14.6090
   -14.5983 -14.5861 -14.5801 -14.5721 -14.5590 -14.5549 -14.5377 -14.5273
   -14.5071 -14.5044 -14.4780 -14.4774 -14.4420 -14.4418 -14.4298 -14.4215
   -14.4203 -14.4174 -14.4029 -14.4028 -14.3937 -14.3932 -14.3895 -14.3746
   -14.3711 -14.3670 -14.3463 -14.3457 -14.3360 -14.3305 -14.3010 -14.2888
   -14.2888 -14.2817 -14.2816 -14.2729 -14.2657 -14.2651 -14.2566 -14.2547
   -14.2325 -14.2283 -14.2142 -14.2059 -14.2028 -14.1955 -14.1882 -14.1798
   -14.1658 -14.1531 -14.1506 -14.1489 -14.1335 -14.1308 -14.1299 -14.1106
   -14.0939 -14.0823 -14.0800 -14.0746 -14.0666 -14.0235 -14.0058 -14.0021
   -13.8619 -13.8573 -13.8462 -13.8408 -13.8404 -13.8403 -13.8346 -13.8232
   -13.8229 -13.8132 -13.7904 -13.7869 -13.7735 -13.7696 -13.7627 -13.7546
   -13.7479 -13.7357 -13.7290 -13.6874 -13.6600 -13.6232 -13.6127 -13.5928
   -12.7012 -12.6875 -12.6146 -12.6140 -12.5524 -12.5518 -12.5143 -12.4372
    -8.5792  -8.5669  -8.4181  -8.2994  -8.2937  -8.2901  -8.2865  -8.2812
    -8.2773  -8.1781  -8.1704  -8.1390  -8.1268  -8.1188  -8.1132  -8.0882
    -8.0782  -8.0657  -8.0565  -8.0545  -8.0425  -8.0388  -8.0371  -8.0356
    -8.0313  -8.0298  -8.0260  -8.0180  -8.0139  -8.0013  -7.9975  -7.9874
    -7.9862  -7.9832  -7.9780  -7.9751  -7.9729  -7.9662  -7.9654  -7.9626
    -7.9624  -7.9621  -7.9611  -7.9580  -7.9533  -7.9516  -7.9481  -7.9479
    -7.9394  -7.9308  -7.9232  -7.9173  -7.8884  -7.8818  -7.8795  -7.8528
    -7.8502  -7.8254  -7.8055  -7.7925  -7.7860  -7.7856  -7.7761  -7.7690
    -7.7563  -7.7289  -7.7280  -7.7163  -7.6808  -7.6768  -7.6733  -7.6698
    -7.6642  -7.6569  -7.6467  -7.6226  -7.6136  -7.6098  -7.6042  -7.6012
    -7.5915  -7.5843  -7.5837  -7.5720  -7.5669  -7.5436  -7.5311  -7.4826
    -7.4336  -7.4307  -7.4014  -7.3962  -7.3649  -7.3442  -7.1643  -7.1608
    -4.0207  -3.9553  -3.6022  -3.5483  -3.5341  -3.5265  -3.4880  -3.4618
    -3.4349  -3.4097  -3.1864  -3.1598  -3.1327  -3.0933  -3.0667  -3.0344
    -2.9079  -2.8916  -2.8682  -2.8518  -2.8371  -2.8230  -2.8044  -2.7837
    -2.7720  -2.7647  -2.7424  -2.7292  -2.7179  -2.6349  -2.6138  -2.6118
    -2.5455  -2.5209  -2.4132  -2.4049  -2.3815  -2.3501  -2.3405  -2.3383
    -2.3294  -2.3284  -2.3268  -2.3238  -2.3118  -2.3042  -2.2497  -2.2473
    -2.2442  -2.2016  -2.1779  -2.1704  -2.1260  -2.1163  -2.1132  -2.1117
    -2.1071  -2.0954  -2.0778  -2.0644  -2.0625  -2.0557  -2.0549  -2.0505
    -2.0486  -2.0310  -2.0260  -2.0248  -2.0224  -2.0135  -2.0072  -1.9930
    -1.9911  -1.9817  -1.9690  -1.9536  -1.9481  -1.9451  -1.9432  -1.9403
    -1.9149  -1.9125  -1.9123  -1.9090  -1.8989  -1.8739  -1.8699  -1.8668
    -1.8650  -1.8626  -1.8611  -1.8550  -1.8505  -1.8439  -1.8425  -1.8422
    -1.8341  -1.8289  -1.8136  -1.8129  -1.7928  -1.7922  -1.7904  -1.7811
    -1.7665  -1.7651  -1.7604  -1.7452  -1.7385  -1.7385  -1.7324  -1.7232
    -1.7052  -1.7021  -1.7003  -1.7000  -1.6952  -1.6859  -1.6698  -1.6632
    -1.6572  -1.6569  -1.6520  -1.6459  -1.6264  -1.6233  -1.6016  -1.5922
    -1.5871  -1.5601  -1.5547  -1.4749  -1.3375  -1.3002  -1.2744  -1.2671
    -1.2408  -1.2082  -1.1678  -1.0675  -1.0630  -1.0445  -1.0423  -1.0134
    -0.9964  -0.9758  -0.9672  -0.9555  -0.9528  -0.9389  -0.9379  -0.9345
    -0.9280  -0.9154  -0.9133  -0.9113  -0.9001  -0.8945  -0.8902  -0.8805
    -0.8694  -0.8592  -0.8398  -0.8262  -0.8258  -0.8226  -0.8175  -0.8099
[...]
     7.0229   7.0460   7.0485   7.0848   7.1013   7.1365   7.2187   7.2495
     7.2931   7.3309   7.3648   7.3961   7.7164   7.7509   7.7883   7.7981
     7.8129   7.8203   7.8390   7.8660   7.8683   7.8752   7.8909   7.8920
     7.8960   7.8987   7.9069   7.9191   7.9240   7.9360   7.9507   7.9590
     7.9831   8.0047   8.0170   8.0655   8.0847   8.1072   8.1269   8.1996
     8.2251   8.2495   8.2566   8.2590   8.2736   8.3285   8.3379   8.3484
     8.3608   8.3743   8.3760   8.3883   8.4001   8.4237   8.4861   8.5314
     8.5555   8.5886   8.6108   8.6225   8.6328   8.6578   8.6892   8.6978
     8.7103   8.7242   8.7412   8.7768   8.8123   8.8324   8.8500   8.8608
     8.9214   8.9376   8.9462   8.9632   8.9904   9.0317   9.0431   9.0471
     9.0598   9.0992   9.1039   9.1119   9.1292   9.1337   9.1348   9.1426
     9.1454   9.1476   9.1722   9.1767   9.2017   9.2089   9.2331   9.2418
     9.2572   9.2599   9.2757   9.2793   9.2802   9.2934   9.3064   9.3246
     9.3323   9.3477   9.3527   9.3560   9.3721   9.3846   9.3862   9.4359
     9.4413   9.4619

     the Fermi energy is     2.8662 ev

!    total energy              =  -14923.93325068 Ry
     Harris-Foulkes estimate   =  -14923.93325061 Ry
     estimated scf accuracy    <          9.1E-09 Ry

     The total energy is the sum of the following terms:

     one-electron contribution = -220102.78934855 Ry
     hartree contribution      =  111282.19524212 Ry
     xc contribution           =   -5117.01349021 Ry
     ewald contribution        =   99013.74437137 Ry
     smearing contrib. (-TS)   =      -0.07002540 Ry

     convergence has been achieved in  39 iterations

     negative rho (up, down):  6.350E-01 0.000E+00

     Forces acting on atoms (cartesian axes, Ry/au):

     atom    1 type  4   force =     0.00010036    0.00000000   -0.00037298
     atom    2 type  4   force =    -0.00010036    0.00000000   -0.00037298
     atom    3 type  3   force =     0.00009027   -0.00003512    0.00015980
     atom    4 type  3   force =     0.00009027    0.00003512    0.00015980
     atom    5 type  3   force =    -0.00009027    0.00003512    0.00015980
     atom    6 type  3   force =    -0.00009027   -0.00003512    0.00015980
     atom    7 type  3   force =     0.00000036   -0.00000732   -0.00005879
     atom    8 type  3   force =    -0.00000036    0.00000732   -0.00005879
     atom    9 type  3   force =     0.00000036    0.00000732   -0.00005879
     atom   10 type  3   force =    -0.00000036   -0.00000732   -0.00005879
     atom   11 type  4   force =    -0.00011541    0.00005446   -0.00038996
     atom   12 type  4   force =     0.00011541    0.00005446   -0.00038996
     atom   13 type  4   force =    -0.00011541   -0.00005446   -0.00038996
     atom   14 type  4   force =     0.00011541   -0.00005446   -0.00038996
     atom   15 type  4   force =    -0.00014945    0.00000000   -0.00046990
     atom   16 type  4   force =     0.00014945    0.00000000   -0.00046990
     atom   17 type  4   force =     0.00000317    0.00005430    0.00062483
     atom   18 type  4   force =    -0.00000317    0.00005430    0.00062483
     atom   19 type  4   force =    -0.00000317   -0.00005430    0.00062483
     atom   20 type  4   force =     0.00000317   -0.00005430    0.00062483
     atom   21 type  4   force =     0.00003966    0.00004348    0.00084242
     atom   22 type  4   force =     0.00003966   -0.00004348    0.00084242
     atom   23 type  4   force =    -0.00003966    0.00004348    0.00084242
     atom   24 type  4   force =    -0.00003966   -0.00004348    0.00084242
     atom   25 type  1   force =     0.00000000    0.00000000   -0.00019344
     atom   26 type  1   force =     0.00000000    0.00000000   -0.00031753
     atom   27 type  1   force =     0.00000000    0.00000000   -0.00031753
     atom   28 type  1   force =    -0.00015658    0.00000000   -0.00019029
     atom   29 type  1   force =     0.00015658    0.00000000   -0.00019029
     atom   30 type  1   force =     0.00000000    0.00012240   -0.00043707
     atom   31 type  1   force =     0.00000000   -0.00012240   -0.00043707
     atom   32 type  1   force =     0.00000000    0.00000000   -0.00033052
     atom   33 type  3   force =    -0.00003868   -0.00000736   -0.00050155
     atom   34 type  3   force =    -0.00003868    0.00000736   -0.00050155
     atom   35 type  3   force =     0.00003868    0.00000736   -0.00050155
     atom   36 type  3   force =     0.00003868   -0.00000736   -0.00050155
     atom   37 type  3   force =     0.00001740   -0.00003612   -0.00051518
     atom   38 type  3   force =     0.00001740    0.00003612   -0.00051518
     atom   39 type  3   force =    -0.00001740   -0.00003612   -0.00051518
     atom   40 type  3   force =    -0.00001740    0.00003612   -0.00051518
     atom   41 type  4   force =    -0.00039706    0.00000000    0.00137312
     atom   42 type  4   force =     0.00039706    0.00000000    0.00137312
     atom   43 type  4   force =     0.00000000   -0.00010502    0.00129219
     atom   44 type  4   force =     0.00000000    0.00010502    0.00129219
     atom   45 type  4   force =     0.00006828    0.00000000    0.00160256
     atom   46 type  4   force =    -0.00006828    0.00000000    0.00160256
     atom   47 type  4   force =    -0.00001757   -0.00010024    0.00163464
     atom   48 type  4   force =     0.00001757   -0.00010024    0.00163464
     atom   49 type  4   force =     0.00001757    0.00010024    0.00163464
     atom   50 type  4   force =    -0.00001757    0.00010024    0.00163464
     atom   51 type  4   force =     0.00000000   -0.00002435    0.00128906
     atom   52 type  4   force =     0.00000000    0.00002435    0.00128906
     atom   53 type  4   force =     0.00003146    0.00003471    0.00149812
     atom   54 type  4   force =    -0.00003146   -0.00003471    0.00149812
     atom   55 type  4   force =     0.00003146   -0.00003471    0.00149812
     atom   56 type  4   force =    -0.00003146    0.00003471    0.00149812
     atom   57 type  2   force =     0.00000000    0.00000000   -0.00311312
     atom   58 type  5   force =     0.00052660    0.00000000   -0.00526398
     atom   59 type  5   force =    -0.00052660    0.00000000   -0.00526398
     atom   60 type  5   force =     0.00000000    0.00000000   -0.00455353
[...]
     atom  210 type  4   force =    -0.00007244    0.00000000   -0.00015420
     atom  211 type  3   force =     0.00008978   -0.00004974    0.00068064
     atom  212 type  3   force =     0.00008978    0.00004974    0.00068064
     atom  213 type  3   force =    -0.00008978    0.00004974    0.00068064
     atom  214 type  3   force =    -0.00008978   -0.00004974    0.00068064
     atom  215 type  3   force =     0.00000250   -0.00002825    0.00093884
     atom  216 type  3   force =    -0.00000250    0.00002825    0.00093884
     atom  217 type  3   force =     0.00000250    0.00002825    0.00093884
     atom  218 type  3   force =    -0.00000250   -0.00002825    0.00093884
     atom  219 type  4   force =    -0.00010679    0.00019387   -0.00008987
     atom  220 type  4   force =     0.00010679    0.00019387   -0.00008987
     atom  221 type  4   force =    -0.00010679   -0.00019387   -0.00008987
     atom  222 type  4   force =     0.00010679   -0.00019387   -0.00008987
     atom  223 type  4   force =    -0.00012139    0.00000000   -0.00002447
     atom  224 type  4   force =     0.00012139    0.00000000   -0.00002447

     Total force =     0.151503     Total SCF correction =     0.000339

     Computing stress (Cartesian axis) and pressure

     negative rho (up, down):  6.350E-01 0.000E+00
          total   stress  (Ry/bohr**3)                   (kbar)     P=       -6.95
  -0.00000396   0.00000000   0.00000000           -0.58        0.00        0.00
   0.00000000  -0.00009893   0.00000000            0.00      -14.55        0.00
   0.00000000   0.00000000  -0.00003894            0.00        0.00       -5.73

     General routines

     Parallel routines

   This run was terminated on:  22:13:51  17May2021

   JOB DONE.
[1621304031.775228] [holy7c12406:116906:0]          mpool.c:43   UCX  WARN  object 0x2f2adc0 was not returned to mpool ucp_requests
[1621304031.791757] [holy7c12201:72641:0]          mpool.c:43   UCX  WARN  object 0x407f240 was not returned to mpool ucp_requests
[1621304031.794920] [holy7c12201:72635:0]          mpool.c:43   UCX  WARN  object 0x39cf240 was not returned to mpool ucp_requests
[1621304031.796267] [holy7c12201:72634:0]          mpool.c:43   UCX  WARN  object 0x40365c0 was not returned to mpool ucp_requests
[1621304031.806564] [holy7c12201:72636:0]          mpool.c:43   UCX  WARN  object 0x2b65c40 was not returned to mpool ucp_requests
[1621304031.778509] [holy7c12406:116912:0]          mpool.c:43   UCX  WARN  object 0x2b98c40 was not returned to mpool ucp_requests
[1621304031.780234] [holy7c12406:116911:0]          mpool.c:43   UCX  WARN  object 0x307d140 was not returned to mpool ucp_requests
[1621304031.787795] [holy7c12406:116905:0]          mpool.c:43   UCX  WARN  object 0x2876d80 was not returned to mpool ucp_requests
[1621304031.818316] [holy7c12306:28907:0]          mpool.c:43   UCX  WARN  object 0x5033d00 was not returned to mpool ucp_requests
[1621304031.817222] [holy7c12610:8901 :0]          mpool.c:43   UCX  WARN  object 0x31e75c0 was not returned to mpool ucp_requests
[1621304031.821692] [holy7c12306:28909:0]          mpool.c:43   UCX  WARN  object 0x3b3ba00 was not returned to mpool ucp_requests
[1621304031.822988] [holy7c12306:28901:0]          mpool.c:43   UCX  WARN  object 0x34cfc00 was not returned to mpool ucp_requests
[1621304031.826850] [holy7c12306:28915:0]          mpool.c:43   UCX  WARN  object 0x2a657c0 was not returned to mpool ucp_requests
[1621304031.825827] [holy7c12306:28908:0]          mpool.c:43   UCX  WARN  object 0x4072800 was not returned to mpool ucp_requests
[1621304031.864317] [holy7c12506:145545:0]          mpool.c:43   UCX  WARN  object 0x3dfda00 was not returned to mpool ucp_requests
[1621304031.833899] [holy7c12306:28910:0]          mpool.c:43   UCX  WARN  object 0x380dd00 was not returned to mpool ucp_requests
[1621304031.830775] [holy7c12610:8900 :0]          mpool.c:43   UCX  WARN  object 0x3bbc0c0 was not returned to mpool ucp_requests
[1621304031.836069] [holy7c12306:28902:0]          mpool.c:43   UCX  WARN  object 0x32bd640 was not returned to mpool ucp_requests
[1621304031.836280] [holy7c12306:28900:0]          mpool.c:43   UCX  WARN  object 0x2a16200 was not returned to mpool ucp_requests
[1621304031.841286] [holy7c12306:28916:0]          mpool.c:43   UCX  WARN  object 0x3ef7f00 was not returned to mpool ucp_requests
[1621304031.871886] [holy7c12506:145547:0]          mpool.c:43   UCX  WARN  object 0x387a1c0 was not returned to mpool ucp_requests
[1621304031.874929] [holy7c12506:145553:0]          mpool.c:43   UCX  WARN  object 0x3316500 was not returned to mpool ucp_requests
[1621304031.874957] [holy7c12506:145553:0]          mpool.c:43   UCX  WARN  object 0x331be40 was not returned to mpool ucp_requests
[1621304031.881445] [holy7c12506:145555:0]          mpool.c:43   UCX  WARN  object 0x2ac99c0 was not returned to mpool ucp_requests
[1621304031.879399] [holy7c12506:145539:0]          mpool.c:43   UCX  WARN  object 0x2cb67c0 was not returned to mpool ucp_requests
[1621304031.881683] [holy7c12506:145561:0]          mpool.c:43   UCX  WARN  object 0x4054380 was not returned to mpool ucp_requests
[1621304031.872877] [holy7c12506:145554:0]          mpool.c:43   UCX  WARN  object 0x3483800 was not returned to mpool ucp_requests
[1621304031.879005] [holy7c12506:145552:0]          mpool.c:43   UCX  WARN  object 0x2c22280 was not returned to mpool ucp_requests
[1621304031.878621] [holy7c12506:145538:0]          mpool.c:43   UCX  WARN  object 0x688bf80 was not returned to mpool ucp_requests
[1621304031.889172] [holy7c12506:145546:0]          mpool.c:43   UCX  WARN  object 0x42b6c00 was not returned to mpool ucp_requests
[1621304031.889207] [holy7c12506:145546:0]          mpool.c:43   UCX  WARN  object 0x42b9980 was not returned to mpool ucp_requests
[1621304031.893582] [holy7c12506:145544:0]          mpool.c:43   UCX  WARN  object 0x33e3900 was not returned to mpool ucp_requests
[1621304031.891405] [holy7c12506:145560:0]          mpool.c:43   UCX  WARN  object 0x3ec2b80 was not returned to mpool ucp_requests