     Program PWSCF v.6.5 starts on 18May2021 at 21:33:37

     R & G space division:  proc/nbgrp/npool/nimage =      80
     Reading input from YBCO_Y_cleave_7.0_sep.pwi
Warning: card &IONS ignored
Warning: card     ION_DYNAMICS = 'BFGS' ignored
Warning: card / ignored
Warning: card &CELL ignored
Warning: card     CELL_DYNAMICS = 'BFGS' ignored
Warning: card     PRESS_CONV_THR = 5 ignored
Warning: card / ignored

     Current dimensions of program PWSCF are:
     Max number of different atomic species (ntypx) = 10
     Max number of k-points (npk) =  40000
     Max angular momentum in pseudopotentials (lmaxx) =  3
     Message from routine volume:
     axis vectors are left-handed

     Message from routine setup:
     using ibrav=0 with symmetry is DISCOURAGED, use correct ibrav instead

     bravais-lattice index     =            0
     lattice parameter (alat)  =      20.5021  a.u.
     unit-cell volume          =   40093.6191 (a.u.)^3
     number of atoms/cell      =          224
     number of atomic types    =            5
     number of electrons       =      1830.00
     number of Kohn-Sham states=         1098
     kinetic-energy cutoff     =      60.0000  Ry
     charge density cutoff     =     720.0000  Ry
     convergence threshold     =      1.0E-08
     mixing beta               =       0.5000
     number of iterations used =           10  local-TF  mixing
     Exchange-correlation= SLA PW PBE PBE
                           (   1   4   3   4   0   0   0)

     celldm(1)=  20.502120  celldm(2)=   0.000000  celldm(3)=   0.000000
     celldm(4)=   0.000000  celldm(5)=   0.000000  celldm(6)=   0.000000

     crystal axes: (cart. coord. in units of alat)
               a(1) = (  -0.716599   0.697485   0.000000 )
               a(2) = (   0.716599   0.697485   0.000000 )
               a(3) = (   0.000000   0.000000   4.654121 )

     reciprocal axes: (cart. coord. in units 2 pi/alat)
               b(1) = ( -0.697740  0.716861  0.000000 )
               b(2) = (  0.697740  0.716861  0.000000 )
               b(3) = (  0.000000  0.000000  0.214863 )

     PseudoPot. # 1 for Ba read from file:
     ./pseudo/Ba.pbe-nsp-van.UPF
     MD5 check sum: 2b9c31dd849566dd297d80989662b7a0
     Pseudo is Ultrasoft + core correction, Zval = 10.0
     Generated by new atomic code, or converted to UPF format
     Using radial grid of  907 points,  6 beta functions with:
                l(1) =   0
                l(2) =   0
                l(3) =   1
                l(4) =   1
                l(5) =   2
                l(6) =   2
     Q(r) pseudized with  6 coefficients,  rinner =    1.200   1.200   1.200
                                                       1.200   1.200

     PseudoPot. # 2 for Ca read from file:
     ./pseudo/Ca.pbe-nsp-van.UPF
     MD5 check sum: 6471098428ff4fa451746d08035ff179
     Pseudo is Ultrasoft + core correction, Zval = 10.0
     Generated by new atomic code, or converted to UPF format
     Using radial grid of  845 points,  6 beta functions with:
                l(1) =   0
                l(2) =   0
                l(3) =   1
                l(4) =   1
                l(5) =   2
                l(6) =   2
     Q(r) pseudized with  6 coefficients,  rinner =    1.200   1.200   1.200
                                                       1.200   1.200

     PseudoPot. # 3 for Cu read from file:
     ./pseudo/Cu.pbe-n-van_ak.UPF
     MD5 check sum: 34e3282627ffb533726feb647e090d62
     Pseudo is Ultrasoft + core correction, Zval = 11.0
     Generated by new atomic code, or converted to UPF format
     Using radial grid of  867 points,  6 beta functions with:
                l(1) =   0
                l(2) =   0
                l(3) =   1
                l(4) =   1
                l(5) =   2
                l(6) =   2
     Q(r) pseudized with  8 coefficients,  rinner =    1.400   1.400   1.400
                                                       1.400   1.400

     PseudoPot. # 4 for O  read from file:
     ./pseudo/O.pbe-van_ak.UPF
     MD5 check sum: 783ce7fe4c79b6a4916957118fed0856
     Pseudo is Ultrasoft, Zval =  6.0
     Generated by new atomic code, or converted to UPF format
     Using radial grid of  737 points,  4 beta functions with:
                l(1) =   0
                l(2) =   0
                l(3) =   1
                l(4) =   1
     Q(r) pseudized with  8 coefficients,  rinner =    0.800   0.800   0.800

     PseudoPot. # 5 for Y  read from file:
     ./pseudo/Y.pbe-nsp-van.UPF
     MD5 check sum: 4412fed3ab108fed87a1b7d6a69a4a38
     Pseudo is Ultrasoft + core correction, Zval = 11.0
     Generated by new atomic code, or converted to UPF format
     Using radial grid of  885 points,  6 beta functions with:
                l(1) =   0
                l(2) =   0
                l(3) =   1
                l(4) =   1
                l(5) =   2
                l(6) =   2
     Q(r) pseudized with  6 coefficients,  rinner =    1.200   1.200   1.200
                                                       1.200   1.200

     atomic species   valence    mass     pseudopotential
        Ba            10.00   137.32700     Ba( 1.00)
        Ca            10.00    40.07800     Ca( 1.00)
        Cu            11.00    63.54600     Cu( 1.00)
        O              6.00    15.99900     O ( 1.00)
        Y             11.00    88.90584     Y ( 1.00)

      4 Sym. Ops. (no inversion) found ( 3 have fractional translation)

   Cartesian axes

     site n.     atom                  positions (alat units)
         1           O   tau(   1) = (   0.3545921   0.8718562  -0.0077406  )
         2           O   tau(   2) = (   0.0037072   0.8718562  -0.0077406  )
         3           Cu  tau(   3) = (  -0.0002581   0.0006065   0.0080789  )
         4           Cu  tau(   4) = (  -0.0002581   0.3481364   0.0080789  )
         5           Cu  tau(   5) = (   0.3585574   0.3481364   0.0080789  )
         6           Cu  tau(   6) = (  -0.3580421   0.6980913   0.0080789  )
         7           Cu  tau(   7) = (   0.3577988   0.6971373   0.0086255  )
         8           Cu  tau(   8) = (   0.0005005   1.0465760   0.0086255  )
         9           Cu  tau(   9) = (  -0.3588016   0.3490903   0.0086255  )
        10           Cu  tau(  10) = (   0.0005005   0.6971373   0.0086255  )
        11           O   tau(  11) = (  -0.0001733   0.5225410  -0.0089757  )
        12           O   tau(  12) = (   0.3584726   0.5225410  -0.0089757  )
        13           O   tau(  13) = (  -0.0001733   1.2211724  -0.0089757  )
        14           O   tau(  14) = (  -0.3581278   0.5236867  -0.0089757  )
        15           O   tau(  15) = (  -0.3544557   0.8718562  -0.0105593  )
        16           O   tau(  16) = (  -0.0038445   0.1743714  -0.0105593  )
        17           O   tau(  17) = (   0.3588818   0.3486599   0.1817056  )
        18           O   tau(  18) = (  -0.0005825   0.3486599   0.1817056  )
        19           O   tau(  19) = (  -0.0005825   0.0000830   0.1817056  )
        20           O   tau(  20) = (  -0.3577167   0.6975677   0.1817056  )
        21           O   tau(  21) = (   0.3584283   0.6967843   0.1825784  )
        22           O   tau(  22) = (  -0.3581712   0.3494443   0.1825784  )
        23           O   tau(  23) = (  -0.0001290   0.6967843   0.1825784  )
        24           O   tau(  24) = (  -0.0001290   1.0469291   0.1825784  )
        25           Ba  tau(  25) = (   0.1791506   0.8718562   0.1908537  )
        26           Ba  tau(  26) = (   0.5374498   0.5231143   0.1919901  )
        27           Ba  tau(  27) = (  -0.1791506   0.5231143   0.1919901  )
        28           Ba  tau(  28) = (  -0.1793773   0.8718562   0.1931958  )
        29           Ba  tau(  29) = (  -0.1789238   0.1743714   0.1931958  )
        30           Ba  tau(  30) = (   0.1791506   0.5222101   0.1929368  )
        31           Ba  tau(  31) = (  -0.5374498   0.5240176   0.1929368  )
        32           Ba  tau(  32) = (   0.1791506   0.1743714   0.1992469  )
        33           Cu  tau(  33) = (  -0.3583426   0.3488452   0.3777458  )
        34           Cu  tau(  34) = (   0.3582559   0.6973834   0.3777458  )
        35           Cu  tau(  35) = (   0.0000433   0.6973834   0.3777458  )
        36           Cu  tau(  36) = (   0.0000433   1.0463299   0.3777458  )
        37           Cu  tau(  37) = (  -0.3586541   0.6975060   0.3775126  )
        38           Cu  tau(  38) = (   0.3579444   0.3487217   0.3775126  )
        39           Cu  tau(  39) = (   0.0003549   0.0000212   0.3775126  )
        40           Cu  tau(  40) = (   0.0003549   0.3487217   0.3775126  )
        41           O   tau(  41) = (  -0.0047976   0.1743714   0.3996864  )
        42           O   tau(  42) = (  -0.3535026   0.8718562   0.3996864  )
        43           O   tau(  43) = (  -0.5374498   0.6924605   0.3956991  )
        44           O   tau(  44) = (   0.1791506   0.3537672   0.3956991  )
        45           O   tau(  45) = (   0.3586385   0.8718562   0.4046840  )
        46           O   tau(  46) = (  -0.0003392   0.8718562   0.4046840  )
        47           O   tau(  47) = (  -0.0004857   0.5230571   0.4066611  )
        48           O   tau(  48) = (   0.3587850   0.5230571   0.4066611  )
        49           O   tau(  49) = (  -0.3578135   0.5231714   0.4066611  )
        50           O   tau(  50) = (  -0.0004857   1.2206562   0.4066611  )
        51           O   tau(  51) = (   0.1791506   1.0461604   0.4028931  )
        52           O   tau(  52) = (   0.1791506   0.6975521   0.4028931  )
        53           O   tau(  53) = (  -0.1792261   0.6967170   0.4025963  )
        54           O   tau(  54) = (  -0.1790731   0.3495106   0.4025963  )
        55           O   tau(  55) = (  -0.1792261   1.0469964   0.4025963  )
        56           O   tau(  56) = (   0.5375263   0.6967170   0.4025963  )
        57           Ca  tau(  57) = (   0.1791506   0.1743714   0.5358617  )
        58           Y   tau(  58) = (  -0.1811525   0.8718562   0.5373908  )
        59           Y   tau(  59) = (  -0.1771467   0.1743714   0.5373908  )
        60           Y   tau(  60) = (   0.1791506   0.8718562   0.5379568  )
[...]
       210           O   tau( 210) = (   0.0037081   0.8718562   2.8093128  )
       211           Cu  tau( 211) = (  -0.0002516   0.0006074   2.7935090  )
       212           Cu  tau( 212) = (  -0.0002516   0.3481345   2.7935090  )
       213           Cu  tau( 213) = (   0.3585509   0.3481345   2.7935090  )
       214           Cu  tau( 214) = (  -0.3580476   0.6980931   2.7935090  )
       215           Cu  tau( 215) = (   0.3577960   0.6971373   2.7929624  )
       216           Cu  tau( 216) = (   0.0005033   1.0465760   2.7929624  )
       217           Cu  tau( 217) = (  -0.3588035   0.3490903   2.7929624  )
       218           Cu  tau( 218) = (   0.0005033   0.6971373   2.7929624  )
       219           O   tau( 219) = (  -0.0001724   0.5225410   2.8105516  )
       220           O   tau( 220) = (   0.3584716   0.5225410   2.8105516  )
       221           O   tau( 221) = (  -0.0001724   1.2211724   2.8105516  )
[...]
   -21.7411 -21.7213 -21.7153 -21.6988 -21.6725 -21.6530 -21.6463 -21.6431
   -21.6059 -21.6011 -21.5901 -21.5541 -21.5350 -20.3914 -20.3638 -20.3481
   -19.4632 -19.3903 -19.3847 -19.3592 -19.3354 -19.2966 -19.2588 -19.2481
   -19.1935 -19.1863 -19.1661 -19.1643 -19.1573 -19.0834 -19.0580 -19.0224
   -18.9972 -18.9784 -18.9738 -18.9044 -18.8514 -17.6808 -17.6523 -17.6459
   -16.7726 -16.6699 -16.6255 -16.5246 -16.3466 -16.3019 -16.2638 -16.1831
   -16.1682 -16.1591 -16.0890 -16.0641 -16.0358 -16.0285 -15.9548 -15.9473
   -15.8406 -15.8137 -15.7707 -15.6457 -15.5272 -15.5034 -15.4811 -15.4701
   -15.4335 -15.4090 -15.3558 -15.3449 -15.3240 -15.3187 -15.3150 -15.3081
   -15.2857 -15.2815 -15.2653 -15.2378 -15.2246 -15.2123 -15.2096 -15.2011
   -15.1997 -15.1894 -15.1491 -15.1427 -15.1388 -15.1282 -15.1189 -15.1168
   -15.1139 -15.1124 -15.1111 -15.0958 -15.0632 -15.0413 -15.0268 -14.9918
   -14.9702 -14.9528 -14.9439 -14.9256 -14.9108 -14.9104 -14.8887 -14.8706
   -14.8652 -14.8588 -14.8523 -14.8490 -14.8382 -14.8159 -14.8034 -14.7948
   -14.7666 -14.7581 -14.7504 -14.7495 -14.7115 -14.7096 -14.6423 -14.6061
   -14.5984 -14.5932 -14.5720 -14.5669 -14.5654 -14.5618 -14.5456 -14.5449
   -14.4952 -14.4921 -14.4755 -14.4734 -14.4656 -14.4643 -14.4622 -14.4591
   -14.4559 -14.4525 -14.4483 -14.4471 -14.4410 -14.4157 -14.4052 -14.3887
   -14.3787 -14.3706 -14.3699 -14.3484 -14.3096 -14.2802 -14.2673 -14.2560
   -14.2231 -14.1347 -14.0840 -14.0768 -13.9920 -13.9246 -13.9070 -13.8379
    -9.4287  -9.2823  -9.2383  -9.1814  -9.1617  -9.1470  -9.1267  -9.0895
    -9.0751  -9.0408  -9.0343  -9.0142  -9.0023  -8.9967  -8.9930  -8.9429
    -8.9259  -8.9015  -8.8691  -8.8635  -8.8422  -8.8384  -8.8079  -8.8045
    -8.7852  -8.7800  -8.7556  -8.7444  -8.7338  -8.7237  -8.7213  -8.7029
    -8.6994  -8.6972  -8.6883  -8.6809  -8.6779  -8.6749  -8.6691  -8.6638
    -8.6544  -8.6343  -8.6302  -8.6219  -8.6188  -8.6175  -8.6150  -8.6118
    -8.5984  -8.5887  -8.5748  -8.5472  -8.5083  -8.4952  -8.4920  -8.4719
    -8.4674  -8.4661  -8.4618  -8.4496  -8.4318  -8.4265  -8.4072  -8.3981
    -8.3799  -8.3611  -8.3508  -8.3256  -8.3165  -8.3143  -8.3108  -8.3071
    -8.2964  -8.2915  -8.2858  -8.2829  -8.2677  -8.2403  -8.2365  -8.2069
    -8.1985  -8.1911  -8.1888  -8.1839  -8.1600  -8.1317  -8.1282  -8.1052
    -8.0936  -8.0585  -8.0473  -8.0080  -8.0053  -7.9456  -7.9392  -7.9176
    -5.1869  -4.8045  -4.7427  -4.6812  -4.6168  -4.2628  -4.2121  -4.1796
    -4.1344  -4.1155  -4.0674  -4.0450  -3.9379  -3.8374  -3.8140  -3.7901
    -3.7887  -3.7829  -3.6688  -3.6140  -3.5932  -3.5806  -3.5752  -3.5358
    -3.5194  -3.4911  -3.4868  -3.4800  -3.4601  -3.4450  -3.4424  -3.4349
    -3.4137  -3.3834  -3.3603  -3.3558  -3.3164  -3.2891  -3.2696  -3.2663
    -3.1788  -3.1761  -3.1605  -3.1575  -3.1132  -3.1111  -3.0984  -3.0555
    -3.0372  -3.0325  -3.0264  -3.0139  -2.9911  -2.9861  -2.9589  -2.9540
    -2.8823  -2.8785  -2.8759  -2.8705  -2.8602  -2.8262  -2.8254  -2.8227
    -2.8148  -2.8103  -2.7800  -2.7794  -2.7707  -2.7661  -2.7490  -2.7428
    -2.7393  -2.7387  -2.7374  -2.7248  -2.7245  -2.7060  -2.7025  -2.6980
    -2.6911  -2.6908  -2.6626  -2.6625  -2.6613  -2.6609  -2.6520  -2.6518
    -2.6317  -2.6247  -2.6180  -2.6080  -2.5797  -2.5766  -2.5735  -2.5728
    -2.5657  -2.5530  -2.5488  -2.5446  -2.5390  -2.5382  -2.5159  -2.5116
    -2.5015  -2.4902  -2.4866  -2.4726  -2.4706  -2.4690  -2.4583  -2.4476
    -2.4415  -2.4384  -2.4233  -2.4170  -2.4167  -2.4131  -2.3953  -2.3834
    -2.3783  -2.3616  -2.3326  -2.3100  -2.2790  -2.2621  -2.2430  -2.2359
    -2.1927  -2.1828  -2.1675  -2.1429  -2.1179  -2.0809  -2.0776  -2.0324
    -2.0110  -1.9927  -1.9712  -1.9692  -1.9675  -1.9615  -1.9580  -1.9453
    -1.9404  -1.9346  -1.9055  -1.8846  -1.8795  -1.8270  -1.8046  -1.7882
    -1.7592  -1.7089  -1.7075  -1.7072  -1.7012  -1.6696  -1.6671  -1.6503
    -1.6411  -1.6396  -1.6379  -1.6259  -1.6161  -1.6130  -1.6052  -1.6033
[...]
     5.0968   5.1233   5.2298   5.3471   5.5203   5.5513   5.5623   5.5758
     5.6534   5.6869   5.7412   5.7657   5.7996   5.8060   5.8163   5.8361
     5.8890   5.8957   5.9305   5.9356   5.9658   6.0274   6.0553   6.0765
     6.0852   6.0855   6.0897   6.1046   6.1280   6.1347   6.1484   6.1559
     6.1870   6.1879   6.2472   6.2826   6.3228   6.3304   6.3644   6.4014
     6.4256   6.4999   6.5507   6.5736   6.6395   6.6605   6.6848   6.6992
     6.7887   6.8016   6.8906   6.9366   7.0353   7.0611   7.0838   7.1609
     7.1687   7.1714   7.1929   7.2010   7.2108   7.2223   7.2461   7.2541
     7.3537   7.3585   7.3826   7.3999   7.4090   7.4735   7.4781   7.4827
     7.5014   7.5074   7.5077   7.5454   7.5886   7.6543   7.6600   7.6628
     7.6754   7.7156   7.7206   7.7270   7.7417   7.7526   7.8120   7.8146
     7.8185   7.8429   7.8758   7.8848   7.9823   7.9993   8.0229   8.0429
     8.0448   8.0867   8.0951   8.1493   8.1638   8.1664   8.1987   8.2177
     8.2229   8.2340   8.2441   8.2448   8.2814   8.3018   8.3569   8.3753
     8.3948   8.4124

     the Fermi energy is     2.1612 ev

!    total energy              =  -14921.34074211 Ry
     Harris-Foulkes estimate   =  -14921.34074216 Ry
     estimated scf accuracy    <          7.7E-09 Ry

     The total energy is the sum of the following terms:

     one-electron contribution = -228872.40469470 Ry
     hartree contribution      =  115608.01746785 Ry
     xc contribution           =   -5113.49360410 Ry
     ewald contribution        =  103456.60890824 Ry
     smearing contrib. (-TS)   =      -0.06881941 Ry

     convergence has been achieved in  48 iterations

     negative rho (up, down):  6.309E-01 0.000E+00

     Forces acting on atoms (cartesian axes, Ry/au):

     atom    1 type  4   force =     0.00011095    0.00000000    0.00023576
     atom    2 type  4   force =    -0.00011095    0.00000000    0.00023576
     atom    3 type  3   force =     0.00008291   -0.00007474   -0.00020089
     atom    4 type  3   force =     0.00008291    0.00007474   -0.00020089
     atom    5 type  3   force =    -0.00008291    0.00007474   -0.00020089
     atom    6 type  3   force =    -0.00008291   -0.00007474   -0.00020089
     atom    7 type  3   force =    -0.00001438   -0.00001161   -0.00034868
     atom    8 type  3   force =     0.00001438    0.00001161   -0.00034868
     atom    9 type  3   force =    -0.00001438    0.00001161   -0.00034868
     atom   10 type  3   force =     0.00001438   -0.00001161   -0.00034868
     atom   11 type  4   force =    -0.00010256    0.00007591    0.00015636
     atom   12 type  4   force =     0.00010256    0.00007591    0.00015636
     atom   13 type  4   force =    -0.00010256   -0.00007591    0.00015636
     atom   14 type  4   force =     0.00010256   -0.00007591    0.00015636
     atom   15 type  4   force =    -0.00016522    0.00000000    0.00016067
     atom   16 type  4   force =     0.00016522    0.00000000    0.00016067
     atom   17 type  4   force =     0.00003023    0.00005236    0.00035398
     atom   18 type  4   force =    -0.00003023    0.00005236    0.00035398
     atom   19 type  4   force =    -0.00003023   -0.00005236    0.00035398
     atom   20 type  4   force =     0.00003023   -0.00005236    0.00035398
     atom   21 type  4   force =     0.00002553    0.00008477    0.00048493
     atom   22 type  4   force =     0.00002553   -0.00008477    0.00048493
     atom   23 type  4   force =    -0.00002553    0.00008477    0.00048493
     atom   24 type  4   force =    -0.00002553   -0.00008477    0.00048493
     atom   25 type  1   force =     0.00000000    0.00000000   -0.00000689
     atom   26 type  1   force =     0.00000000    0.00000000   -0.00010361
     atom   27 type  1   force =     0.00000000    0.00000000   -0.00010361
     atom   28 type  1   force =    -0.00018462    0.00000000    0.00000894
     atom   29 type  1   force =     0.00018462    0.00000000    0.00000894
     atom   30 type  1   force =     0.00000000    0.00010171   -0.00023489
     atom   31 type  1   force =     0.00000000   -0.00010171   -0.00023489
     atom   32 type  1   force =     0.00000000    0.00000000   -0.00012534
     atom   33 type  3   force =    -0.00004228   -0.00000722   -0.00013847
     atom   34 type  3   force =    -0.00004228    0.00000722   -0.00013847
     atom   35 type  3   force =     0.00004228    0.00000722   -0.00013847
     atom   36 type  3   force =     0.00004228   -0.00000722   -0.00013847
     atom   37 type  3   force =     0.00003936    0.00001664   -0.00021178
     atom   38 type  3   force =     0.00003936   -0.00001664   -0.00021178
     atom   39 type  3   force =    -0.00003936    0.00001664   -0.00021178
     atom   40 type  3   force =    -0.00003936   -0.00001664   -0.00021178
     atom   41 type  4   force =    -0.00016508    0.00000000   -0.00018140
     atom   42 type  4   force =     0.00016508    0.00000000   -0.00018140
     atom   43 type  4   force =     0.00000000   -0.00000220    0.00014718
     atom   44 type  4   force =     0.00000000    0.00000220    0.00014718
     atom   45 type  4   force =     0.00006050    0.00000000   -0.00012193
     atom   46 type  4   force =    -0.00006050    0.00000000   -0.00012193
     atom   47 type  4   force =    -0.00002572   -0.00000121   -0.00004691
     atom   48 type  4   force =     0.00002572   -0.00000121   -0.00004691
     atom   49 type  4   force =     0.00002572    0.00000121   -0.00004691
     atom   50 type  4   force =    -0.00002572    0.00000121   -0.00004691
     atom   51 type  4   force =     0.00000000   -0.00002560    0.00008447
     atom   52 type  4   force =     0.00000000    0.00002560    0.00008447
     atom   53 type  4   force =     0.00008964    0.00001119    0.00024727
     atom   54 type  4   force =    -0.00008964   -0.00001119    0.00024727
     atom   55 type  4   force =     0.00008964   -0.00001119    0.00024727
     atom   56 type  4   force =    -0.00008964    0.00001119    0.00024727
     atom   57 type  2   force =     0.00000000    0.00000000   -0.00026866
     atom   58 type  5   force =     0.00032155    0.00000000   -0.00058833
     atom   59 type  5   force =    -0.00032155    0.00000000   -0.00058833
     atom   60 type  5   force =     0.00000000    0.00000000   -0.00010719
[...]
     atom  210 type  4   force =    -0.00018920    0.00000000    0.00668220
     atom  211 type  3   force =     0.00022602    0.00004141   -0.00305876
     atom  212 type  3   force =     0.00022602   -0.00004141   -0.00305876
     atom  213 type  3   force =    -0.00022602   -0.00004141   -0.00305876
     atom  214 type  3   force =    -0.00022602    0.00004141   -0.00305876
     atom  215 type  3   force =     0.00007572   -0.00022933   -0.00326884
     atom  216 type  3   force =    -0.00007572    0.00022933   -0.00326884
     atom  217 type  3   force =     0.00007572    0.00022933   -0.00326884
     atom  218 type  3   force =    -0.00007572   -0.00022933   -0.00326884
     atom  219 type  4   force =    -0.00008548    0.00112872    0.00629054
     atom  220 type  4   force =     0.00008548    0.00112872    0.00629054
     atom  221 type  4   force =    -0.00008548   -0.00112872    0.00629054
     atom  222 type  4   force =     0.00008548   -0.00112872    0.00629054
     atom  223 type  4   force =    -0.00033602    0.00000000    0.00557053
     atom  224 type  4   force =     0.00033602    0.00000000    0.00557053

     Total force =     0.459108     Total SCF correction =     0.000347

     Computing stress (Cartesian axis) and pressure

     negative rho (up, down):  6.309E-01 0.000E+00
          total   stress  (Ry/bohr**3)                   (kbar)     P=       -9.39
  -0.00005217   0.00000000   0.00000000           -7.67        0.00        0.00
   0.00000000  -0.00004940   0.00000000            0.00       -7.27        0.00
   0.00000000   0.00000000  -0.00008996            0.00        0.00      -13.23

     General routines

     Parallel routines

   This run was terminated on:  23:11:52  18May2021

   JOB DONE.
[1621393912.620368] [holy7c04312:265171:0]          mpool.c:43   UCX  WARN  object 0x35f7bc0 was not returned to mpool ucp_requests
[1621393912.627211] [holy7c04105:18142:0]          mpool.c:43   UCX  WARN  object 0x2a8a400 was not returned to mpool ucp_requests
[1621393912.632566] [holy7c04105:18140:0]          mpool.c:43   UCX  WARN  object 0x3d65f80 was not returned to mpool ucp_requests
[1621393912.632578] [holy7c04105:18140:0]          mpool.c:43   UCX  WARN  object 0x3d6f0c0 was not returned to mpool ucp_requests
[1621393912.629564] [holy7c04105:18132:0]          mpool.c:43   UCX  WARN  object 0x4ef8c80 was not returned to mpool ucp_requests
[1621393912.638445] [holy7c04309:183375:0]          mpool.c:43   UCX  WARN  object 0x4679b80 was not returned to mpool ucp_requests
[1621393912.645848] [holy7c08311:210137:0]          mpool.c:43   UCX  WARN  object 0x45ea180 was not returned to mpool ucp_requests
[1621393912.625591] [holy7c06401:111404:0]          mpool.c:43   UCX  WARN  object 0x3734d80 was not returned to mpool ucp_requests
[1621393912.648178] [holy7c04105:18134:0]          mpool.c:43   UCX  WARN  object 0x4435c80 was not returned to mpool ucp_requests
[1621393912.620295] [holy7c04312:265161:0]          mpool.c:43   UCX  WARN  object 0x3716480 was not returned to mpool ucp_requests
[1621393912.621605] [holy7c04312:265163:0]          mpool.c:43   UCX  WARN  object 0x622ff40 was not returned to mpool ucp_requests
[1621393912.623007] [holy7c04312:265169:0]          mpool.c:43   UCX  WARN  object 0x36f2ec0 was not returned to mpool ucp_requests
[1621393912.622666] [holy7c04312:265162:0]          mpool.c:43   UCX  WARN  object 0x362c2c0 was not returned to mpool ucp_requests
[1621393912.624619] [holy7c04312:265170:0]          mpool.c:43   UCX  WARN  object 0x2ece4c0 was not returned to mpool ucp_requests
[1621393912.628809] [holy7c04312:265168:0]          mpool.c:43   UCX  WARN  object 0x336aa80 was not returned to mpool ucp_requests
[1621393912.623792] [holy7c04312:265160:0]          mpool.c:43   UCX  WARN  object 0x2ef3440 was not returned to mpool ucp_requests
[1621393912.645806] [holy7c04105:18139:0]          mpool.c:43   UCX  WARN  object 0x318aa40 was not returned to mpool ucp_requests
[1621393912.645829] [holy7c04105:18139:0]          mpool.c:43   UCX  WARN  object 0x3190380 was not returned to mpool ucp_requests
[1621393912.640120] [holy7c04309:183364:0]          mpool.c:43   UCX  WARN  object 0x4287540 was not returned to mpool ucp_requests
[1621393912.644375] [holy7c04309:183365:0]          mpool.c:43   UCX  WARN  object 0x42da200 was not returned to mpool ucp_requests
[1621393912.644404] [holy7c04309:183365:0]          mpool.c:43   UCX  WARN  object 0x42da580 was not returned to mpool ucp_requests
[1621393912.649963] [holy7c04309:183373:0]          mpool.c:43   UCX  WARN  object 0x482f840 was not returned to mpool ucp_requests
[1621393912.649992] [holy7c04309:183373:0]          mpool.c:43   UCX  WARN  object 0x4836bc0 was not returned to mpool ucp_requests
[1621393912.652147] [holy7c04309:183367:0]          mpool.c:43   UCX  WARN  object 0x29b2d80 was not returned to mpool ucp_requests
[1621393912.645569] [holy7c04309:183372:0]          mpool.c:43   UCX  WARN  object 0x3715a00 was not returned to mpool ucp_requests
[1621393912.647585] [holy7c04309:183366:0]          mpool.c:43   UCX  WARN  object 0x37a2540 was not returned to mpool ucp_requests
[1621393912.651541] [holy7c04309:183374:0]          mpool.c:43   UCX  WARN  object 0x39ef440 was not returned to mpool ucp_requests
[1621393912.650936] [holy7c04105:18133:0]          mpool.c:43   UCX  WARN  object 0x3358ec0 was not returned to mpool ucp_requests
[1621393912.626895] [holy7c06401:111398:0]          mpool.c:43   UCX  WARN  object 0x2b8e600 was not returned to mpool ucp_requests
[1621393912.623555] [holy7c06401:111405:0]          mpool.c:43   UCX  WARN  object 0x5ed66c0 was not returned to mpool ucp_requests
[1621393912.633641] [holy7c06401:111396:0]          mpool.c:43   UCX  WARN  object 0x528af40 was not returned to mpool ucp_requests
[1621393912.629960] [holy7c06401:111399:0]          mpool.c:43   UCX  WARN  object 0x5a7a040 was not returned to mpool ucp_requests
[1621393912.630704] [holy7c06401:111397:0]          mpool.c:43   UCX  WARN  object 0x38d9c80 was not returned to mpool ucp_requests
[1621393912.657409] [holy7c04105:18141:0]          mpool.c:43   UCX  WARN  object 0x2ac2540 was not returned to mpool ucp_requests
[1621393912.657431] [holy7c04105:18141:0]          mpool.c:43   UCX  WARN  object 0x2ac3500 was not returned to mpool ucp_requests
[1621393912.654676] [holy7c08311:210138:0]          mpool.c:43   UCX  WARN  object 0x3131180 was not returned to mpool ucp_requests