     Program PWSCF v.6.5 starts on 17May2021 at 20:46:49

     R & G space division:  proc/nbgrp/npool/nimage =      80
     Reading input from YBCO_CuO_cleave_1.0_sep.pwi
Warning: card &IONS ignored
Warning: card     ION_DYNAMICS = 'BFGS' ignored
Warning: card / ignored
Warning: card &CELL ignored
Warning: card     CELL_DYNAMICS = 'BFGS' ignored
Warning: card     PRESS_CONV_THR = 5 ignored
Warning: card / ignored

     Current dimensions of program PWSCF are:
     Max number of different atomic species (ntypx) = 10
     Max number of k-points (npk) =  40000
     Max angular momentum in pseudopotentials (lmaxx) =  3
     Message from routine volume:
     axis vectors are left-handed

     Message from routine setup:
     using ibrav=0 with symmetry is DISCOURAGED, use correct ibrav instead

     bravais-lattice index     =            0
     lattice parameter (alat)  =      20.5021  a.u.
     unit-cell volume          =   35329.4303 (a.u.)^3
     number of atoms/cell      =          224
     number of atomic types    =            5
     number of electrons       =      1830.00
     number of Kohn-Sham states=         1098
     kinetic-energy cutoff     =      60.0000  Ry
     charge density cutoff     =     720.0000  Ry
     convergence threshold     =      1.0E-08
     mixing beta               =       0.5000
     number of iterations used =           10  local-TF  mixing
     Exchange-correlation= SLA PW PBE PBE
                           (   1   4   3   4   0   0   0)

     celldm(1)=  20.502120  celldm(2)=   0.000000  celldm(3)=   0.000000
     celldm(4)=   0.000000  celldm(5)=   0.000000  celldm(6)=   0.000000

     crystal axes: (cart. coord. in units of alat)
               a(1) = (  -0.716599   0.697485   0.000000 )
               a(2) = (   0.716599   0.697485   0.000000 )
               a(3) = (   0.000000   0.000000   4.101087 )

     reciprocal axes: (cart. coord. in units 2 pi/alat)
               b(1) = ( -0.697740  0.716861  0.000000 )
               b(2) = (  0.697740  0.716861  0.000000 )
               b(3) = (  0.000000  0.000000  0.243838 )

     PseudoPot. # 1 for Ba read from file:
     ./pseudo/Ba.pbe-nsp-van.UPF
     MD5 check sum: 2b9c31dd849566dd297d80989662b7a0
     Pseudo is Ultrasoft + core correction, Zval = 10.0
     Generated by new atomic code, or converted to UPF format
     Using radial grid of  907 points,  6 beta functions with:
                l(1) =   0
                l(2) =   0
                l(3) =   1
                l(4) =   1
                l(5) =   2
                l(6) =   2
     Q(r) pseudized with  6 coefficients,  rinner =    1.200   1.200   1.200
                                                       1.200   1.200

     PseudoPot. # 2 for Ca read from file:
     ./pseudo/Ca.pbe-nsp-van.UPF
     MD5 check sum: 6471098428ff4fa451746d08035ff179
     Pseudo is Ultrasoft + core correction, Zval = 10.0
     Generated by new atomic code, or converted to UPF format
     Using radial grid of  845 points,  6 beta functions with:
                l(1) =   0
                l(2) =   0
                l(3) =   1
                l(4) =   1
                l(5) =   2
                l(6) =   2
     Q(r) pseudized with  6 coefficients,  rinner =    1.200   1.200   1.200
                                                       1.200   1.200

     PseudoPot. # 3 for Cu read from file:
     ./pseudo/Cu.pbe-n-van_ak.UPF
     MD5 check sum: 34e3282627ffb533726feb647e090d62
     Pseudo is Ultrasoft + core correction, Zval = 11.0
     Generated by new atomic code, or converted to UPF format
     Using radial grid of  867 points,  6 beta functions with:
                l(1) =   0
                l(2) =   0
                l(3) =   1
                l(4) =   1
                l(5) =   2
                l(6) =   2
     Q(r) pseudized with  8 coefficients,  rinner =    1.400   1.400   1.400
                                                       1.400   1.400

     PseudoPot. # 4 for O  read from file:
     ./pseudo/O.pbe-van_ak.UPF
     MD5 check sum: 783ce7fe4c79b6a4916957118fed0856
     Pseudo is Ultrasoft, Zval =  6.0
     Generated by new atomic code, or converted to UPF format
     Using radial grid of  737 points,  4 beta functions with:
                l(1) =   0
                l(2) =   0
                l(3) =   1
                l(4) =   1
     Q(r) pseudized with  8 coefficients,  rinner =    0.800   0.800   0.800

     PseudoPot. # 5 for Y  read from file:
     ./pseudo/Y.pbe-nsp-van.UPF
     MD5 check sum: 4412fed3ab108fed87a1b7d6a69a4a38
     Pseudo is Ultrasoft + core correction, Zval = 11.0
     Generated by new atomic code, or converted to UPF format
     Using radial grid of  885 points,  6 beta functions with:
                l(1) =   0
                l(2) =   0
                l(3) =   1
                l(4) =   1
                l(5) =   2
                l(6) =   2
     Q(r) pseudized with  6 coefficients,  rinner =    1.200   1.200   1.200
                                                       1.200   1.200

     atomic species   valence    mass     pseudopotential
        Ba            10.00   137.32700     Ba( 1.00)
        Ca            10.00    40.07800     Ca( 1.00)
        Cu            11.00    63.54600     Cu( 1.00)
        O              6.00    15.99900     O ( 1.00)
        Y             11.00    88.90584     Y ( 1.00)

      4 Sym. Ops. (no inversion) found ( 3 have fractional translation)

   Cartesian axes

     site n.     atom                  positions (alat units)
         1           O   tau(   1) = (   0.3545921   0.8718562  -0.0077406  )
         2           O   tau(   2) = (   0.0037072   0.8718562  -0.0077406  )
         3           Cu  tau(   3) = (  -0.0002581   0.0006065   0.0080789  )
         4           Cu  tau(   4) = (  -0.0002581   0.3481364   0.0080789  )
         5           Cu  tau(   5) = (   0.3585574   0.3481364   0.0080789  )
         6           Cu  tau(   6) = (  -0.3580421   0.6980913   0.0080789  )
         7           Cu  tau(   7) = (   0.3577988   0.6971373   0.0086255  )
         8           Cu  tau(   8) = (   0.0005005   1.0465760   0.0086255  )
         9           Cu  tau(   9) = (  -0.3588016   0.3490903   0.0086255  )
        10           Cu  tau(  10) = (   0.0005005   0.6971373   0.0086255  )
        11           O   tau(  11) = (  -0.0001733   0.5225410  -0.0089757  )
        12           O   tau(  12) = (   0.3584726   0.5225410  -0.0089757  )
        13           O   tau(  13) = (  -0.0001733   1.2211724  -0.0089757  )
        14           O   tau(  14) = (  -0.3581278   0.5236867  -0.0089757  )
        15           O   tau(  15) = (  -0.3544557   0.8718562  -0.0105593  )
        16           O   tau(  16) = (  -0.0038445   0.1743714  -0.0105593  )
        17           O   tau(  17) = (   0.3588818   0.3486599   0.1817056  )
        18           O   tau(  18) = (  -0.0005825   0.3486599   0.1817056  )
        19           O   tau(  19) = (  -0.0005825   0.0000830   0.1817056  )
        20           O   tau(  20) = (  -0.3577167   0.6975677   0.1817056  )
        21           O   tau(  21) = (   0.3584283   0.6967843   0.1825784  )
        22           O   tau(  22) = (  -0.3581712   0.3494443   0.1825784  )
        23           O   tau(  23) = (  -0.0001290   0.6967843   0.1825784  )
        24           O   tau(  24) = (  -0.0001290   1.0469291   0.1825784  )
        25           Ba  tau(  25) = (   0.1791506   0.8718562   0.1908537  )
        26           Ba  tau(  26) = (   0.5374498   0.5231143   0.1919901  )
        27           Ba  tau(  27) = (  -0.1791506   0.5231143   0.1919901  )
        28           Ba  tau(  28) = (  -0.1793773   0.8718562   0.1931958  )
        29           Ba  tau(  29) = (  -0.1789238   0.1743714   0.1931958  )
        30           Ba  tau(  30) = (   0.1791506   0.5222101   0.1929368  )
        31           Ba  tau(  31) = (  -0.5374498   0.5240176   0.1929368  )
        32           Ba  tau(  32) = (   0.1791506   0.1743714   0.1992469  )
        33           Cu  tau(  33) = (  -0.3583426   0.3488452   0.3777458  )
        34           Cu  tau(  34) = (   0.3582559   0.6973834   0.3777458  )
        35           Cu  tau(  35) = (   0.0000433   0.6973834   0.3777458  )
        36           Cu  tau(  36) = (   0.0000433   1.0463299   0.3777458  )
        37           Cu  tau(  37) = (  -0.3586541   0.6975060   0.3775126  )
        38           Cu  tau(  38) = (   0.3579444   0.3487217   0.3775126  )
        39           Cu  tau(  39) = (   0.0003549   0.0000212   0.3775126  )
        40           Cu  tau(  40) = (   0.0003549   0.3487217   0.3775126  )
        41           O   tau(  41) = (  -0.0047976   0.1743714   0.3996864  )
        42           O   tau(  42) = (  -0.3535026   0.8718562   0.3996864  )
        43           O   tau(  43) = (  -0.5374498   0.6924605   0.3956991  )
        44           O   tau(  44) = (   0.1791506   0.3537672   0.3956991  )
        45           O   tau(  45) = (   0.3586385   0.8718562   0.4046840  )
        46           O   tau(  46) = (  -0.0003392   0.8718562   0.4046840  )
        47           O   tau(  47) = (  -0.0004857   0.5230571   0.4066611  )
        48           O   tau(  48) = (   0.3587850   0.5230571   0.4066611  )
        49           O   tau(  49) = (  -0.3578135   0.5231714   0.4066611  )
        50           O   tau(  50) = (  -0.0004857   1.2206562   0.4066611  )
        51           O   tau(  51) = (   0.1791506   1.0461604   0.4028931  )
        52           O   tau(  52) = (   0.1791506   0.6975521   0.4028931  )
        53           O   tau(  53) = (  -0.1792261   0.6967170   0.4025963  )
        54           O   tau(  54) = (  -0.1790731   0.3495106   0.4025963  )
        55           O   tau(  55) = (  -0.1792261   1.0469964   0.4025963  )
        56           O   tau(  56) = (   0.5375263   0.6967170   0.4025963  )
        57           Ca  tau(  57) = (   0.1791506   0.1743714   0.5358617  )
        58           Y   tau(  58) = (  -0.1811525   0.8718562   0.5373908  )
        59           Y   tau(  59) = (  -0.1771467   0.1743714   0.5373908  )
        60           Y   tau(  60) = (   0.1791506   0.8718562   0.5379568  )
[...]
       210           O   tau( 210) = (   0.0037081   0.8718562   2.2562794  )
       211           Cu  tau( 211) = (  -0.0002516   0.0006074   2.2404756  )
       212           Cu  tau( 212) = (  -0.0002516   0.3481345   2.2404756  )
       213           Cu  tau( 213) = (   0.3585509   0.3481345   2.2404756  )
       214           Cu  tau( 214) = (  -0.3580476   0.6980931   2.2404756  )
       215           Cu  tau( 215) = (   0.3577960   0.6971373   2.2399290  )
       216           Cu  tau( 216) = (   0.0005033   1.0465760   2.2399290  )
       217           Cu  tau( 217) = (  -0.3588035   0.3490903   2.2399290  )
       218           Cu  tau( 218) = (   0.0005033   0.6971373   2.2399290  )
       219           O   tau( 219) = (  -0.0001724   0.5225410   2.2575182  )
       220           O   tau( 220) = (   0.3584716   0.5225410   2.2575182  )
       221           O   tau( 221) = (  -0.0001724   1.2211724   2.2575182  )
[...]
   -22.6338 -22.6258 -22.5879 -22.5797 -22.5764 -22.5685 -22.5684 -22.5605
   -22.4854 -22.4833 -22.4782 -22.4772 -22.4763 -22.4754 -22.4705 -22.4388
   -22.4308 -22.4237 -22.3998 -22.3935 -22.3685 -22.3670 -22.3569 -22.3255
   -22.2639 -22.2548 -22.2423 -22.2132 -22.2074 -22.1902 -22.1275 -21.9741
   -18.6256 -18.5701 -18.5532 -18.5474 -18.5228 -18.4988 -18.4961 -18.4933
   -18.4748 -18.4598 -18.4474 -18.4196 -18.4090 -18.4045 -18.3664 -18.3615
   -18.3562 -18.3490 -18.3295 -18.3255 -18.3202 -18.2983 -18.2929 -18.2752
   -18.2722 -18.2606 -18.2444 -18.2187 -18.1953 -18.1853 -18.1643 -18.1583
   -18.1411 -18.1371 -18.1290 -18.1069 -18.0859 -18.0853 -18.0673 -18.0142
   -18.0099 -17.9570 -16.8431 -16.8160 -16.8101 -16.7807 -16.7517 -16.7487
   -15.1842 -15.1452 -14.9966 -14.9575 -14.9256 -14.8914 -14.7943 -14.7617
   -14.6638 -14.6524 -14.6177 -14.6173 -14.6168 -14.5895 -14.5766 -14.5529
   -14.5092 -14.5011 -14.4776 -14.4695 -14.4668 -14.4580 -14.4370 -14.4352
   -14.4260 -14.4250 -14.4098 -14.4002 -14.3896 -14.3757 -14.3648 -14.3587
   -14.3403 -14.3168 -14.3063 -14.2740 -14.2659 -14.2644 -14.2628 -14.2582
   -14.2515 -14.2482 -14.2338 -14.2327 -14.2319 -14.2283 -14.2135 -14.2134
   -14.1868 -14.1840 -14.1498 -14.1470 -14.1319 -14.1281 -14.1061 -14.0996
   -14.0974 -14.0957 -14.0915 -14.0888 -14.0836 -14.0731 -14.0691 -14.0621
   -14.0593 -14.0488 -14.0436 -14.0265 -14.0228 -14.0159 -13.9886 -13.9878
   -13.9859 -13.9783 -13.9675 -13.9617 -13.9511 -13.9458 -13.9445 -13.9311
   -13.9230 -13.9170 -13.9111 -13.9051 -13.8579 -13.8441 -13.8428 -13.7974
   -13.6971 -13.6923 -13.6875 -13.6819 -13.6761 -13.6753 -13.6649 -13.6648
   -13.6256 -13.6224 -13.6151 -13.6116 -13.6032 -13.5897 -13.5830 -13.5816
   -13.5780 -13.5713 -13.5482 -13.4704 -13.4410 -13.4015 -13.3867 -13.3721
   -12.6512 -12.6327 -12.5659 -12.5650 -12.5058 -12.5055 -12.4713 -12.3923
    -8.4134  -8.4060  -8.1873  -8.1335  -8.1278  -8.1257  -8.1242  -8.1202
    -8.1164  -7.9732  -7.9659  -7.9491  -7.9294  -7.9117  -7.9032  -7.8886
    -7.8870  -7.8834  -7.8785  -7.8761  -7.8674  -7.8656  -7.8570  -7.8348
    -7.8310  -7.8262  -7.8224  -7.8200  -7.8127  -7.8121  -7.8119  -7.8091
    -7.8044  -7.8015  -7.8002  -7.7951  -7.7925  -7.7877  -7.7872  -7.7860
    -7.7824  -7.7779  -7.7474  -7.7421  -7.7413  -7.7227  -7.7219  -7.7114
    -7.7089  -7.7078  -7.6701  -7.6439  -7.6395  -7.6373  -7.6316  -7.6228
    -7.6158  -7.6030  -7.5961  -7.5954  -7.5914  -7.5900  -7.5630  -7.5597
    -7.5554  -7.5524  -7.5470  -7.5110  -7.5033  -7.4869  -7.4567  -7.4558
    -7.4490  -7.4475  -7.4403  -7.4383  -7.4306  -7.4242  -7.4224  -7.4209
    -7.4014  -7.3765  -7.3496  -7.3363  -7.3350  -7.3001  -7.2946  -7.2504
    -7.2027  -7.1861  -7.1651  -7.1456  -7.1181  -7.0897  -6.9739  -6.9702
    -3.8377  -3.7929  -3.4193  -3.3724  -3.3661  -3.3406  -3.3256  -3.2817
    -3.2720  -3.2463  -2.9975  -2.9756  -2.9477  -2.9278  -2.9057  -2.8730
    -2.7441  -2.7337  -2.7047  -2.6944  -2.6607  -2.6416  -2.6391  -2.6040
    -2.5884  -2.5854  -2.5786  -2.5651  -2.5301  -2.4521  -2.4461  -2.4202
    -2.3797  -2.3532  -2.2434  -2.2404  -2.2008  -2.1751  -2.1731  -2.1674
    -2.1620  -2.1603  -2.1528  -2.1393  -2.1385  -2.1228  -2.0803  -2.0594
    -2.0515  -2.0394  -2.0104  -2.0026  -1.9581  -1.9520  -1.9505  -1.9466
    -1.9433  -1.9336  -1.8998  -1.8967  -1.8942  -1.8930  -1.8895  -1.8749
    -1.8669  -1.8668  -1.8645  -1.8591  -1.8437  -1.8318  -1.8276  -1.8170
    -1.8083  -1.7967  -1.7908  -1.7890  -1.7870  -1.7805  -1.7781  -1.7725
    -1.7501  -1.7451  -1.7333  -1.7249  -1.7109  -1.7058  -1.7019  -1.7011
    -1.7008  -1.6969  -1.6927  -1.6896  -1.6846  -1.6823  -1.6725  -1.6640
    -1.6633  -1.6470  -1.6410  -1.6331  -1.6295  -1.6253  -1.6103  -1.5998
    -1.5991  -1.5818  -1.5786  -1.5728  -1.5679  -1.5488  -1.5422  -1.5409
    -1.5393  -1.5222  -1.5179  -1.4953  -1.4924  -1.4836  -1.4773  -1.4696
    -1.4653  -1.4607  -1.4599  -1.4361  -1.4236  -1.4213  -1.4049  -1.3967
    -1.3827  -1.3781  -1.3675  -1.3117  -1.1548  -1.1178  -1.1045  -1.0921
    -1.0764  -1.0454  -0.9833  -0.9041  -0.8848  -0.8643  -0.8625  -0.8490
    -0.8106  -0.8074  -0.7951  -0.7917  -0.7707  -0.7704  -0.7580  -0.7571
    -0.7486  -0.7462  -0.7452  -0.7363  -0.7260  -0.7257  -0.7165  -0.7106
    -0.6856  -0.6674  -0.6625  -0.6611  -0.6470  -0.6435  -0.6402  -0.6386
[...]
     7.1920   7.2079   7.2363   7.2439   7.2969   7.3986   7.4110   7.4312
     7.4705   7.5047   7.5701   7.6115   7.9590   7.9952   8.0223   8.0367
     8.0389   8.0449   8.0473   8.0536   8.0559   8.0618   8.0701   8.0774
     8.0897   8.1086   8.1132   8.1234   8.1901   8.2024   8.2310   8.2429
     8.2538   8.2703   8.3590   8.4108   8.4143   8.4418   8.4568   8.4643
     8.4880   8.5028   8.5092   8.5172   8.5226   8.5270   8.5363   8.5398
     8.5477   8.5593   8.5668   8.6739   8.6833   8.6878   8.7550   8.8134
     8.8425   8.8553   8.8725   8.8795   8.8872   8.9038   8.9374   8.9385
     8.9889   9.0278   9.0328   9.0329   9.0882   9.1014   9.1267   9.1355
     9.1388   9.1652   9.1962   9.2126   9.2578   9.2695   9.2802   9.2948
     9.3099   9.3144   9.3284   9.3286   9.3315   9.3425   9.3610   9.3797
     9.3881   9.4011   9.4151   9.4237   9.4400   9.4649   9.4662   9.4822
     9.4826   9.5098   9.5111   9.5187   9.5281   9.5495   9.5572   9.5646
     9.5693   9.6023   9.6026   9.6230   9.6435   9.6474   9.6475   9.6531
     9.6799   9.6845

     the Fermi energy is     3.0320 ev

!    total energy              =  -14924.20488390 Ry
     Harris-Foulkes estimate   =  -14924.20488388 Ry
     estimated scf accuracy    <          7.7E-09 Ry

     The total energy is the sum of the following terms:

     one-electron contribution = -235101.17977890 Ry
     hartree contribution      =  118793.21223492 Ry
     xc contribution           =   -5117.15040614 Ry
     ewald contribution        =  106500.97431894 Ry
     smearing contrib. (-TS)   =      -0.06125272 Ry

     convergence has been achieved in  39 iterations

     negative rho (up, down):  6.351E-01 0.000E+00

     Forces acting on atoms (cartesian axes, Ry/au):

     atom    1 type  4   force =     0.00011256    0.00000000    0.00000728
     atom    2 type  4   force =    -0.00011256    0.00000000    0.00000728
     atom    3 type  3   force =     0.00008528   -0.00006062   -0.00006979
     atom    4 type  3   force =     0.00008528    0.00006062   -0.00006979
     atom    5 type  3   force =    -0.00008528    0.00006062   -0.00006979
     atom    6 type  3   force =    -0.00008528   -0.00006062   -0.00006979
     atom    7 type  3   force =    -0.00001176   -0.00000703   -0.00025581
     atom    8 type  3   force =     0.00001176    0.00000703   -0.00025581
     atom    9 type  3   force =    -0.00001176    0.00000703   -0.00025581
     atom   10 type  3   force =     0.00001176   -0.00000703   -0.00025581
     atom   11 type  4   force =    -0.00010689    0.00005489   -0.00004883
     atom   12 type  4   force =     0.00010689    0.00005489   -0.00004883
     atom   13 type  4   force =    -0.00010689   -0.00005489   -0.00004883
     atom   14 type  4   force =     0.00010689   -0.00005489   -0.00004883
     atom   15 type  4   force =    -0.00016605    0.00000000   -0.00006523
     atom   16 type  4   force =     0.00016605    0.00000000   -0.00006523
     atom   17 type  4   force =     0.00002277    0.00005152    0.00044375
     atom   18 type  4   force =    -0.00002277    0.00005152    0.00044375
     atom   19 type  4   force =    -0.00002277   -0.00005152    0.00044375
     atom   20 type  4   force =     0.00002277   -0.00005152    0.00044375
     atom   21 type  4   force =     0.00003201    0.00006668    0.00061154
     atom   22 type  4   force =     0.00003201   -0.00006668    0.00061154
     atom   23 type  4   force =    -0.00003201    0.00006668    0.00061154
     atom   24 type  4   force =    -0.00003201   -0.00006668    0.00061154
     atom   25 type  1   force =     0.00000000    0.00000000   -0.00010434
     atom   26 type  1   force =     0.00000000    0.00000000   -0.00021676
     atom   27 type  1   force =     0.00000000    0.00000000   -0.00021676
     atom   28 type  1   force =    -0.00016683    0.00000000   -0.00009698
     atom   29 type  1   force =     0.00016683    0.00000000   -0.00009698
     atom   30 type  1   force =     0.00000000    0.00011650   -0.00034042
     atom   31 type  1   force =     0.00000000   -0.00011650   -0.00034042
     atom   32 type  1   force =     0.00000000    0.00000000   -0.00023830
     atom   33 type  3   force =    -0.00003814   -0.00000651   -0.00042242
     atom   34 type  3   force =    -0.00003814    0.00000651   -0.00042242
     atom   35 type  3   force =     0.00003814    0.00000651   -0.00042242
     atom   36 type  3   force =     0.00003814   -0.00000651   -0.00042242
     atom   37 type  3   force =     0.00001088   -0.00000619   -0.00046086
     atom   38 type  3   force =     0.00001088    0.00000619   -0.00046086
     atom   39 type  3   force =    -0.00001088   -0.00000619   -0.00046086
     atom   40 type  3   force =    -0.00001088    0.00000619   -0.00046086
     atom   41 type  4   force =    -0.00031322    0.00000000    0.00074882
     atom   42 type  4   force =     0.00031322    0.00000000    0.00074882
     atom   43 type  4   force =     0.00000000   -0.00007240    0.00086088
     atom   44 type  4   force =     0.00000000    0.00007240    0.00086088
     atom   45 type  4   force =     0.00006655    0.00000000    0.00089425
     atom   46 type  4   force =    -0.00006655    0.00000000    0.00089425
     atom   47 type  4   force =    -0.00002054   -0.00006439    0.00096199
     atom   48 type  4   force =     0.00002054   -0.00006439    0.00096199
     atom   49 type  4   force =     0.00002054    0.00006439    0.00096199
     atom   50 type  4   force =    -0.00002054    0.00006439    0.00096199
     atom   51 type  4   force =     0.00000000   -0.00002992    0.00086556
     atom   52 type  4   force =     0.00000000    0.00002992    0.00086556
     atom   53 type  4   force =     0.00005014    0.00002793    0.00103861
     atom   54 type  4   force =    -0.00005014   -0.00002793    0.00103861
     atom   55 type  4   force =     0.00005014   -0.00002793    0.00103861
     atom   56 type  4   force =    -0.00005014    0.00002793    0.00103861
     atom   57 type  2   force =     0.00000000    0.00000000   -0.00200092
     atom   58 type  5   force =     0.00044562    0.00000000   -0.00351603
     atom   59 type  5   force =    -0.00044562    0.00000000   -0.00351603
     atom   60 type  5   force =     0.00000000    0.00000000   -0.00290203
[...]
     atom  210 type  4   force =    -0.00009397    0.00000000   -0.00024298
     atom  211 type  3   force =     0.00008515   -0.00006319    0.00058222
     atom  212 type  3   force =     0.00008515    0.00006319    0.00058222
     atom  213 type  3   force =    -0.00008515    0.00006319    0.00058222
     atom  214 type  3   force =    -0.00008515   -0.00006319    0.00058222
     atom  215 type  3   force =    -0.00000853   -0.00001428    0.00077587
     atom  216 type  3   force =     0.00000853    0.00001428    0.00077587
     atom  217 type  3   force =    -0.00000853    0.00001428    0.00077587
     atom  218 type  3   force =     0.00000853   -0.00001428    0.00077587
     atom  219 type  4   force =    -0.00010381    0.00014755   -0.00022438
     atom  220 type  4   force =     0.00010381    0.00014755   -0.00022438
     atom  221 type  4   force =    -0.00010381   -0.00014755   -0.00022438
     atom  222 type  4   force =     0.00010381   -0.00014755   -0.00022438
     atom  223 type  4   force =    -0.00014889    0.00000000   -0.00019620
     atom  224 type  4   force =     0.00014889    0.00000000   -0.00019620

     Total force =     0.119124     Total SCF correction =     0.000436

     Computing stress (Cartesian axis) and pressure

     negative rho (up, down):  6.351E-01 0.000E+00
          total   stress  (Ry/bohr**3)                   (kbar)     P=       -7.18
  -0.00000402   0.00000000   0.00000000           -0.59        0.00        0.00
  -0.00000000  -0.00007606   0.00000000           -0.00      -11.19        0.00
   0.00000000   0.00000000  -0.00006629            0.00        0.00       -9.75

     General routines

     Parallel routines

   This run was terminated on:  22: 5: 3  17May2021

   JOB DONE.
[1621303503.469654] [holy7c12107:273826:0]          mpool.c:43   UCX  WARN  object 0x676bfc0 was not returned to mpool ucp_requests
[1621303503.482926] [holy7c12207:9021 :0]          mpool.c:43   UCX  WARN  object 0x29efd00 was not returned to mpool ucp_requests
[1621303503.486287] [holy7c12211:84570:0]          mpool.c:43   UCX  WARN  object 0x3d58c00 was not returned to mpool ucp_requests
[1621303503.483621] [holy7c10112:34958:0]          mpool.c:43   UCX  WARN  object 0x2ba2e80 was not returned to mpool ucp_requests
[1621303503.489672] [holy7c10112:34964:0]          mpool.c:43   UCX  WARN  object 0x3f04e80 was not returned to mpool ucp_requests
[1621303503.477167] [holy7c12107:273824:0]          mpool.c:43   UCX  WARN  object 0x3d06780 was not returned to mpool ucp_requests
[1621303503.482287] [holy7c12107:273832:0]          mpool.c:43   UCX  WARN  object 0x4165040 was not returned to mpool ucp_requests
[1621303503.477084] [holy7c12107:273825:0]          mpool.c:43   UCX  WARN  object 0x3c45f00 was not returned to mpool ucp_requests
[1621303503.489236] [holy7c12107:273831:0]          mpool.c:43   UCX  WARN  object 0x3e40040 was not returned to mpool ucp_requests
[1621303503.484791] [holy7c12207:9023 :0]          mpool.c:43   UCX  WARN  object 0x6905bc0 was not returned to mpool ucp_requests
[1621303503.495826] [holy7c12207:9031 :0]          mpool.c:43   UCX  WARN  object 0x2e44040 was not returned to mpool ucp_requests
[1621303503.495874] [holy7c12207:9029 :0]          mpool.c:43   UCX  WARN  object 0x4729a40 was not returned to mpool ucp_requests
[1621303503.489813] [holy7c12207:9030 :0]          mpool.c:43   UCX  WARN  object 0x4373f00 was not returned to mpool ucp_requests
[1621303503.489837] [holy7c12207:9030 :0]          mpool.c:43   UCX  WARN  object 0x4378500 was not returned to mpool ucp_requests
[1621303503.491485] [holy7c12207:9024 :0]          mpool.c:43   UCX  WARN  object 0x341df40 was not returned to mpool ucp_requests
[1621303503.493139] [holy7c12107:273823:0]          mpool.c:43   UCX  WARN  object 0x395b000 was not returned to mpool ucp_requests
[1621303503.488359] [holy7c12211:84568:0]          mpool.c:43   UCX  WARN  object 0x3b12100 was not returned to mpool ucp_requests
[1621303503.512014] [holy7c10112:34966:0]          mpool.c:43   UCX  WARN  object 0x3c9cf40 was not returned to mpool ucp_requests
[1621303503.487599] [holy7c12107:273833:0]          mpool.c:43   UCX  WARN  object 0x5093440 was not returned to mpool ucp_requests
[1621303503.494833] [holy7c10112:34965:0]          mpool.c:43   UCX  WARN  object 0x680c3c0 was not returned to mpool ucp_requests
[1621303503.491238] [holy7c12211:84567:0]          mpool.c:43   UCX  WARN  object 0x35d50c0 was not returned to mpool ucp_requests
[1621303503.493277] [holy7c12211:84578:0]          mpool.c:43   UCX  WARN  object 0x409e980 was not returned to mpool ucp_requests
[1621303503.493443] [holy7c12211:84577:0]          mpool.c:43   UCX  WARN  object 0x3cdfe00 was not returned to mpool ucp_requests
[1621303503.494091] [holy7c10112:34957:0]          mpool.c:43   UCX  WARN  object 0x31f6bc0 was not returned to mpool ucp_requests
[1621303503.493657] [holy7c10112:34959:0]          mpool.c:43   UCX  WARN  object 0x33aa940 was not returned to mpool ucp_requests
[1621303503.493640] [holy7c12211:84576:0]          mpool.c:43   UCX  WARN  object 0x2eecc00 was not returned to mpool ucp_requests
[1621303503.493660] [holy7c12211:84576:0]          mpool.c:43   UCX  WARN  object 0x2eecdc0 was not returned to mpool ucp_requests
[1621303503.497030] [holy7c12211:84569:0]          mpool.c:43   UCX  WARN  object 0x3867a00 was not returned to mpool ucp_requests
[1621303503.498411] [holy7c12207:9016 :0]          mpool.c:43   UCX  WARN  object 0x3370b40 was not returned to mpool ucp_requests
[1621303503.500280] [holy7c12211:84575:0]          mpool.c:43   UCX  WARN  object 0x2db11c0 was not returned to mpool ucp_requests
[1621303503.501419] [holy7c12207:9022 :0]          mpool.c:43   UCX  WARN  object 0x36336c0 was not returned to mpool ucp_requests
[1621303503.513620] [holy7c12207:9032 :0]          mpool.c:43   UCX  WARN  object 0x3310f80 was not returned to mpool ucp_requests
[1621303503.509348] [holy7c10112:34967:0]          mpool.c:43   UCX  WARN  object 0x5200980 was not returned to mpool ucp_requests