     Program PWSCF v.6.5 starts on 17May2021 at 22:26:46

     R & G space division:  proc/nbgrp/npool/nimage =      80
     Reading input from YBCO_BaO_cleave_3.0_sep.pwi
Warning: card &IONS ignored
Warning: card     ION_DYNAMICS = 'BFGS' ignored
Warning: card / ignored
Warning: card &CELL ignored
Warning: card     CELL_DYNAMICS = 'BFGS' ignored
Warning: card     PRESS_CONV_THR = 5 ignored
Warning: card / ignored

     Current dimensions of program PWSCF are:
     Max number of different atomic species (ntypx) = 10
     Max number of k-points (npk) =  40000
     Max angular momentum in pseudopotentials (lmaxx) =  3
     Message from routine volume:
     axis vectors are left-handed

     Message from routine setup:
     using ibrav=0 with symmetry is DISCOURAGED, use correct ibrav instead

     bravais-lattice index     =            0
     lattice parameter (alat)  =      20.5021  a.u.
     unit-cell volume          =   36917.4932 (a.u.)^3
     number of atoms/cell      =          224
     number of atomic types    =            5
     number of electrons       =      1830.00
     number of Kohn-Sham states=         1098
     kinetic-energy cutoff     =      60.0000  Ry
     charge density cutoff     =     720.0000  Ry
     convergence threshold     =      1.0E-08
     mixing beta               =       0.5000
     number of iterations used =           10  local-TF  mixing
     Exchange-correlation= SLA PW PBE PBE
                           (   1   4   3   4   0   0   0)

     celldm(1)=  20.502120  celldm(2)=   0.000000  celldm(3)=   0.000000
     celldm(4)=   0.000000  celldm(5)=   0.000000  celldm(6)=   0.000000

     crystal axes: (cart. coord. in units of alat)
               a(1) = (  -0.716599   0.697485   0.000000 )
               a(2) = (   0.716599   0.697485   0.000000 )
               a(3) = (   0.000000   0.000000   4.285432 )

     reciprocal axes: (cart. coord. in units 2 pi/alat)
               b(1) = ( -0.697740  0.716861  0.000000 )
               b(2) = (  0.697740  0.716861  0.000000 )
               b(3) = (  0.000000  0.000000  0.233349 )

     PseudoPot. # 1 for Ba read from file:
     ./pseudo/Ba.pbe-nsp-van.UPF
     MD5 check sum: 2b9c31dd849566dd297d80989662b7a0
     Pseudo is Ultrasoft + core correction, Zval = 10.0
     Generated by new atomic code, or converted to UPF format
     Using radial grid of  907 points,  6 beta functions with:
                l(1) =   0
                l(2) =   0
                l(3) =   1
                l(4) =   1
                l(5) =   2
                l(6) =   2
     Q(r) pseudized with  6 coefficients,  rinner =    1.200   1.200   1.200
                                                       1.200   1.200

     PseudoPot. # 2 for Ca read from file:
     ./pseudo/Ca.pbe-nsp-van.UPF
     MD5 check sum: 6471098428ff4fa451746d08035ff179
     Pseudo is Ultrasoft + core correction, Zval = 10.0
     Generated by new atomic code, or converted to UPF format
     Using radial grid of  845 points,  6 beta functions with:
                l(1) =   0
                l(2) =   0
                l(3) =   1
                l(4) =   1
                l(5) =   2
                l(6) =   2
     Q(r) pseudized with  6 coefficients,  rinner =    1.200   1.200   1.200
                                                       1.200   1.200

     PseudoPot. # 3 for Cu read from file:
     ./pseudo/Cu.pbe-n-van_ak.UPF
     MD5 check sum: 34e3282627ffb533726feb647e090d62
     Pseudo is Ultrasoft + core correction, Zval = 11.0
     Generated by new atomic code, or converted to UPF format
     Using radial grid of  867 points,  6 beta functions with:
                l(1) =   0
                l(2) =   0
                l(3) =   1
                l(4) =   1
                l(5) =   2
                l(6) =   2
     Q(r) pseudized with  8 coefficients,  rinner =    1.400   1.400   1.400
                                                       1.400   1.400

     PseudoPot. # 4 for O  read from file:
     ./pseudo/O.pbe-van_ak.UPF
     MD5 check sum: 783ce7fe4c79b6a4916957118fed0856
     Pseudo is Ultrasoft, Zval =  6.0
     Generated by new atomic code, or converted to UPF format
     Using radial grid of  737 points,  4 beta functions with:
                l(1) =   0
                l(2) =   0
                l(3) =   1
                l(4) =   1
     Q(r) pseudized with  8 coefficients,  rinner =    0.800   0.800   0.800

     PseudoPot. # 5 for Y  read from file:
     ./pseudo/Y.pbe-nsp-van.UPF
     MD5 check sum: 4412fed3ab108fed87a1b7d6a69a4a38
     Pseudo is Ultrasoft + core correction, Zval = 11.0
     Generated by new atomic code, or converted to UPF format
     Using radial grid of  885 points,  6 beta functions with:
                l(1) =   0
                l(2) =   0
                l(3) =   1
                l(4) =   1
                l(5) =   2
                l(6) =   2
     Q(r) pseudized with  6 coefficients,  rinner =    1.200   1.200   1.200
                                                       1.200   1.200

     atomic species   valence    mass     pseudopotential
        Ba            10.00   137.32700     Ba( 1.00)
        Ca            10.00    40.07800     Ca( 1.00)
        Cu            11.00    63.54600     Cu( 1.00)
        O              6.00    15.99900     O ( 1.00)
        Y             11.00    88.90584     Y ( 1.00)

      4 Sym. Ops. (no inversion) found ( 3 have fractional translation)

   Cartesian axes

     site n.     atom                  positions (alat units)
         1           O   tau(   1) = (   0.3545921   0.8718562  -0.0077406  )
         2           O   tau(   2) = (   0.0037072   0.8718562  -0.0077406  )
         3           Cu  tau(   3) = (  -0.0002581   0.0006065   0.0080789  )
         4           Cu  tau(   4) = (  -0.0002581   0.3481364   0.0080789  )
         5           Cu  tau(   5) = (   0.3585574   0.3481364   0.0080789  )
         6           Cu  tau(   6) = (  -0.3580421   0.6980913   0.0080789  )
         7           Cu  tau(   7) = (   0.3577988   0.6971373   0.0086255  )
         8           Cu  tau(   8) = (   0.0005005   1.0465760   0.0086255  )
         9           Cu  tau(   9) = (  -0.3588016   0.3490903   0.0086255  )
        10           Cu  tau(  10) = (   0.0005005   0.6971373   0.0086255  )
        11           O   tau(  11) = (  -0.0001733   0.5225410  -0.0089757  )
        12           O   tau(  12) = (   0.3584726   0.5225410  -0.0089757  )
        13           O   tau(  13) = (  -0.0001733   1.2211724  -0.0089757  )
        14           O   tau(  14) = (  -0.3581278   0.5236867  -0.0089757  )
        15           O   tau(  15) = (  -0.3544557   0.8718562  -0.0105593  )
        16           O   tau(  16) = (  -0.0038445   0.1743714  -0.0105593  )
        17           O   tau(  17) = (   0.3588818   0.3486599   0.1817056  )
        18           O   tau(  18) = (  -0.0005825   0.3486599   0.1817056  )
        19           O   tau(  19) = (  -0.0005825   0.0000830   0.1817056  )
        20           O   tau(  20) = (  -0.3577167   0.6975677   0.1817056  )
        21           O   tau(  21) = (   0.3584283   0.6967843   0.1825784  )
        22           O   tau(  22) = (  -0.3581712   0.3494443   0.1825784  )
        23           O   tau(  23) = (  -0.0001290   0.6967843   0.1825784  )
        24           O   tau(  24) = (  -0.0001290   1.0469291   0.1825784  )
        25           Ba  tau(  25) = (   0.1791506   0.8718562   0.1908537  )
        26           Ba  tau(  26) = (   0.5374498   0.5231143   0.1919901  )
        27           Ba  tau(  27) = (  -0.1791506   0.5231143   0.1919901  )
        28           Ba  tau(  28) = (  -0.1793773   0.8718562   0.1931958  )
        29           Ba  tau(  29) = (  -0.1789238   0.1743714   0.1931958  )
        30           Ba  tau(  30) = (   0.1791506   0.5222101   0.1929368  )
        31           Ba  tau(  31) = (  -0.5374498   0.5240176   0.1929368  )
        32           Ba  tau(  32) = (   0.1791506   0.1743714   0.1992469  )
        33           Cu  tau(  33) = (  -0.3583426   0.3488452   0.3777458  )
        34           Cu  tau(  34) = (   0.3582559   0.6973834   0.3777458  )
        35           Cu  tau(  35) = (   0.0000433   0.6973834   0.3777458  )
        36           Cu  tau(  36) = (   0.0000433   1.0463299   0.3777458  )
        37           Cu  tau(  37) = (  -0.3586541   0.6975060   0.3775126  )
        38           Cu  tau(  38) = (   0.3579444   0.3487217   0.3775126  )
        39           Cu  tau(  39) = (   0.0003549   0.0000212   0.3775126  )
        40           Cu  tau(  40) = (   0.0003549   0.3487217   0.3775126  )
        41           O   tau(  41) = (  -0.0047976   0.1743714   0.3996864  )
        42           O   tau(  42) = (  -0.3535026   0.8718562   0.3996864  )
        43           O   tau(  43) = (  -0.5374498   0.6924605   0.3956991  )
        44           O   tau(  44) = (   0.1791506   0.3537672   0.3956991  )
        45           O   tau(  45) = (   0.3586385   0.8718562   0.4046840  )
        46           O   tau(  46) = (  -0.0003392   0.8718562   0.4046840  )
        47           O   tau(  47) = (  -0.0004857   0.5230571   0.4066611  )
        48           O   tau(  48) = (   0.3587850   0.5230571   0.4066611  )
        49           O   tau(  49) = (  -0.3578135   0.5231714   0.4066611  )
        50           O   tau(  50) = (  -0.0004857   1.2206562   0.4066611  )
        51           O   tau(  51) = (   0.1791506   1.0461604   0.4028931  )
        52           O   tau(  52) = (   0.1791506   0.6975521   0.4028931  )
        53           O   tau(  53) = (  -0.1792261   0.6967170   0.4025963  )
        54           O   tau(  54) = (  -0.1790731   0.3495106   0.4025963  )
        55           O   tau(  55) = (  -0.1792261   1.0469964   0.4025963  )
        56           O   tau(  56) = (   0.5375263   0.6967170   0.4025963  )
        57           Ca  tau(  57) = (   0.1791506   0.1743714   0.5358617  )
        58           Y   tau(  58) = (  -0.1811525   0.8718562   0.5373908  )
        59           Y   tau(  59) = (  -0.1771467   0.1743714   0.5373908  )
        60           Y   tau(  60) = (   0.1791506   0.8718562   0.5379568  )
[...]
       210           O   tau( 210) = (   0.0037081   0.8718562   2.4406239  )
       211           Cu  tau( 211) = (  -0.0002516   0.0006074   2.4248200  )
       212           Cu  tau( 212) = (  -0.0002516   0.3481345   2.4248200  )
       213           Cu  tau( 213) = (   0.3585509   0.3481345   2.4248200  )
       214           Cu  tau( 214) = (  -0.3580476   0.6980931   2.4248200  )
       215           Cu  tau( 215) = (   0.3577960   0.6971373   2.4242735  )
       216           Cu  tau( 216) = (   0.0005033   1.0465760   2.4242735  )
       217           Cu  tau( 217) = (  -0.3588035   0.3490903   2.4242735  )
       218           Cu  tau( 218) = (   0.0005033   0.6971373   2.4242735  )
       219           O   tau( 219) = (  -0.0001724   0.5225410   2.4418627  )
       220           O   tau( 220) = (   0.3584716   0.5225410   2.4418627  )
       221           O   tau( 221) = (  -0.0001724   1.2211724   2.4418627  )
[...]

[...]

          k =-0.4652-0.0000 0.0000 (289778 PWs)   bands (ev):

   -38.2132 -38.1874 -38.1839 -38.1810 -38.1785 -38.1648 -38.1630 -37.9149
   -37.8635 -37.8594 -37.8554 -37.8526 -37.8428 -37.8412 -35.7531 -35.3519
   -24.3914 -24.0344 -24.0259 -23.9430 -23.8969 -23.8633 -23.8221 -23.5600
   -22.8248 -22.7989 -22.7790 -22.7674 -22.7594 -22.7530 -22.7446 -22.7412
   -22.7337 -22.7181 -22.6765 -22.6743 -22.6727 -22.6692 -22.6504 -22.6486
   -22.6433 -22.6369 -22.6298 -22.6218 -22.6038 -22.4989 -22.4683 -22.3886
   -18.7932 -18.7203 -18.7144 -18.6882 -18.6654 -18.6269 -18.5896 -18.5779
   -18.5240 -18.5162 -18.4960 -18.4947 -18.4877 -18.4850 -18.4226 -18.4166
   -18.4134 -18.4016 -18.3888 -18.3527 -18.3282 -18.3276 -18.3200 -18.3081
   -18.3030 -18.2397 -18.2349 -18.2347 -18.2111 -18.2019 -18.1928 -18.1816
   -18.1757 -18.1346 -18.0633 -18.0494 -18.0297 -18.0081 -18.0034 -17.9710
   -17.9295 -17.8697 -17.0124 -16.9839 -16.9771 -16.6032 -16.6020 -16.5789
   -15.3575 -15.1698 -15.1184 -15.0993 -15.0301 -14.9727 -14.9580 -14.9462
   -14.9094 -14.8421 -14.8356 -14.8307 -14.8119 -14.8051 -14.7654 -14.7504
   -14.7447 -14.7034 -14.6945 -14.6847 -14.6819 -14.6788 -14.6731 -14.6505
   -14.6438 -14.6153 -14.6127 -14.5955 -14.5703 -14.5435 -14.5386 -14.5176
   -14.4878 -14.4810 -14.4777 -14.4705 -14.4629 -14.4452 -14.4396 -14.4395
   -14.4384 -14.4365 -14.4333 -14.4207 -14.3995 -14.3981 -14.3862 -14.3840
   -14.3713 -14.3558 -14.3307 -14.3249 -14.3223 -14.3161 -14.2986 -14.2850
   -14.2840 -14.2834 -14.2685 -14.2556 -14.2495 -14.2355 -14.2304 -14.2134
   -14.1998 -14.1932 -14.1926 -14.1803 -14.1764 -14.1636 -14.1353 -14.1277
   -14.1050 -14.1050 -14.0832 -14.0826 -14.0730 -14.0549 -14.0245 -14.0109
   -13.9956 -13.9946 -13.9914 -13.9511 -13.9084 -13.9060 -13.8891 -13.8840
   -13.8834 -13.8826 -13.8681 -13.8679 -13.8670 -13.8651 -13.8641 -13.8610
   -13.8439 -13.8394 -13.8261 -13.8214 -13.8172 -13.8144 -13.8141 -13.8122
   -13.7914 -13.7900 -13.7813 -13.7802 -13.7747 -13.7742 -13.7377 -13.7317
   -13.7121 -13.7027 -13.6741 -13.6623 -13.6531 -13.6164 -13.5270 -13.4798
    -9.7884  -9.7142  -9.5061  -9.4088  -9.4039  -9.3900  -9.3363  -9.3197
    -9.2594  -9.2137  -9.1962  -9.1523  -9.1004  -9.0853  -9.0157  -8.9941
    -8.8929  -8.8654  -8.7982  -8.7955  -8.7301  -8.7050  -8.6067  -8.6047
    -8.5793  -8.4951  -8.4378  -8.3247  -8.3190  -8.3153  -8.2993  -8.2939
    -8.2914  -8.2119  -8.1645  -8.1520  -8.1395  -8.1364  -8.1035  -8.0957
    -8.0754  -8.0735  -8.0714  -8.0672  -8.0556  -8.0554  -8.0493  -8.0453
    -8.0383  -8.0289  -8.0271  -8.0240  -8.0230  -8.0137  -8.0106  -8.0033
    -8.0001  -7.9962  -7.9939  -7.9912  -7.9862  -7.9830  -7.9787  -7.9766
    -7.9753  -7.9657  -7.9602  -7.9489  -7.8864  -7.8712  -7.8709  -7.8505
    -7.8306  -7.8166  -7.8062  -7.8048  -7.7942  -7.7700  -7.7647  -7.7542
    -7.7289  -7.7030  -7.7021  -7.6781  -7.6479  -7.6388  -7.6294  -7.6234
    -7.6144  -7.6038  -7.5929  -7.5920  -7.5424  -7.5120  -7.4609  -7.4118
    -4.0084  -3.8574  -3.5904  -3.5393  -3.5135  -3.4665  -3.4396  -3.4112
    -3.3713  -3.3556  -3.2909  -3.1437  -3.1341  -3.1324  -3.1146  -2.9393
    -2.9361  -2.8972  -2.8960  -2.8437  -2.8206  -2.7862  -2.7856  -2.7704
    -2.7635  -2.7115  -2.7085  -2.6982  -2.6907  -2.6325  -2.6165  -2.5131
    -2.4976  -2.4669  -2.4500  -2.4332  -2.4009  -2.3810  -2.3610  -2.3547
    -2.3376  -2.3173  -2.3134  -2.3006  -2.2924  -2.2892  -2.2866  -2.2573
    -2.2179  -2.2071  -2.2009  -2.1972  -2.1486  -2.1447  -2.1334  -2.1320
    -2.1313  -2.1046  -2.0923  -2.0875  -2.0861  -2.0814  -2.0686  -2.0604
    -2.0539  -2.0475  -2.0414  -2.0320  -2.0263  -1.9981  -1.9896  -1.9868
    -1.9844  -1.9784  -1.9744  -1.9734  -1.9657  -1.9640  -1.9598  -1.9561
    -1.9480  -1.9418  -1.9298  -1.9271  -1.9202  -1.9151  -1.9130  -1.8984
    -1.8948  -1.8946  -1.8944  -1.8931  -1.8924  -1.8881  -1.8802  -1.8745
    -1.8724  -1.8706  -1.8595  -1.8460  -1.8426  -1.8372  -1.8298  -1.8265
    -1.8161  -1.8094  -1.7904  -1.7782  -1.7585  -1.7344  -1.7339  -1.7221
    -1.7199  -1.6959  -1.6954  -1.6709  -1.6396  -1.6130  -1.6123  -1.5751
    -1.5694  -1.5423  -1.5268  -1.5233  -1.5105  -1.5010  -1.4868  -1.4695
    -1.4368  -1.4367  -1.4351  -1.4237  -1.4182  -1.4023  -1.4000  -1.3956
    -1.3750  -1.3482  -1.3033  -1.3011  -1.2959  -1.2814  -1.2203  -1.1694
    -1.1666  -1.1604  -1.1293  -1.1055  -1.0763  -1.0429  -1.0298  -1.0196
    -1.0006  -0.9885  -0.9628  -0.9627  -0.9600  -0.9525  -0.9394  -0.9387
    -0.9290  -0.9245  -0.9162  -0.9141  -0.8989  -0.8957  -0.8710  -0.8584
[...]
     6.6771   6.7185   6.7536   6.8070   6.8261   6.8415   6.8662   6.8891
     6.9564   6.9726   6.9783   7.0120   7.0339   7.0377   7.0457   7.0492
     7.0722   7.0772   7.1160   7.1479   7.1758   7.2249   7.2689   7.3316
     7.4373   7.4471   7.4661   7.6037   7.6787   7.7427   7.7563   7.7941
     7.8314   7.8436   7.8572   7.8632   7.8717   7.8791   7.8927   7.8991
     7.9208   7.9466   7.9481   8.0105   8.0262   8.0330   8.0824   8.0883
     8.1314   8.1464   8.1735   8.2319   8.2369   8.2732   8.2918   8.3008
     8.3140   8.3157   8.3233   8.3312   8.3418   8.3456   8.3548   8.3614
     8.3680   8.4022   8.4298   8.4436   8.4471   8.4893   8.5136   8.5586
     8.5649   8.5815   8.5952   8.6019   8.6143   8.6249   8.6631   8.6884
     8.6983   8.7082   8.7120   8.7244   8.7527   8.7680   8.7736   8.8318
     8.8471   8.8784   8.9080   8.9103   8.9198   8.9348   8.9751   8.9798
     9.0018   9.0203   9.0378   9.0597   9.0665   9.0769   9.0937   9.1152
     9.1281   9.1370   9.1470   9.1640   9.1835   9.2136   9.2195   9.2330
     9.2350   9.2666

     the Fermi energy is     2.8404 ev

!    total energy              =  -14924.32562789 Ry
     Harris-Foulkes estimate   =  -14924.32562789 Ry
     estimated scf accuracy    <          6.0E-09 Ry

     The total energy is the sum of the following terms:

     one-electron contribution = -210872.84166525 Ry
     hartree contribution      =  106660.73183226 Ry
     xc contribution           =   -5117.05084325 Ry
     ewald contribution        =   94404.88345241 Ry
     smearing contrib. (-TS)   =      -0.04840406 Ry

     convergence has been achieved in  46 iterations

     negative rho (up, down):  6.352E-01 0.000E+00

     Forces acting on atoms (cartesian axes, Ry/au):

     atom    1 type  4   force =     0.00012298    0.00000000    0.00023556
     atom    2 type  4   force =    -0.00012298    0.00000000    0.00023556
     atom    3 type  3   force =     0.00008970   -0.00005852   -0.00017072
     atom    4 type  3   force =     0.00008970    0.00005852   -0.00017072
     atom    5 type  3   force =    -0.00008970    0.00005852   -0.00017072
     atom    6 type  3   force =    -0.00008970   -0.00005852   -0.00017072
     atom    7 type  3   force =    -0.00000790   -0.00002412   -0.00033462
     atom    8 type  3   force =     0.00000790    0.00002412   -0.00033462
     atom    9 type  3   force =    -0.00000790    0.00002412   -0.00033462
     atom   10 type  3   force =     0.00000790   -0.00002412   -0.00033462
     atom   11 type  4   force =    -0.00010178    0.00007165    0.00014930
     atom   12 type  4   force =     0.00010178    0.00007165    0.00014930
     atom   13 type  4   force =    -0.00010178   -0.00007165    0.00014930
     atom   14 type  4   force =     0.00010178   -0.00007165    0.00014930
     atom   15 type  4   force =    -0.00016725    0.00000000    0.00016101
     atom   16 type  4   force =     0.00016725    0.00000000    0.00016101
     atom   17 type  4   force =     0.00003074    0.00005148    0.00031290
     atom   18 type  4   force =    -0.00003074    0.00005148    0.00031290
     atom   19 type  4   force =    -0.00003074   -0.00005148    0.00031290
     atom   20 type  4   force =     0.00003074   -0.00005148    0.00031290
     atom   21 type  4   force =     0.00002445    0.00008250    0.00046677
     atom   22 type  4   force =     0.00002445   -0.00008250    0.00046677
     atom   23 type  4   force =    -0.00002445    0.00008250    0.00046677
     atom   24 type  4   force =    -0.00002445   -0.00008250    0.00046677
     atom   25 type  1   force =     0.00000000    0.00000000   -0.00002276
     atom   26 type  1   force =     0.00000000    0.00000000   -0.00012910
     atom   27 type  1   force =     0.00000000    0.00000000   -0.00012910
     atom   28 type  1   force =    -0.00017875    0.00000000   -0.00001436
     atom   29 type  1   force =     0.00017875    0.00000000   -0.00001436
     atom   30 type  1   force =     0.00000000    0.00010774   -0.00026196
     atom   31 type  1   force =     0.00000000   -0.00010774   -0.00026196
     atom   32 type  1   force =     0.00000000    0.00000000   -0.00016059
     atom   33 type  3   force =    -0.00005007   -0.00001053   -0.00007766
     atom   34 type  3   force =    -0.00005007    0.00001053   -0.00007766
     atom   35 type  3   force =     0.00005007    0.00001053   -0.00007766
     atom   36 type  3   force =     0.00005007   -0.00001053   -0.00007766
     atom   37 type  3   force =     0.00003750    0.00002078   -0.00021356
     atom   38 type  3   force =     0.00003750   -0.00002078   -0.00021356
     atom   39 type  3   force =    -0.00003750    0.00002078   -0.00021356
     atom   40 type  3   force =    -0.00003750   -0.00002078   -0.00021356
     atom   41 type  4   force =    -0.00019399    0.00000000   -0.00003224
     atom   42 type  4   force =     0.00019399    0.00000000   -0.00003224
     atom   43 type  4   force =     0.00000000   -0.00001802    0.00024515
     atom   44 type  4   force =     0.00000000    0.00001802    0.00024515
     atom   45 type  4   force =     0.00006835    0.00000000   -0.00001090
     atom   46 type  4   force =    -0.00006835    0.00000000   -0.00001090
     atom   47 type  4   force =    -0.00002310   -0.00001374    0.00012119
     atom   48 type  4   force =     0.00002310   -0.00001374    0.00012119
     atom   49 type  4   force =     0.00002310    0.00001374    0.00012119
     atom   50 type  4   force =    -0.00002310    0.00001374    0.00012119
     atom   51 type  4   force =     0.00000000    0.00000331    0.00010681
     atom   52 type  4   force =     0.00000000   -0.00000331    0.00010681
     atom   53 type  4   force =     0.00008197    0.00000865    0.00033208
     atom   54 type  4   force =    -0.00008197   -0.00000865    0.00033208
     atom   55 type  4   force =     0.00008197   -0.00000865    0.00033208
     atom   56 type  4   force =    -0.00008197    0.00000865    0.00033208
     atom   57 type  2   force =     0.00000000    0.00000000   -0.00075135
     atom   58 type  5   force =     0.00042473    0.00000000   -0.00125927
     atom   59 type  5   force =    -0.00042473    0.00000000   -0.00125927
     atom   60 type  5   force =     0.00000000    0.00000000   -0.00063288
[...]
     atom  210 type  4   force =    -0.00010434    0.00000000    0.00021281
     atom  211 type  3   force =     0.00009302   -0.00007184   -0.00044893
     atom  212 type  3   force =     0.00009302    0.00007184   -0.00044893
     atom  213 type  3   force =    -0.00009302    0.00007184   -0.00044893
     atom  214 type  3   force =    -0.00009302   -0.00007184   -0.00044893
     atom  215 type  3   force =    -0.00000471   -0.00002649   -0.00035212
     atom  216 type  3   force =     0.00000471    0.00002649   -0.00035212
     atom  217 type  3   force =    -0.00000471    0.00002649   -0.00035212
     atom  218 type  3   force =     0.00000471   -0.00002649   -0.00035212
     atom  219 type  4   force =    -0.00009944    0.00005340    0.00028758
     atom  220 type  4   force =     0.00009944    0.00005340    0.00028758
     atom  221 type  4   force =    -0.00009944   -0.00005340    0.00028758
     atom  222 type  4   force =     0.00009944   -0.00005340    0.00028758
     atom  223 type  4   force =    -0.00015904    0.00000000    0.00026244
     atom  224 type  4   force =     0.00015904    0.00000000    0.00026244

     Total force =     0.184389     Total SCF correction =     0.000325

     Computing stress (Cartesian axis) and pressure

     negative rho (up, down):  6.352E-01 0.000E+00
          total   stress  (Ry/bohr**3)                   (kbar)     P=       -6.89
  -0.00007439   0.00000000   0.00000000          -10.94        0.00        0.00
   0.00000000  -0.00003902   0.00000000            0.00       -5.74        0.00
   0.00000000   0.00000000  -0.00002711            0.00        0.00       -3.99

     General routines

     Parallel routines

   This run was terminated on:   0: 4:22  18May2021

   JOB DONE.
[1621310662.577073] [holy7c06412:143263:0]          mpool.c:43   UCX  WARN  object 0x67a4e80 was not returned to mpool ucp_requests
[1621310662.575619] [holy7c06503:132999:0]          mpool.c:43   UCX  WARN  object 0x3c9b080 was not returned to mpool ucp_requests
[1621310662.597307] [holy7c06410:113308:0]          mpool.c:43   UCX  WARN  object 0x47d5d00 was not returned to mpool ucp_requests
[1621310662.580969] [holy7c06503:133000:0]          mpool.c:43   UCX  WARN  object 0x2ac5840 was not returned to mpool ucp_requests
[1621310662.581959] [holy7c06412:143255:0]          mpool.c:43   UCX  WARN  object 0x4432b40 was not returned to mpool ucp_requests
[1621310662.583824] [holy7c06412:143265:0]          mpool.c:43   UCX  WARN  object 0x3d632c0 was not returned to mpool ucp_requests
[1621310662.585628] [holy7c06412:143257:0]          mpool.c:43   UCX  WARN  object 0x34b6240 was not returned to mpool ucp_requests
[1621310662.591514] [holy7c06503:133002:0]          mpool.c:43   UCX  WARN  object 0x3bc25c0 was not returned to mpool ucp_requests
[1621310662.593329] [holy7c06503:133001:0]          mpool.c:43   UCX  WARN  object 0x44934c0 was not returned to mpool ucp_requests
[1621310662.587475] [holy7c06412:143256:0]          mpool.c:43   UCX  WARN  object 0x3ed9740 was not returned to mpool ucp_requests
[1621310662.589082] [holy7c06412:143266:0]          mpool.c:43   UCX  WARN  object 0x448ee00 was not returned to mpool ucp_requests
[1621310662.600421] [holy7c06409:218953:0]          mpool.c:43   UCX  WARN  object 0x4782000 was not returned to mpool ucp_requests
[1621310662.597031] [holy7c06412:143264:0]          mpool.c:43   UCX  WARN  object 0x47d42c0 was not returned to mpool ucp_requests
[1621310662.594673] [holy7c06412:143250:0]          mpool.c:43   UCX  WARN  object 0x2e9ffc0 was not returned to mpool ucp_requests
[1621310662.597956] [holy7c06412:143258:0]          mpool.c:43   UCX  WARN  object 0x3be4200 was not returned to mpool ucp_requests
[1621310662.596937] [holy7c06409:218958:0]          mpool.c:43   UCX  WARN  object 0x2abbf40 was not returned to mpool ucp_requests
[1621310662.596809] [holy7c06409:218960:0]          mpool.c:43   UCX  WARN  object 0x4f70780 was not returned to mpool ucp_requests
[1621310662.602216] [holy7c06409:218961:0]          mpool.c:43   UCX  WARN  object 0x4794080 was not returned to mpool ucp_requests
[1621310662.618538] [holy7c06409:218952:0]          mpool.c:43   UCX  WARN  object 0x2b7f480 was not returned to mpool ucp_requests
[1621310662.598065] [holy7c06410:113310:0]          mpool.c:43   UCX  WARN  object 0x42bca80 was not returned to mpool ucp_requests
[1621310662.615449] [holy7c06409:218959:0]          mpool.c:43   UCX  WARN  object 0x52fcc80 was not returned to mpool ucp_requests
[1621310662.610857] [holy7c06409:218951:0]          mpool.c:43   UCX  WARN  object 0x349f180 was not returned to mpool ucp_requests
[1621310662.596552] [holy7c06410:113309:0]          mpool.c:43   UCX  WARN  object 0x30931c0 was not returned to mpool ucp_requests
[1621310662.593310] [holy7c06410:113301:0]          mpool.c:43   UCX  WARN  object 0x33dc940 was not returned to mpool ucp_requests
[1621310662.602171] [holy7c06410:113316:0]          mpool.c:43   UCX  WARN  object 0x2e9c580 was not returned to mpool ucp_requests
[1621310662.599356] [holy7c06410:113300:0]          mpool.c:43   UCX  WARN  object 0x31bed80 was not returned to mpool ucp_requests
[1621310662.607505] [holy7c06410:113315:0]          mpool.c:43   UCX  WARN  object 0x3d671c0 was not returned to mpool ucp_requests
[1621310662.605356] [holy7c06410:113299:0]          mpool.c:43   UCX  WARN  object 0x35c0980 was not returned to mpool ucp_requests
[1621310662.605463] [holy7c06410:113307:0]          mpool.c:43   UCX  WARN  object 0x3363200 was not returned to mpool ucp_requests
[1621310662.604796] [holy7c06410:113317:0]          mpool.c:43   UCX  WARN  object 0x56e68c0 was not returned to mpool ucp_requests
[1621310662.610676] [holy7c06410:113302:0]          mpool.c:43   UCX  WARN  object 0x30b4ec0 was not returned to mpool ucp_requests