     Program PWSCF v.6.5 starts on 18May2021 at 21:15: 4

     R & G space division:  proc/nbgrp/npool/nimage =      80
     Reading input from YBCO_CuO_cleave_7.0_sep.pwi
Warning: card &IONS ignored
Warning: card     ION_DYNAMICS = 'BFGS' ignored
Warning: card / ignored
Warning: card &CELL ignored
Warning: card     CELL_DYNAMICS = 'BFGS' ignored
Warning: card     PRESS_CONV_THR = 5 ignored
Warning: card / ignored

     Current dimensions of program PWSCF are:
     Max number of different atomic species (ntypx) = 10
     Max number of k-points (npk) =  40000
     Max angular momentum in pseudopotentials (lmaxx) =  3
     Message from routine volume:
     axis vectors are left-handed

     Message from routine setup:
     using ibrav=0 with symmetry is DISCOURAGED, use correct ibrav instead

     bravais-lattice index     =            0
     lattice parameter (alat)  =      20.5021  a.u.
     unit-cell volume          =   40093.6191 (a.u.)^3
     number of atoms/cell      =          224
     number of atomic types    =            5
     number of electrons       =      1830.00
     number of Kohn-Sham states=         1098
     kinetic-energy cutoff     =      60.0000  Ry
     charge density cutoff     =     720.0000  Ry
     convergence threshold     =      1.0E-08
     mixing beta               =       0.5000
     number of iterations used =           10  local-TF  mixing
     Exchange-correlation= SLA PW PBE PBE
                           (   1   4   3   4   0   0   0)

     celldm(1)=  20.502120  celldm(2)=   0.000000  celldm(3)=   0.000000
     celldm(4)=   0.000000  celldm(5)=   0.000000  celldm(6)=   0.000000

     crystal axes: (cart. coord. in units of alat)
               a(1) = (  -0.716599   0.697485   0.000000 )
               a(2) = (   0.716599   0.697485   0.000000 )
               a(3) = (   0.000000   0.000000   4.654121 )

     reciprocal axes: (cart. coord. in units 2 pi/alat)
               b(1) = ( -0.697740  0.716861  0.000000 )
               b(2) = (  0.697740  0.716861  0.000000 )
               b(3) = (  0.000000  0.000000  0.214863 )

     PseudoPot. # 1 for Ba read from file:
     ./pseudo/Ba.pbe-nsp-van.UPF
     MD5 check sum: 2b9c31dd849566dd297d80989662b7a0
     Pseudo is Ultrasoft + core correction, Zval = 10.0
     Generated by new atomic code, or converted to UPF format
     Using radial grid of  907 points,  6 beta functions with:
                l(1) =   0
                l(2) =   0
                l(3) =   1
                l(4) =   1
                l(5) =   2
                l(6) =   2
     Q(r) pseudized with  6 coefficients,  rinner =    1.200   1.200   1.200
                                                       1.200   1.200

     PseudoPot. # 2 for Ca read from file:
     ./pseudo/Ca.pbe-nsp-van.UPF
     MD5 check sum: 6471098428ff4fa451746d08035ff179
     Pseudo is Ultrasoft + core correction, Zval = 10.0
     Generated by new atomic code, or converted to UPF format
     Using radial grid of  845 points,  6 beta functions with:
                l(1) =   0
                l(2) =   0
                l(3) =   1
                l(4) =   1
                l(5) =   2
                l(6) =   2
     Q(r) pseudized with  6 coefficients,  rinner =    1.200   1.200   1.200
                                                       1.200   1.200

     PseudoPot. # 3 for Cu read from file:
     ./pseudo/Cu.pbe-n-van_ak.UPF
     MD5 check sum: 34e3282627ffb533726feb647e090d62
     Pseudo is Ultrasoft + core correction, Zval = 11.0
     Generated by new atomic code, or converted to UPF format
     Using radial grid of  867 points,  6 beta functions with:
                l(1) =   0
                l(2) =   0
                l(3) =   1
                l(4) =   1
                l(5) =   2
                l(6) =   2
     Q(r) pseudized with  8 coefficients,  rinner =    1.400   1.400   1.400
                                                       1.400   1.400

     PseudoPot. # 4 for O  read from file:
     ./pseudo/O.pbe-van_ak.UPF
     MD5 check sum: 783ce7fe4c79b6a4916957118fed0856
     Pseudo is Ultrasoft, Zval =  6.0
     Generated by new atomic code, or converted to UPF format
     Using radial grid of  737 points,  4 beta functions with:
                l(1) =   0
                l(2) =   0
                l(3) =   1
                l(4) =   1
     Q(r) pseudized with  8 coefficients,  rinner =    0.800   0.800   0.800

     PseudoPot. # 5 for Y  read from file:
     ./pseudo/Y.pbe-nsp-van.UPF
     MD5 check sum: 4412fed3ab108fed87a1b7d6a69a4a38
     Pseudo is Ultrasoft + core correction, Zval = 11.0
     Generated by new atomic code, or converted to UPF format
     Using radial grid of  885 points,  6 beta functions with:
                l(1) =   0
                l(2) =   0
                l(3) =   1
                l(4) =   1
                l(5) =   2
                l(6) =   2
     Q(r) pseudized with  6 coefficients,  rinner =    1.200   1.200   1.200
                                                       1.200   1.200

     atomic species   valence    mass     pseudopotential
        Ba            10.00   137.32700     Ba( 1.00)
        Ca            10.00    40.07800     Ca( 1.00)
        Cu            11.00    63.54600     Cu( 1.00)
        O              6.00    15.99900     O ( 1.00)
        Y             11.00    88.90584     Y ( 1.00)

      4 Sym. Ops. (no inversion) found ( 3 have fractional translation)

   Cartesian axes

     site n.     atom                  positions (alat units)
         1           O   tau(   1) = (   0.3545921   0.8718562  -0.0077406  )
         2           O   tau(   2) = (   0.0037072   0.8718562  -0.0077406  )
         3           Cu  tau(   3) = (  -0.0002581   0.0006065   0.0080789  )
         4           Cu  tau(   4) = (  -0.0002581   0.3481364   0.0080789  )
         5           Cu  tau(   5) = (   0.3585574   0.3481364   0.0080789  )
         6           Cu  tau(   6) = (  -0.3580421   0.6980913   0.0080789  )
         7           Cu  tau(   7) = (   0.3577988   0.6971373   0.0086255  )
         8           Cu  tau(   8) = (   0.0005005   1.0465760   0.0086255  )
         9           Cu  tau(   9) = (  -0.3588016   0.3490903   0.0086255  )
        10           Cu  tau(  10) = (   0.0005005   0.6971373   0.0086255  )
        11           O   tau(  11) = (  -0.0001733   0.5225410  -0.0089757  )
        12           O   tau(  12) = (   0.3584726   0.5225410  -0.0089757  )
        13           O   tau(  13) = (  -0.0001733   1.2211724  -0.0089757  )
        14           O   tau(  14) = (  -0.3581278   0.5236867  -0.0089757  )
        15           O   tau(  15) = (  -0.3544557   0.8718562  -0.0105593  )
        16           O   tau(  16) = (  -0.0038445   0.1743714  -0.0105593  )
        17           O   tau(  17) = (   0.3588818   0.3486599   0.1817056  )
        18           O   tau(  18) = (  -0.0005825   0.3486599   0.1817056  )
        19           O   tau(  19) = (  -0.0005825   0.0000830   0.1817056  )
        20           O   tau(  20) = (  -0.3577167   0.6975677   0.1817056  )
        21           O   tau(  21) = (   0.3584283   0.6967843   0.1825784  )
        22           O   tau(  22) = (  -0.3581712   0.3494443   0.1825784  )
        23           O   tau(  23) = (  -0.0001290   0.6967843   0.1825784  )
        24           O   tau(  24) = (  -0.0001290   1.0469291   0.1825784  )
        25           Ba  tau(  25) = (   0.1791506   0.8718562   0.1908537  )
        26           Ba  tau(  26) = (   0.5374498   0.5231143   0.1919901  )
        27           Ba  tau(  27) = (  -0.1791506   0.5231143   0.1919901  )
        28           Ba  tau(  28) = (  -0.1793773   0.8718562   0.1931958  )
        29           Ba  tau(  29) = (  -0.1789238   0.1743714   0.1931958  )
        30           Ba  tau(  30) = (   0.1791506   0.5222101   0.1929368  )
        31           Ba  tau(  31) = (  -0.5374498   0.5240176   0.1929368  )
        32           Ba  tau(  32) = (   0.1791506   0.1743714   0.1992469  )
        33           Cu  tau(  33) = (  -0.3583426   0.3488452   0.3777458  )
        34           Cu  tau(  34) = (   0.3582559   0.6973834   0.3777458  )
        35           Cu  tau(  35) = (   0.0000433   0.6973834   0.3777458  )
        36           Cu  tau(  36) = (   0.0000433   1.0463299   0.3777458  )
        37           Cu  tau(  37) = (  -0.3586541   0.6975060   0.3775126  )
        38           Cu  tau(  38) = (   0.3579444   0.3487217   0.3775126  )
        39           Cu  tau(  39) = (   0.0003549   0.0000212   0.3775126  )
        40           Cu  tau(  40) = (   0.0003549   0.3487217   0.3775126  )
        41           O   tau(  41) = (  -0.0047976   0.1743714   0.3996864  )
        42           O   tau(  42) = (  -0.3535026   0.8718562   0.3996864  )
        43           O   tau(  43) = (  -0.5374498   0.6924605   0.3956991  )
        44           O   tau(  44) = (   0.1791506   0.3537672   0.3956991  )
        45           O   tau(  45) = (   0.3586385   0.8718562   0.4046840  )
        46           O   tau(  46) = (  -0.0003392   0.8718562   0.4046840  )
        47           O   tau(  47) = (  -0.0004857   0.5230571   0.4066611  )
        48           O   tau(  48) = (   0.3587850   0.5230571   0.4066611  )
        49           O   tau(  49) = (  -0.3578135   0.5231714   0.4066611  )
        50           O   tau(  50) = (  -0.0004857   1.2206562   0.4066611  )
        51           O   tau(  51) = (   0.1791506   1.0461604   0.4028931  )
        52           O   tau(  52) = (   0.1791506   0.6975521   0.4028931  )
        53           O   tau(  53) = (  -0.1792261   0.6967170   0.4025963  )
        54           O   tau(  54) = (  -0.1790731   0.3495106   0.4025963  )
        55           O   tau(  55) = (  -0.1792261   1.0469964   0.4025963  )
        56           O   tau(  56) = (   0.5375263   0.6967170   0.4025963  )
        57           Ca  tau(  57) = (   0.1791506   0.1743714   0.5358617  )
        58           Y   tau(  58) = (  -0.1811525   0.8718562   0.5373908  )
        59           Y   tau(  59) = (  -0.1771467   0.1743714   0.5373908  )
        60           Y   tau(  60) = (   0.1791506   0.8718562   0.5379568  )
[...]
       210           O   tau( 210) = (   0.0037081   0.8718562   2.8093128  )
       211           Cu  tau( 211) = (  -0.0002516   0.0006074   2.7935090  )
       212           Cu  tau( 212) = (  -0.0002516   0.3481345   2.7935090  )
       213           Cu  tau( 213) = (   0.3585509   0.3481345   2.7935090  )
       214           Cu  tau( 214) = (  -0.3580476   0.6980931   2.7935090  )
       215           Cu  tau( 215) = (   0.3577960   0.6971373   2.7929624  )
       216           Cu  tau( 216) = (   0.0005033   1.0465760   2.7929624  )
       217           Cu  tau( 217) = (  -0.3588035   0.3490903   2.7929624  )
       218           Cu  tau( 218) = (   0.0005033   0.6971373   2.7929624  )
       219           O   tau( 219) = (  -0.0001724   0.5225410   2.8105516  )
       220           O   tau( 220) = (   0.3584716   0.5225410   2.8105516  )
       221           O   tau( 221) = (  -0.0001724   1.2211724   2.8105516  )
[...]

   -38.9756 -38.9494 -38.9461 -38.9419 -38.9396 -38.9251 -38.9234 -38.8979
   -38.8616 -38.8584 -38.8491 -38.8465 -38.8363 -38.8353 -36.5167 -36.4230
   -23.5553 -23.5421 -23.5279 -23.4962 -23.4895 -23.4848 -23.4821 -23.4812
   -23.4767 -23.4707 -23.4626 -23.4512 -23.3955 -23.3937 -23.3917 -23.3866
   -23.3791 -23.3775 -23.3727 -23.3668 -23.3483 -23.3471 -23.3413 -23.3329
   -23.3300 -23.3044 -23.2965 -23.2848 -23.2227 -23.1868 -23.1032 -22.9224
   -19.5550 -19.4827 -19.4769 -19.4671 -19.4528 -19.4251 -19.3962 -19.3905
   -19.3894 -19.3737 -19.3485 -19.3480 -19.3381 -19.3023 -19.2858 -19.2787
   -19.2662 -19.2622 -19.2598 -19.2546 -19.2501 -19.1949 -19.1901 -19.1739
   -19.1736 -19.1721 -19.1567 -19.1476 -19.1147 -19.0955 -19.0874 -19.0708
   -19.0669 -19.0634 -19.0261 -19.0067 -18.9968 -18.9839 -18.9816 -18.9438
   -18.9065 -18.8535 -17.7745 -17.7478 -17.7419 -17.6835 -17.6524 -17.6510
   -16.1112 -16.0506 -15.9235 -15.8634 -15.8526 -15.7980 -15.7177 -15.6656
   -15.5937 -15.5759 -15.5401 -15.5242 -15.5192 -15.4986 -15.4952 -15.4587
   -15.4348 -15.4281 -15.4041 -15.3917 -15.3725 -15.3624 -15.3601 -15.3530
   -15.3405 -15.3276 -15.3240 -15.3138 -15.3037 -15.2974 -15.2821 -15.2691
   -15.2523 -15.2464 -15.2225 -15.2187 -15.1860 -15.1843 -15.1721 -15.1644
   -15.1618 -15.1601 -15.1477 -15.1456 -15.1350 -15.1346 -15.1310 -15.1160
   -15.1140 -15.1121 -15.0908 -15.0880 -15.0817 -15.0774 -15.0450 -15.0342
   -15.0305 -15.0294 -15.0268 -15.0171 -15.0147 -15.0101 -14.9983 -14.9966
   -14.9745 -14.9712 -14.9567 -14.9503 -14.9476 -14.9419 -14.9298 -14.9243
   -14.9099 -14.9007 -14.8953 -14.8927 -14.8777 -14.8754 -14.8718 -14.8531
   -14.8380 -14.8235 -14.8230 -14.8219 -14.8084 -14.7725 -14.7473 -14.7433
   -14.6041 -14.5995 -14.5870 -14.5829 -14.5825 -14.5810 -14.5757 -14.5641
   -14.5636 -14.5540 -14.5326 -14.5291 -14.5142 -14.5103 -14.4968 -14.4922
   -14.4901 -14.4763 -14.4697 -14.4166 -14.3833 -14.3491 -14.3389 -14.3168
   -13.4325 -13.4198 -13.3435 -13.3432 -13.2814 -13.2804 -13.2404 -13.1643
    -9.3215  -9.3081  -9.1648  -9.0417  -9.0360  -9.0323  -9.0277  -9.0224
    -9.0185  -8.9799  -8.9572  -8.9242  -8.8899  -8.8857  -8.8812  -8.8722
    -8.8680  -8.8648  -8.8587  -8.8205  -8.8040  -8.7971  -8.7848  -8.7814
    -8.7813  -8.7793  -8.7732  -8.7719  -8.7692  -8.7616  -8.7607  -8.7588
    -8.7499  -8.7436  -8.7398  -8.7308  -8.7285  -8.7232  -8.7202  -8.7176
    -8.7174  -8.7154  -8.7091  -8.7085  -8.7064  -8.7040  -8.7034  -8.7034
    -8.6944  -8.6938  -8.6893  -8.6890  -8.6789  -8.6722  -8.6284  -8.5986
    -8.5962  -8.5717  -8.5477  -8.5368  -8.5337  -8.5325  -8.5318  -8.5216
    -8.5112  -8.4975  -8.4906  -8.4774  -8.4711  -8.4575  -8.4532  -8.4224
    -8.4191  -8.4054  -8.4015  -8.3830  -8.3759  -8.3649  -8.3558  -8.3510
    -8.3465  -8.3425  -8.3333  -8.3327  -8.3311  -8.3130  -8.2784  -8.2332
    -8.2285  -8.2052  -8.1791  -8.1706  -8.1548  -8.1475  -7.9382  -7.9359
    -4.7653  -4.6963  -4.3468  -4.2929  -4.2751  -4.2713  -4.2291  -4.2060
    -4.1757  -4.1512  -3.9313  -3.9045  -3.8775  -3.8339  -3.8071  -3.7748
    -3.6499  -3.6322  -3.6103  -3.5923  -3.5810  -3.5528  -3.5461  -3.5279
    -3.5097  -3.5012  -3.4841  -3.4710  -3.4631  -3.3799  -3.3573  -3.3531
    -3.2860  -3.2616  -3.1561  -3.1470  -3.1255  -3.0941  -3.0845  -3.0812
    -3.0745  -3.0723  -3.0689  -3.0659  -3.0567  -3.0466  -2.9950  -2.9900
    -2.9862  -2.9415  -2.9171  -2.9091  -2.8687  -2.8583  -2.8562  -2.8530
    -2.8483  -2.8367  -2.8219  -2.8065  -2.8056  -2.7998  -2.7961  -2.7920
    -2.7917  -2.7730  -2.7673  -2.7643  -2.7620  -2.7492  -2.7488  -2.7353
    -2.7350  -2.7266  -2.7114  -2.6956  -2.6893  -2.6879  -2.6856  -2.6817
    -2.6560  -2.6526  -2.6511  -2.6499  -2.6303  -2.6169  -2.6120  -2.6087
    -2.6070  -2.6045  -2.6031  -2.5956  -2.5911  -2.5861  -2.5858  -2.5847
    -2.5750  -2.5738  -2.5572  -2.5559  -2.5368  -2.5337  -2.5314  -2.5257
    -2.5154  -2.5073  -2.5049  -2.4867  -2.4855  -2.4794  -2.4783  -2.4721
    -2.4531  -2.4481  -2.4476  -2.4451  -2.4425  -2.4290  -2.4198  -2.4123
    -2.4083  -2.3988  -2.3980  -2.3877  -2.3729  -2.3686  -2.3517  -2.3393
    -2.3291  -2.3030  -2.2991  -2.2168  -2.0819  -2.0444  -2.0187  -2.0089
    -1.9829  -1.9497  -1.9098  -1.8117  -1.8037  -1.7874  -1.7847  -1.7551
    -1.7346  -1.7201  -1.7082  -1.6969  -1.6965  -1.6839  -1.6822  -1.6765
    -1.6722  -1.6558  -1.6531  -1.6491  -1.6416  -1.6383  -1.6316  -1.6219
    -1.6137  -1.5957  -1.5837  -1.5699  -1.5673  -1.5648  -1.5607  -1.5515
[...]
     6.1995   6.2622   6.2693   6.2781   6.3023   6.3048   6.3506   6.3589
     6.3936   6.4756   6.5035   6.5300   6.5540   6.5879   6.6430   6.6563
     6.9563   6.9656   7.0136   7.0641   7.0986   7.1158   7.1203   7.1281
     7.1282   7.1399   7.1423   7.1493   7.1562   7.1651   7.1801   7.1841
     7.2069   7.2086   7.2235   7.2315   7.2595   7.2615   7.2925   7.3010
     7.3194   7.3376   7.3447   7.3547   7.4235   7.4285   7.4880   7.4927
     7.5183   7.5253   7.5700   7.5829   7.6177   7.6225   7.6300   7.6312
     7.6378   7.6398   7.6436   7.6551   7.6653   7.6858   7.7562   7.7963
     7.7991   7.7999   7.8140   7.8746   7.8792   7.9488   7.9754   7.9781
     7.9933   8.0280   8.0346   8.0507   8.0572   8.1162   8.1277   8.1637
     8.2128   8.2270   8.2330   8.2521   8.2716   8.3086   8.3133   8.3187
     8.3290   8.3467   8.3647   8.3668   8.3716   8.3845   8.3950   8.3974
     8.4054   8.4083   8.4220   8.4424   8.4521   8.4590   8.4693   8.4854
     8.4887   8.5067   8.5114   8.5164   8.5294   8.5546   8.5665   8.5918
     8.5921   8.6368

     the Fermi energy is     2.1239 ev

!    total energy              =  -14923.86009224 Ry
     Harris-Foulkes estimate   =  -14923.86009228 Ry
     estimated scf accuracy    <          6.5E-09 Ry

     The total energy is the sum of the following terms:

     one-electron contribution = -172771.55854132 Ry
     hartree contribution      =   87566.57606214 Ry
     xc contribution           =   -5117.03943296 Ry
     ewald contribution        =   75398.23320140 Ry
     smearing contrib. (-TS)   =      -0.07138149 Ry

     convergence has been achieved in  47 iterations

     negative rho (up, down):  6.348E-01 0.000E+00

     Forces acting on atoms (cartesian axes, Ry/au):

     atom    1 type  4   force =     0.00009268    0.00000000   -0.00043612
     atom    2 type  4   force =    -0.00009268    0.00000000   -0.00043612
     atom    3 type  3   force =     0.00008445   -0.00003778    0.00021286
     atom    4 type  3   force =     0.00008445    0.00003778    0.00021286
     atom    5 type  3   force =    -0.00008445    0.00003778    0.00021286
     atom    6 type  3   force =    -0.00008445   -0.00003778    0.00021286
     atom    7 type  3   force =    -0.00000198   -0.00000378    0.00000279
     atom    8 type  3   force =     0.00000198    0.00000378    0.00000279
     atom    9 type  3   force =    -0.00000198    0.00000378    0.00000279
     atom   10 type  3   force =     0.00000198   -0.00000378    0.00000279
     atom   11 type  4   force =    -0.00011182    0.00006227   -0.00044873
     atom   12 type  4   force =     0.00011182    0.00006227   -0.00044873
     atom   13 type  4   force =    -0.00011182   -0.00006227   -0.00044873
     atom   14 type  4   force =     0.00011182   -0.00006227   -0.00044873
     atom   15 type  4   force =    -0.00013952    0.00000000   -0.00054329
     atom   16 type  4   force =     0.00013952    0.00000000   -0.00054329
     atom   17 type  4   force =    -0.00000104    0.00005611    0.00064884
     atom   18 type  4   force =     0.00000104    0.00005611    0.00064884
     atom   19 type  4   force =     0.00000104   -0.00005611    0.00064884
     atom   20 type  4   force =    -0.00000104   -0.00005611    0.00064884
     atom   21 type  4   force =     0.00004095    0.00004323    0.00083510
     atom   22 type  4   force =     0.00004095   -0.00004323    0.00083510
     atom   23 type  4   force =    -0.00004095    0.00004323    0.00083510
     atom   24 type  4   force =    -0.00004095   -0.00004323    0.00083510
     atom   25 type  1   force =     0.00000000    0.00000000   -0.00020056
     atom   26 type  1   force =     0.00000000    0.00000000   -0.00032899
     atom   27 type  1   force =     0.00000000    0.00000000   -0.00032899
     atom   28 type  1   force =    -0.00015616    0.00000000   -0.00019995
     atom   29 type  1   force =     0.00015616    0.00000000   -0.00019995
     atom   30 type  1   force =     0.00000000    0.00012103   -0.00044648
     atom   31 type  1   force =     0.00000000   -0.00012103   -0.00044648
     atom   32 type  1   force =     0.00000000    0.00000000   -0.00033905
     atom   33 type  3   force =    -0.00003557   -0.00000235   -0.00055927
     atom   34 type  3   force =    -0.00003557    0.00000235   -0.00055927
     atom   35 type  3   force =     0.00003557    0.00000235   -0.00055927
     atom   36 type  3   force =     0.00003557   -0.00000235   -0.00055927
     atom   37 type  3   force =     0.00001283   -0.00003657   -0.00055358
     atom   38 type  3   force =     0.00001283    0.00003657   -0.00055358
     atom   39 type  3   force =    -0.00001283   -0.00003657   -0.00055358
     atom   40 type  3   force =    -0.00001283    0.00003657   -0.00055358
     atom   41 type  4   force =    -0.00040943    0.00000000    0.00146444
     atom   42 type  4   force =     0.00040943    0.00000000    0.00146444
     atom   43 type  4   force =     0.00000000   -0.00010606    0.00135546
     atom   44 type  4   force =     0.00000000    0.00010606    0.00135546
     atom   45 type  4   force =     0.00007009    0.00000000    0.00169735
     atom   46 type  4   force =    -0.00007009    0.00000000    0.00169735
     atom   47 type  4   force =    -0.00001684   -0.00010873    0.00172025
     atom   48 type  4   force =     0.00001684   -0.00010873    0.00172025
     atom   49 type  4   force =     0.00001684    0.00010873    0.00172025
     atom   50 type  4   force =    -0.00001684    0.00010873    0.00172025
     atom   51 type  4   force =     0.00000000   -0.00002600    0.00135160
     atom   52 type  4   force =     0.00000000    0.00002600    0.00135160
     atom   53 type  4   force =     0.00002593    0.00003681    0.00156459
     atom   54 type  4   force =    -0.00002593   -0.00003681    0.00156459
     atom   55 type  4   force =     0.00002593   -0.00003681    0.00156459
     atom   56 type  4   force =    -0.00002593    0.00003681    0.00156459
     atom   57 type  2   force =     0.00000000    0.00000000   -0.00326977
     atom   58 type  5   force =     0.00054160    0.00000000   -0.00550542
     atom   59 type  5   force =    -0.00054160    0.00000000   -0.00550542
     atom   60 type  5   force =     0.00000000    0.00000000   -0.00477308
[...]
     atom  210 type  4   force =    -0.00006384    0.00000000   -0.00008021
     atom  211 type  3   force =     0.00008568   -0.00005154    0.00060911
     atom  212 type  3   force =     0.00008568    0.00005154    0.00060911
     atom  213 type  3   force =    -0.00008568    0.00005154    0.00060911
     atom  214 type  3   force =    -0.00008568   -0.00005154    0.00060911
     atom  215 type  3   force =     0.00000054   -0.00002906    0.00084572
     atom  216 type  3   force =    -0.00000054    0.00002906    0.00084572
     atom  217 type  3   force =     0.00000054    0.00002906    0.00084572
     atom  218 type  3   force =    -0.00000054   -0.00002906    0.00084572
     atom  219 type  4   force =    -0.00010346    0.00022037   -0.00000418
     atom  220 type  4   force =     0.00010346    0.00022037   -0.00000418
     atom  221 type  4   force =    -0.00010346   -0.00022037   -0.00000418
     atom  222 type  4   force =     0.00010346   -0.00022037   -0.00000418
     atom  223 type  4   force =    -0.00010944    0.00000000    0.00005185
     atom  224 type  4   force =     0.00010944    0.00000000    0.00005185

     Total force =     0.153818     Total SCF correction =     0.000342

     Computing stress (Cartesian axis) and pressure

     negative rho (up, down):  6.348E-01 0.000E+00
          total   stress  (Ry/bohr**3)                   (kbar)     P=       -6.13
  -0.00000349   0.00000000   0.00000000           -0.51        0.00        0.00
   0.00000000  -0.00009694   0.00000000            0.00      -14.26        0.00
   0.00000000   0.00000000  -0.00002451            0.00        0.00       -3.61

     General routines

     Parallel routines

   This run was terminated on:  23: 4:43  18May2021

   JOB DONE.
[1621393483.339605] [holy7c08104:225405:0]          mpool.c:43   UCX  WARN  object 0x6b80ac0 was not returned to mpool ucp_requests
[1621393483.342431] [holy7c08104:225413:0]          mpool.c:43   UCX  WARN  object 0x46ef9c0 was not returned to mpool ucp_requests
[1621393483.341355] [holy7c08111:39476:0]          mpool.c:43   UCX  WARN  object 0x3be42c0 was not returned to mpool ucp_requests
[1621393483.331295] [holy7c08106:114515:0]          mpool.c:43   UCX  WARN  object 0x2e98380 was not returned to mpool ucp_requests
[1621393483.347761] [holy7c08108:168847:0]          mpool.c:43   UCX  WARN  object 0x2f49e80 was not returned to mpool ucp_requests
[1621393483.346160] [holy7c08104:225412:0]          mpool.c:43   UCX  WARN  object 0x2bfbdc0 was not returned to mpool ucp_requests
[1621393483.349307] [holy7c08104:225411:0]          mpool.c:43   UCX  WARN  object 0x3df7240 was not returned to mpool ucp_requests
[1621393483.345669] [holy7c08111:39481:0]          mpool.c:43   UCX  WARN  object 0x388d1c0 was not returned to mpool ucp_requests
[1621393483.347303] [holy7c08111:39473:0]          mpool.c:43   UCX  WARN  object 0x38ead00 was not returned to mpool ucp_requests
[1621393483.347394] [holy7c08111:39475:0]          mpool.c:43   UCX  WARN  object 0x577a540 was not returned to mpool ucp_requests
[1621393483.348193] [holy7c08111:39484:0]          mpool.c:43   UCX  WARN  object 0x2f67ec0 was not returned to mpool ucp_requests
[1621393483.353549] [holy7c08111:39482:0]          mpool.c:43   UCX  WARN  object 0x463b2c0 was not returned to mpool ucp_requests
[1621393483.353416] [holy7c08111:39474:0]          mpool.c:43   UCX  WARN  object 0x3cde5c0 was not returned to mpool ucp_requests
[1621393483.354021] [holy7c08111:39483:0]          mpool.c:43   UCX  WARN  object 0x3e93d40 was not returned to mpool ucp_requests
[1621393483.355407] [holy7c08104:225414:0]          mpool.c:43   UCX  WARN  object 0x474bb00 was not returned to mpool ucp_requests
[1621393483.338956] [holy7c08106:114516:0]          mpool.c:43   UCX  WARN  object 0x3d63a80 was not returned to mpool ucp_requests
[1621393483.339915] [holy7c08106:114524:0]          mpool.c:43   UCX  WARN  object 0x45d57c0 was not returned to mpool ucp_requests
[1621393483.344236] [holy7c08106:114523:0]          mpool.c:43   UCX  WARN  object 0x3779100 was not returned to mpool ucp_requests
[1621393483.345538] [holy7c08106:114517:0]          mpool.c:43   UCX  WARN  object 0x3d47bc0 was not returned to mpool ucp_requests
[1621393483.346893] [holy7c08106:114525:0]          mpool.c:43   UCX  WARN  object 0x2c88300 was not returned to mpool ucp_requests
[1621393483.345757] [holy7c08106:114518:0]          mpool.c:43   UCX  WARN  object 0x2a136c0 was not returned to mpool ucp_requests
[1621393483.349415] [holy7c08108:168855:0]          mpool.c:43   UCX  WARN  object 0x29e1940 was not returned to mpool ucp_requests
[1621393483.353276] [holy7c08108:168845:0]          mpool.c:43   UCX  WARN  object 0x32d05c0 was not returned to mpool ucp_requests
[1621393483.357779] [holy7c08108:168853:0]          mpool.c:43   UCX  WARN  object 0x2cc9ac0 was not returned to mpool ucp_requests
[1621393483.352041] [holy7c08108:168848:0]          mpool.c:43   UCX  WARN  object 0x3078a00 was not returned to mpool ucp_requests
[1621393483.355583] [holy7c08108:168856:0]          mpool.c:43   UCX  WARN  object 0x2ea7940 was not returned to mpool ucp_requests
[1621393483.358827] [holy7c08104:225406:0]          mpool.c:43   UCX  WARN  object 0x4280540 was not returned to mpool ucp_requests
[1621393483.362828] [holy7c08104:225404:0]          mpool.c:43   UCX  WARN  object 0x329c480 was not returned to mpool ucp_requests
[1621393483.361252] [holy7c08108:168846:0]          mpool.c:43   UCX  WARN  object 0x5f47c80 was not returned to mpool ucp_requests
[1621393483.360292] [holy7c08108:168840:0]          mpool.c:43   UCX  WARN  object 0x43f3c40 was not returned to mpool ucp_requests
[1621393483.366866] [holy7c08108:168854:0]          mpool.c:43   UCX  WARN  object 0x3c1da00 was not returned to mpool ucp_requests
[1621393483.366888] [holy7c08108:168854:0]          mpool.c:43   UCX  WARN  object 0x3c25f00 was not returned to mpool ucp_requests