     Program PWSCF v.6.5 starts on 18May2021 at 12: 5:32

     R & G space division:  proc/nbgrp/npool/nimage =      80
     Reading input from YBCO_Y_cleave_3.0_sep.pwi
Warning: card &IONS ignored
Warning: card     ION_DYNAMICS = 'BFGS' ignored
Warning: card / ignored
Warning: card &CELL ignored
Warning: card     CELL_DYNAMICS = 'BFGS' ignored
Warning: card     PRESS_CONV_THR = 5 ignored
Warning: card / ignored

     Current dimensions of program PWSCF are:
     Max number of different atomic species (ntypx) = 10
     Max number of k-points (npk) =  40000
     Max angular momentum in pseudopotentials (lmaxx) =  3
     Message from routine volume:
     axis vectors are left-handed

     Message from routine setup:
     using ibrav=0 with symmetry is DISCOURAGED, use correct ibrav instead

     bravais-lattice index     =            0
     lattice parameter (alat)  =      20.5021  a.u.
     unit-cell volume          =   36917.4932 (a.u.)^3
     number of atoms/cell      =          224
     number of atomic types    =            5
     number of electrons       =      1830.00
     number of Kohn-Sham states=         1098
     kinetic-energy cutoff     =      60.0000  Ry
     charge density cutoff     =     720.0000  Ry
     convergence threshold     =      1.0E-08
     mixing beta               =       0.5000
     number of iterations used =           10  local-TF  mixing
     Exchange-correlation= SLA PW PBE PBE
                           (   1   4   3   4   0   0   0)

     celldm(1)=  20.502120  celldm(2)=   0.000000  celldm(3)=   0.000000
     celldm(4)=   0.000000  celldm(5)=   0.000000  celldm(6)=   0.000000

     crystal axes: (cart. coord. in units of alat)
               a(1) = (  -0.716599   0.697485   0.000000 )
               a(2) = (   0.716599   0.697485   0.000000 )
               a(3) = (   0.000000   0.000000   4.285432 )

     reciprocal axes: (cart. coord. in units 2 pi/alat)
               b(1) = ( -0.697740  0.716861  0.000000 )
               b(2) = (  0.697740  0.716861  0.000000 )
               b(3) = (  0.000000  0.000000  0.233349 )

     PseudoPot. # 1 for Ba read from file:
     ./pseudo/Ba.pbe-nsp-van.UPF
     MD5 check sum: 2b9c31dd849566dd297d80989662b7a0
     Pseudo is Ultrasoft + core correction, Zval = 10.0
     Generated by new atomic code, or converted to UPF format
     Using radial grid of  907 points,  6 beta functions with:
                l(1) =   0
                l(2) =   0
                l(3) =   1
                l(4) =   1
                l(5) =   2
                l(6) =   2
     Q(r) pseudized with  6 coefficients,  rinner =    1.200   1.200   1.200
                                                       1.200   1.200

     PseudoPot. # 2 for Ca read from file:
     ./pseudo/Ca.pbe-nsp-van.UPF
     MD5 check sum: 6471098428ff4fa451746d08035ff179
     Pseudo is Ultrasoft + core correction, Zval = 10.0
     Generated by new atomic code, or converted to UPF format
     Using radial grid of  845 points,  6 beta functions with:
                l(1) =   0
                l(2) =   0
                l(3) =   1
                l(4) =   1
                l(5) =   2
                l(6) =   2
     Q(r) pseudized with  6 coefficients,  rinner =    1.200   1.200   1.200
                                                       1.200   1.200

     PseudoPot. # 3 for Cu read from file:
     ./pseudo/Cu.pbe-n-van_ak.UPF
     MD5 check sum: 34e3282627ffb533726feb647e090d62
     Pseudo is Ultrasoft + core correction, Zval = 11.0
     Generated by new atomic code, or converted to UPF format
     Using radial grid of  867 points,  6 beta functions with:
                l(1) =   0
                l(2) =   0
                l(3) =   1
                l(4) =   1
                l(5) =   2
                l(6) =   2
     Q(r) pseudized with  8 coefficients,  rinner =    1.400   1.400   1.400
                                                       1.400   1.400

     PseudoPot. # 4 for O  read from file:
     ./pseudo/O.pbe-van_ak.UPF
     MD5 check sum: 783ce7fe4c79b6a4916957118fed0856
     Pseudo is Ultrasoft, Zval =  6.0
     Generated by new atomic code, or converted to UPF format
     Using radial grid of  737 points,  4 beta functions with:
                l(1) =   0
                l(2) =   0
                l(3) =   1
                l(4) =   1
     Q(r) pseudized with  8 coefficients,  rinner =    0.800   0.800   0.800

     PseudoPot. # 5 for Y  read from file:
     ./pseudo/Y.pbe-nsp-van.UPF
     MD5 check sum: 4412fed3ab108fed87a1b7d6a69a4a38
     Pseudo is Ultrasoft + core correction, Zval = 11.0
     Generated by new atomic code, or converted to UPF format
     Using radial grid of  885 points,  6 beta functions with:
                l(1) =   0
                l(2) =   0
                l(3) =   1
                l(4) =   1
                l(5) =   2
                l(6) =   2
     Q(r) pseudized with  6 coefficients,  rinner =    1.200   1.200   1.200
                                                       1.200   1.200

     atomic species   valence    mass     pseudopotential
        Ba            10.00   137.32700     Ba( 1.00)
        Ca            10.00    40.07800     Ca( 1.00)
        Cu            11.00    63.54600     Cu( 1.00)
        O              6.00    15.99900     O ( 1.00)
        Y             11.00    88.90584     Y ( 1.00)

      4 Sym. Ops. (no inversion) found ( 3 have fractional translation)

   Cartesian axes

     site n.     atom                  positions (alat units)
         1           O   tau(   1) = (   0.3545921   0.8718562  -0.0077406  )
         2           O   tau(   2) = (   0.0037072   0.8718562  -0.0077406  )
         3           Cu  tau(   3) = (  -0.0002581   0.0006065   0.0080789  )
         4           Cu  tau(   4) = (  -0.0002581   0.3481364   0.0080789  )
         5           Cu  tau(   5) = (   0.3585574   0.3481364   0.0080789  )
         6           Cu  tau(   6) = (  -0.3580421   0.6980913   0.0080789  )
         7           Cu  tau(   7) = (   0.3577988   0.6971373   0.0086255  )
         8           Cu  tau(   8) = (   0.0005005   1.0465760   0.0086255  )
         9           Cu  tau(   9) = (  -0.3588016   0.3490903   0.0086255  )
        10           Cu  tau(  10) = (   0.0005005   0.6971373   0.0086255  )
        11           O   tau(  11) = (  -0.0001733   0.5225410  -0.0089757  )
        12           O   tau(  12) = (   0.3584726   0.5225410  -0.0089757  )
        13           O   tau(  13) = (  -0.0001733   1.2211724  -0.0089757  )
        14           O   tau(  14) = (  -0.3581278   0.5236867  -0.0089757  )
        15           O   tau(  15) = (  -0.3544557   0.8718562  -0.0105593  )
        16           O   tau(  16) = (  -0.0038445   0.1743714  -0.0105593  )
        17           O   tau(  17) = (   0.3588818   0.3486599   0.1817056  )
        18           O   tau(  18) = (  -0.0005825   0.3486599   0.1817056  )
        19           O   tau(  19) = (  -0.0005825   0.0000830   0.1817056  )
        20           O   tau(  20) = (  -0.3577167   0.6975677   0.1817056  )
        21           O   tau(  21) = (   0.3584283   0.6967843   0.1825784  )
        22           O   tau(  22) = (  -0.3581712   0.3494443   0.1825784  )
        23           O   tau(  23) = (  -0.0001290   0.6967843   0.1825784  )
        24           O   tau(  24) = (  -0.0001290   1.0469291   0.1825784  )
        25           Ba  tau(  25) = (   0.1791506   0.8718562   0.1908537  )
        26           Ba  tau(  26) = (   0.5374498   0.5231143   0.1919901  )
        27           Ba  tau(  27) = (  -0.1791506   0.5231143   0.1919901  )
        28           Ba  tau(  28) = (  -0.1793773   0.8718562   0.1931958  )
        29           Ba  tau(  29) = (  -0.1789238   0.1743714   0.1931958  )
        30           Ba  tau(  30) = (   0.1791506   0.5222101   0.1929368  )
        31           Ba  tau(  31) = (  -0.5374498   0.5240176   0.1929368  )
        32           Ba  tau(  32) = (   0.1791506   0.1743714   0.1992469  )
        33           Cu  tau(  33) = (  -0.3583426   0.3488452   0.3777458  )
        34           Cu  tau(  34) = (   0.3582559   0.6973834   0.3777458  )
        35           Cu  tau(  35) = (   0.0000433   0.6973834   0.3777458  )
        36           Cu  tau(  36) = (   0.0000433   1.0463299   0.3777458  )
        37           Cu  tau(  37) = (  -0.3586541   0.6975060   0.3775126  )
        38           Cu  tau(  38) = (   0.3579444   0.3487217   0.3775126  )
        39           Cu  tau(  39) = (   0.0003549   0.0000212   0.3775126  )
        40           Cu  tau(  40) = (   0.0003549   0.3487217   0.3775126  )
        41           O   tau(  41) = (  -0.0047976   0.1743714   0.3996864  )
        42           O   tau(  42) = (  -0.3535026   0.8718562   0.3996864  )
        43           O   tau(  43) = (  -0.5374498   0.6924605   0.3956991  )
        44           O   tau(  44) = (   0.1791506   0.3537672   0.3956991  )
        45           O   tau(  45) = (   0.3586385   0.8718562   0.4046840  )
        46           O   tau(  46) = (  -0.0003392   0.8718562   0.4046840  )
        47           O   tau(  47) = (  -0.0004857   0.5230571   0.4066611  )
        48           O   tau(  48) = (   0.3587850   0.5230571   0.4066611  )
        49           O   tau(  49) = (  -0.3578135   0.5231714   0.4066611  )
        50           O   tau(  50) = (  -0.0004857   1.2206562   0.4066611  )
        51           O   tau(  51) = (   0.1791506   1.0461604   0.4028931  )
        52           O   tau(  52) = (   0.1791506   0.6975521   0.4028931  )
        53           O   tau(  53) = (  -0.1792261   0.6967170   0.4025963  )
        54           O   tau(  54) = (  -0.1790731   0.3495106   0.4025963  )
        55           O   tau(  55) = (  -0.1792261   1.0469964   0.4025963  )
        56           O   tau(  56) = (   0.5375263   0.6967170   0.4025963  )
        57           Ca  tau(  57) = (   0.1791506   0.1743714   0.5358617  )
        58           Y   tau(  58) = (  -0.1811525   0.8718562   0.5373908  )
        59           Y   tau(  59) = (  -0.1771467   0.1743714   0.5373908  )
        60           Y   tau(  60) = (   0.1791506   0.8718562   0.5379568  )
[...]
       210           O   tau( 210) = (   0.0037081   0.8718562   2.4406239  )
       211           Cu  tau( 211) = (  -0.0002516   0.0006074   2.4248200  )
       212           Cu  tau( 212) = (  -0.0002516   0.3481345   2.4248200  )
       213           Cu  tau( 213) = (   0.3585509   0.3481345   2.4248200  )
       214           Cu  tau( 214) = (  -0.3580476   0.6980931   2.4248200  )
       215           Cu  tau( 215) = (   0.3577960   0.6971373   2.4242735  )
       216           Cu  tau( 216) = (   0.0005033   1.0465760   2.4242735  )
       217           Cu  tau( 217) = (  -0.3588035   0.3490903   2.4242735  )
       218           Cu  tau( 218) = (   0.0005033   0.6971373   2.4242735  )
       219           O   tau( 219) = (  -0.0001724   0.5225410   2.4418627  )
       220           O   tau( 220) = (   0.3584716   0.5225410   2.4418627  )
       221           O   tau( 221) = (  -0.0001724   1.2211724   2.4418627  )
[...]

   -41.1785 -41.1765 -41.1732 -41.1693 -41.1662 -41.1390 -41.1383 -38.8122
   -38.1967 -38.1696 -38.1662 -38.1626 -38.1602 -38.1466 -38.1449 -35.7339
   -23.1103 -23.0465 -23.0201 -22.9809 -22.9503 -22.8530 -22.8207 -22.8143
   -22.7684 -22.7569 -22.7489 -22.7274 -22.6659 -22.6638 -22.6587 -22.6532
   -22.6215 -22.6193 -22.5788 -22.5455 -22.5245 -22.4403 -22.4135 -22.3909
   -22.3850 -22.3815 -22.3733 -22.3054 -22.2887 -22.2879 -22.2837 -22.2431
   -21.3397 -21.3168 -21.3061 -21.3034 -21.2925 -21.2684 -21.2628 -21.2520
   -21.2294 -21.2114 -21.2064 -21.1912 -21.1629 -21.1455 -21.1393 -21.1354
   -21.0968 -21.0912 -21.0844 -21.0511 -21.0287 -19.8758 -19.8612 -19.8452
   -18.7756 -18.7027 -18.6971 -18.6716 -18.6478 -18.6090 -18.5712 -18.5605
   -18.5060 -18.4987 -18.4785 -18.4767 -18.4698 -18.3958 -18.3704 -18.3348
   -18.3096 -18.2908 -18.2861 -18.2168 -18.1639 -16.9932 -16.9648 -16.9583
   -16.1667 -16.0654 -16.0185 -15.9192 -15.7423 -15.6943 -15.6572 -15.5761
   -15.5624 -15.5517 -15.4825 -15.4562 -15.4267 -15.3455 -15.3408 -15.3400
   -15.2052 -15.1529 -15.0829 -14.9579 -14.8452 -14.8156 -14.7972 -14.7823
   -14.7470 -14.7284 -14.6681 -14.6573 -14.6424 -14.6373 -14.6328 -14.6273
   -14.6006 -14.5980 -14.5777 -14.5581 -14.5404 -14.5290 -14.5277 -14.5249
   -14.5220 -14.5179 -14.4716 -14.4670 -14.4547 -14.4521 -14.4507 -14.4503
   -14.4260 -14.4243 -14.4234 -14.4078 -14.3753 -14.3681 -14.3394 -14.3043
   -14.2824 -14.2725 -14.2653 -14.2564 -14.2379 -14.2238 -14.2080 -14.1861
   -14.1774 -14.1716 -14.1716 -14.1676 -14.1515 -14.1375 -14.1245 -14.1160
   -14.1156 -14.1073 -14.0847 -14.0753 -14.0631 -14.0367 -13.9692 -13.9338
   -13.9251 -13.9235 -13.8959 -13.8895 -13.8788 -13.8737 -13.8575 -13.8568
   -13.8225 -13.8152 -13.8071 -13.8040 -13.7981 -13.7930 -13.7928 -13.7873
   -13.7780 -13.7779 -13.7710 -13.7644 -13.7586 -13.7344 -13.7235 -13.7215
   -13.7142 -13.7137 -13.7010 -13.6685 -13.6497 -13.6394 -13.6298 -13.5967
   -13.5754 -13.5095 -13.4590 -13.4510 -13.3645 -13.2943 -13.2766 -13.2065
    -8.7737  -8.5942  -8.5871  -8.5261  -8.5082  -8.4926  -8.4713  -8.4346
    -8.4218  -8.3875  -8.3592  -8.3505  -8.3141  -8.3085  -8.3049  -8.2867
    -8.2725  -8.2482  -8.2119  -8.2071  -8.1788  -8.1540  -8.1493  -8.1474
    -8.1087  -8.0920  -8.0681  -8.0563  -8.0550  -8.0457  -8.0429  -8.0186
    -8.0149  -8.0113  -8.0003  -7.9942  -7.9928  -7.9897  -7.9809  -7.9757
    -7.9678  -7.9664  -7.9632  -7.9607  -7.9544  -7.9495  -7.9481  -7.9388
    -7.9296  -7.9167  -7.9031  -7.8859  -7.8384  -7.8202  -7.8173  -7.8123
    -7.7934  -7.7849  -7.7837  -7.7786  -7.7465  -7.7437  -7.7275  -7.7148
    -7.6921  -7.6914  -7.6684  -7.6594  -7.6560  -7.6417  -7.6374  -7.6373
    -7.6304  -7.6283  -7.6189  -7.6147  -7.6028  -7.5873  -7.5832  -7.5527
    -7.5462  -7.5379  -7.5061  -7.5051  -7.5009  -7.4734  -7.4485  -7.4382
    -7.4217  -7.3930  -7.3748  -7.3527  -7.3219  -7.2908  -7.2841  -7.2637
    -4.5633  -4.1811  -4.1170  -3.9935  -3.9872  -3.5751  -3.5243  -3.4922
    -3.4875  -3.4467  -3.4371  -3.4174  -3.2559  -3.1673  -3.1553  -3.1265
    -3.1032  -3.0957  -3.0484  -2.9448  -2.9258  -2.9168  -2.9105  -2.8870
    -2.8607  -2.8478  -2.8423  -2.8314  -2.8126  -2.7848  -2.7788  -2.7725
    -2.7610  -2.7570  -2.7329  -2.6729  -2.6658  -2.6400  -2.6041  -2.5864
    -2.5546  -2.5453  -2.5240  -2.5199  -2.4448  -2.4259  -2.4220  -2.4065
    -2.3678  -2.3491  -2.3443  -2.3260  -2.3110  -2.3095  -2.2728  -2.2717
    -2.2632  -2.2558  -2.2048  -2.1914  -2.1832  -2.1641  -2.1518  -2.1415
    -2.1381  -2.1345  -2.1232  -2.1022  -2.0828  -2.0789  -2.0709  -2.0654
    -2.0622  -2.0545  -2.0524  -2.0520  -2.0496  -2.0375  -2.0321  -2.0189
    -2.0187  -2.0123  -1.9897  -1.9885  -1.9819  -1.9781  -1.9749  -1.9731
    -1.9638  -1.9599  -1.9370  -1.9309  -1.9152  -1.8960  -1.8919  -1.8885
    -1.8846  -1.8782  -1.8779  -1.8711  -1.8612  -1.8601  -1.8537  -1.8457
    -1.8242  -1.8205  -1.8134  -1.8088  -1.8002  -1.7918  -1.7918  -1.7857
    -1.7798  -1.7609  -1.7600  -1.7587  -1.7387  -1.7303  -1.7295  -1.7090
    -1.6962  -1.6773  -1.6661  -1.6448  -1.6370  -1.6263  -1.6227  -1.5686
    -1.5671  -1.5594  -1.5388  -1.5253  -1.4760  -1.4523  -1.4017  -1.3757
    -1.3489  -1.3386  -1.3296  -1.3273  -1.3136  -1.2957  -1.2868  -1.2792
    -1.2643  -1.2508  -1.2481  -1.2137  -1.2044  -1.1471  -1.1300  -1.1188
    -1.1020  -1.0934  -1.0507  -1.0502  -1.0167  -0.9855  -0.9829  -0.9791
    -0.9773  -0.9649  -0.9570  -0.9512  -0.9433  -0.9407  -0.9334  -0.9253
[...]
     5.7701   5.8146   5.9966   6.0634   6.1941   6.1948   6.2392   6.2498
     6.2588   6.3559   6.3901   6.4280   6.4446   6.4831   6.4874   6.4939
     6.5769   6.5833   6.5999   6.6049   6.6156   6.6182   6.6571   6.6780
     6.7096   6.7197   6.7360   6.7532   6.7533   6.7567   6.7758   6.7971
     6.8156   6.8421   6.8440   6.9132   6.9716   7.0178   7.0254   7.0522
     7.0849   7.0888   7.2366   7.2385   7.3194   7.3324   7.3480   7.3971
     7.4507   7.5250   7.5860   7.8035   7.8472   7.8567   7.8572   7.8800
     7.8877   7.8878   7.9085   7.9251   7.9346   7.9536   7.9660   8.0195
     8.0431   8.0563   8.1141   8.1153   8.1335   8.1413   8.1522   8.1523
     8.1765   8.2238   8.2726   8.3008   8.3146   8.3426   8.3489   8.3548
     8.3666   8.4002   8.4079   8.4298   8.4306   8.4932   8.4945   8.5168
     8.5572   8.6586   8.6787   8.7085   8.7136   8.7311   8.7560   8.7711
     8.7993   8.8663   8.8664   8.8797   8.8843   8.8952   8.9130   8.9346
     8.9916   9.0389   9.0679   9.0690   9.0787   9.0892   9.1111   9.1170
     9.1430   9.1640

     the Fermi energy is     2.8495 ev

!    total energy              =  -14921.58042868 Ry
     Harris-Foulkes estimate   =  -14921.58042864 Ry
     estimated scf accuracy    <          7.1E-09 Ry

     The total energy is the sum of the following terms:

     one-electron contribution = -233297.19328456 Ry
     hartree contribution      =  117865.42064871 Ry
     xc contribution           =   -5114.03464554 Ry
     ewald contribution        =  105624.29171440 Ry
     smearing contrib. (-TS)   =      -0.06486169 Ry

     convergence has been achieved in  48 iterations

     negative rho (up, down):  6.306E-01 0.000E+00

     Forces acting on atoms (cartesian axes, Ry/au):

     atom    1 type  4   force =     0.00011664    0.00000000    0.00022437
     atom    2 type  4   force =    -0.00011664    0.00000000    0.00022437
     atom    3 type  3   force =     0.00008084   -0.00007869   -0.00020813
     atom    4 type  3   force =     0.00008084    0.00007869   -0.00020813
     atom    5 type  3   force =    -0.00008084    0.00007869   -0.00020813
     atom    6 type  3   force =    -0.00008084   -0.00007869   -0.00020813
     atom    7 type  3   force =    -0.00001733   -0.00000628   -0.00035644
     atom    8 type  3   force =     0.00001733    0.00000628   -0.00035644
     atom    9 type  3   force =    -0.00001733    0.00000628   -0.00035644
     atom   10 type  3   force =     0.00001733   -0.00000628   -0.00035644
     atom   11 type  4   force =    -0.00010368    0.00007752    0.00014577
     atom   12 type  4   force =     0.00010368    0.00007752    0.00014577
     atom   13 type  4   force =    -0.00010368   -0.00007752    0.00014577
     atom   14 type  4   force =     0.00010368   -0.00007752    0.00014577
     atom   15 type  4   force =    -0.00016834    0.00000000    0.00014875
     atom   16 type  4   force =     0.00016834    0.00000000    0.00014875
     atom   17 type  4   force =     0.00003019    0.00005207    0.00034319
     atom   18 type  4   force =    -0.00003019    0.00005207    0.00034319
     atom   19 type  4   force =    -0.00003019   -0.00005207    0.00034319
     atom   20 type  4   force =     0.00003019   -0.00005207    0.00034319
     atom   21 type  4   force =     0.00002571    0.00008494    0.00047872
     atom   22 type  4   force =     0.00002571   -0.00008494    0.00047872
     atom   23 type  4   force =    -0.00002571    0.00008494    0.00047872
     atom   24 type  4   force =    -0.00002571   -0.00008494    0.00047872
     atom   25 type  1   force =     0.00000000    0.00000000   -0.00000529
     atom   26 type  1   force =     0.00000000    0.00000000   -0.00010300
     atom   27 type  1   force =     0.00000000    0.00000000   -0.00010300
     atom   28 type  1   force =    -0.00018388    0.00000000    0.00000948
     atom   29 type  1   force =     0.00018388    0.00000000    0.00000948
     atom   30 type  1   force =     0.00000000    0.00010116   -0.00023475
     atom   31 type  1   force =     0.00000000   -0.00010116   -0.00023475
     atom   32 type  1   force =     0.00000000    0.00000000   -0.00012644
     atom   33 type  3   force =    -0.00004317   -0.00000742   -0.00014614
     atom   34 type  3   force =    -0.00004317    0.00000742   -0.00014614
     atom   35 type  3   force =     0.00004317    0.00000742   -0.00014614
     atom   36 type  3   force =     0.00004317   -0.00000742   -0.00014614
     atom   37 type  3   force =     0.00003937    0.00001645   -0.00021605
     atom   38 type  3   force =     0.00003937   -0.00001645   -0.00021605
     atom   39 type  3   force =    -0.00003937    0.00001645   -0.00021605
     atom   40 type  3   force =    -0.00003937   -0.00001645   -0.00021605
     atom   41 type  4   force =    -0.00016577    0.00000000   -0.00017382
     atom   42 type  4   force =     0.00016577    0.00000000   -0.00017382
     atom   43 type  4   force =     0.00000000   -0.00000239    0.00015644
     atom   44 type  4   force =     0.00000000    0.00000239    0.00015644
     atom   45 type  4   force =     0.00005878    0.00000000   -0.00011586
     atom   46 type  4   force =    -0.00005878    0.00000000   -0.00011586
     atom   47 type  4   force =    -0.00002495   -0.00000131   -0.00003782
     atom   48 type  4   force =     0.00002495   -0.00000131   -0.00003782
     atom   49 type  4   force =     0.00002495    0.00000131   -0.00003782
     atom   50 type  4   force =    -0.00002495    0.00000131   -0.00003782
     atom   51 type  4   force =     0.00000000   -0.00002265    0.00010158
     atom   52 type  4   force =     0.00000000    0.00002265    0.00010158
     atom   53 type  4   force =     0.00008797    0.00001017    0.00026358
     atom   54 type  4   force =    -0.00008797   -0.00001017    0.00026358
     atom   55 type  4   force =     0.00008797   -0.00001017    0.00026358
     atom   56 type  4   force =    -0.00008797    0.00001017    0.00026358
     atom   57 type  2   force =     0.00000000    0.00000000   -0.00030324
     atom   58 type  5   force =     0.00032586    0.00000000   -0.00064029
     atom   59 type  5   force =    -0.00032586    0.00000000   -0.00064029
     atom   60 type  5   force =     0.00000000    0.00000000   -0.00015482
[...]
     atom  210 type  4   force =    -0.00019523    0.00000000    0.00569281
     atom  211 type  3   force =     0.00021191    0.00000921   -0.00293926
     atom  212 type  3   force =     0.00021191   -0.00000921   -0.00293926
     atom  213 type  3   force =    -0.00021191   -0.00000921   -0.00293926
     atom  214 type  3   force =    -0.00021191    0.00000921   -0.00293926
     atom  215 type  3   force =     0.00007270   -0.00019536   -0.00311868
     atom  216 type  3   force =    -0.00007270    0.00019536   -0.00311868
     atom  217 type  3   force =     0.00007270    0.00019536   -0.00311868
     atom  218 type  3   force =    -0.00007270   -0.00019536   -0.00311868
     atom  219 type  4   force =    -0.00008040    0.00101884    0.00532373
     atom  220 type  4   force =     0.00008040    0.00101884    0.00532373
     atom  221 type  4   force =    -0.00008040   -0.00101884    0.00532373
     atom  222 type  4   force =     0.00008040   -0.00101884    0.00532373
     atom  223 type  4   force =    -0.00034692    0.00000000    0.00462064
     atom  224 type  4   force =     0.00034692    0.00000000    0.00462064

     Total force =     0.439107     Total SCF correction =     0.000357

     Computing stress (Cartesian axis) and pressure

     negative rho (up, down):  6.306E-01 0.000E+00
          total   stress  (Ry/bohr**3)                   (kbar)     P=      -10.02
  -0.00004205   0.00000000   0.00000000           -6.19        0.00        0.00
   0.00000000  -0.00003551   0.00000000            0.00       -5.22        0.00
   0.00000000   0.00000000  -0.00012683            0.00        0.00      -18.66

     General routines

     Parallel routines

   This run was terminated on:  13:38:55  18May2021

   JOB DONE.
[1621359536.060906] [holy7c08211:214700:0]          mpool.c:43   UCX  WARN  object 0x42ef280 was not returned to mpool ucp_requests
[1621359536.076368] [holy7c08208:65037:0]          mpool.c:43   UCX  WARN  object 0x4e03d00 was not returned to mpool ucp_requests
[1621359536.089082] [holy7c08210:201983:0]          mpool.c:43   UCX  WARN  object 0x42d6440 was not returned to mpool ucp_requests
[1621359536.061629] [holy7c08211:214706:0]          mpool.c:43   UCX  WARN  object 0x465e200 was not returned to mpool ucp_requests
[1621359536.060806] [holy7c08211:214698:0]          mpool.c:43   UCX  WARN  object 0x3ae7380 was not returned to mpool ucp_requests
[1621359536.070650] [holy7c08211:214699:0]          mpool.c:43   UCX  WARN  object 0x31bff80 was not returned to mpool ucp_requests
[1621359536.073056] [holy7c08211:214701:0]          mpool.c:43   UCX  WARN  object 0x59166c0 was not returned to mpool ucp_requests
[1621359536.080399] [holy7c08208:65035:0]          mpool.c:43   UCX  WARN  object 0x2954600 was not returned to mpool ucp_requests
[1621359536.080893] [holy7c08208:65034:0]          mpool.c:43   UCX  WARN  object 0x44f7200 was not returned to mpool ucp_requests
[1621359536.081268] [holy7c08208:65029:0]          mpool.c:43   UCX  WARN  object 0x5d915c0 was not returned to mpool ucp_requests
[1621359536.086366] [holy7c08208:65027:0]          mpool.c:43   UCX  WARN  object 0x3db9c40 was not returned to mpool ucp_requests
[1621359536.090518] [holy7c08208:65028:0]          mpool.c:43   UCX  WARN  object 0x46a7c00 was not returned to mpool ucp_requests
[1621359536.088953] [holy7c08208:65036:0]          mpool.c:43   UCX  WARN  object 0x2c84180 was not returned to mpool ucp_requests
[1621359536.094464] [holy7c08208:65026:0]          mpool.c:43   UCX  WARN  object 0x2a13240 was not returned to mpool ucp_requests
[1621359536.089401] [holy7c08108:122440:0]          mpool.c:43   UCX  WARN  object 0x2a40d80 was not returned to mpool ucp_requests
[1621359536.089968] [holy7c08108:122434:0]          mpool.c:43   UCX  WARN  object 0x5c8d200 was not returned to mpool ucp_requests
[1621359536.087770] [holy7c08108:122433:0]          mpool.c:43   UCX  WARN  object 0x4337840 was not returned to mpool ucp_requests
[1621359536.093237] [holy7c08108:122439:0]          mpool.c:43   UCX  WARN  object 0x40e4840 was not returned to mpool ucp_requests
[1621359536.088466] [holy7c08108:122441:0]          mpool.c:43   UCX  WARN  object 0x4473cc0 was not returned to mpool ucp_requests
[1621359536.088487] [holy7c08108:122441:0]          mpool.c:43   UCX  WARN  object 0x447df80 was not returned to mpool ucp_requests
[1621359536.093105] [holy7c08108:122432:0]          mpool.c:43   UCX  WARN  object 0x3002b00 was not returned to mpool ucp_requests
[1621359536.103971] [holy7c08108:122442:0]          mpool.c:43   UCX  WARN  object 0x3ee5dc0 was not returned to mpool ucp_requests
[1621359536.088984] [holy7c08210:201985:0]          mpool.c:43   UCX  WARN  object 0x2e40c80 was not returned to mpool ucp_requests
[1621359536.092793] [holy7c08210:201977:0]          mpool.c:43   UCX  WARN  object 0x4064dc0 was not returned to mpool ucp_requests
[1621359536.098612] [holy7c08210:201984:0]          mpool.c:43   UCX  WARN  object 0x443d5c0 was not returned to mpool ucp_requests
[1621359536.096169] [holy7c08210:201976:0]          mpool.c:43   UCX  WARN  object 0x68cf180 was not returned to mpool ucp_requests
[1621359536.101234] [holy7c08210:201975:0]          mpool.c:43   UCX  WARN  object 0x43992c0 was not returned to mpool ucp_requests
[1621359536.102892] [holy7c08210:201986:0]          mpool.c:43   UCX  WARN  object 0x3691c00 was not returned to mpool ucp_requests
[1621359536.103178] [holy7c08210:201978:0]          mpool.c:43   UCX  WARN  object 0x3aefb80 was not returned to mpool ucp_requests
[1621359536.094090] [holy7c08212:63096:0]          mpool.c:43   UCX  WARN  object 0x3379dc0 was not returned to mpool ucp_requests
[1621359536.100791] [holy7c08212:63097:0]          mpool.c:43   UCX  WARN  object 0x443bac0 was not returned to mpool ucp_requests
[1621359536.116672] [holy7c08212:63098:0]          mpool.c:43   UCX  WARN  object 0x3a609c0 was not returned to mpool ucp_requests