     Program PWSCF v.6.5 starts on 18May2021 at 10:59:51

     R & G space division:  proc/nbgrp/npool/nimage =      80
     Reading input from YBCO_Y_cleave_2.5_sep.pwi
Warning: card &IONS ignored
Warning: card     ION_DYNAMICS = 'BFGS' ignored
Warning: card / ignored
Warning: card &CELL ignored
Warning: card     CELL_DYNAMICS = 'BFGS' ignored
Warning: card     PRESS_CONV_THR = 5 ignored
Warning: card / ignored

     Current dimensions of program PWSCF are:
     Max number of different atomic species (ntypx) = 10
     Max number of k-points (npk) =  40000
     Max angular momentum in pseudopotentials (lmaxx) =  3
     Message from routine volume:
     axis vectors are left-handed

     Message from routine setup:
     using ibrav=0 with symmetry is DISCOURAGED, use correct ibrav instead

     bravais-lattice index     =            0
     lattice parameter (alat)  =      20.5021  a.u.
     unit-cell volume          =   36520.4775 (a.u.)^3
     number of atoms/cell      =          224
     number of atomic types    =            5
     number of electrons       =      1830.00
     number of Kohn-Sham states=         1098
     kinetic-energy cutoff     =      60.0000  Ry
     charge density cutoff     =     720.0000  Ry
     convergence threshold     =      1.0E-08
     mixing beta               =       0.5000
     number of iterations used =           10  local-TF  mixing
     Exchange-correlation= SLA PW PBE PBE
                           (   1   4   3   4   0   0   0)

     celldm(1)=  20.502120  celldm(2)=   0.000000  celldm(3)=   0.000000
     celldm(4)=   0.000000  celldm(5)=   0.000000  celldm(6)=   0.000000

     crystal axes: (cart. coord. in units of alat)
               a(1) = (  -0.716599   0.697485   0.000000 )
               a(2) = (   0.716599   0.697485   0.000000 )
               a(3) = (   0.000000   0.000000   4.239346 )

     reciprocal axes: (cart. coord. in units 2 pi/alat)
               b(1) = ( -0.697740  0.716861  0.000000 )
               b(2) = (  0.697740  0.716861  0.000000 )
               b(3) = (  0.000000  0.000000  0.235885 )

     PseudoPot. # 1 for Ba read from file:
     ./pseudo/Ba.pbe-nsp-van.UPF
     MD5 check sum: 2b9c31dd849566dd297d80989662b7a0
     Pseudo is Ultrasoft + core correction, Zval = 10.0
     Generated by new atomic code, or converted to UPF format
     Using radial grid of  907 points,  6 beta functions with:
                l(1) =   0
                l(2) =   0
                l(3) =   1
                l(4) =   1
                l(5) =   2
                l(6) =   2
     Q(r) pseudized with  6 coefficients,  rinner =    1.200   1.200   1.200
                                                       1.200   1.200

     PseudoPot. # 2 for Ca read from file:
     ./pseudo/Ca.pbe-nsp-van.UPF
     MD5 check sum: 6471098428ff4fa451746d08035ff179
     Pseudo is Ultrasoft + core correction, Zval = 10.0
     Generated by new atomic code, or converted to UPF format
     Using radial grid of  845 points,  6 beta functions with:
                l(1) =   0
                l(2) =   0
                l(3) =   1
                l(4) =   1
                l(5) =   2
                l(6) =   2
     Q(r) pseudized with  6 coefficients,  rinner =    1.200   1.200   1.200
                                                       1.200   1.200

     PseudoPot. # 3 for Cu read from file:
     ./pseudo/Cu.pbe-n-van_ak.UPF
     MD5 check sum: 34e3282627ffb533726feb647e090d62
     Pseudo is Ultrasoft + core correction, Zval = 11.0
     Generated by new atomic code, or converted to UPF format
     Using radial grid of  867 points,  6 beta functions with:
                l(1) =   0
                l(2) =   0
                l(3) =   1
                l(4) =   1
                l(5) =   2
                l(6) =   2
     Q(r) pseudized with  8 coefficients,  rinner =    1.400   1.400   1.400
                                                       1.400   1.400

     PseudoPot. # 4 for O  read from file:
     ./pseudo/O.pbe-van_ak.UPF
     MD5 check sum: 783ce7fe4c79b6a4916957118fed0856
     Pseudo is Ultrasoft, Zval =  6.0
     Generated by new atomic code, or converted to UPF format
     Using radial grid of  737 points,  4 beta functions with:
                l(1) =   0
                l(2) =   0
                l(3) =   1
                l(4) =   1
     Q(r) pseudized with  8 coefficients,  rinner =    0.800   0.800   0.800

     PseudoPot. # 5 for Y  read from file:
     ./pseudo/Y.pbe-nsp-van.UPF
     MD5 check sum: 4412fed3ab108fed87a1b7d6a69a4a38
     Pseudo is Ultrasoft + core correction, Zval = 11.0
     Generated by new atomic code, or converted to UPF format
     Using radial grid of  885 points,  6 beta functions with:
                l(1) =   0
                l(2) =   0
                l(3) =   1
                l(4) =   1
                l(5) =   2
                l(6) =   2
     Q(r) pseudized with  6 coefficients,  rinner =    1.200   1.200   1.200
                                                       1.200   1.200

     atomic species   valence    mass     pseudopotential
        Ba            10.00   137.32700     Ba( 1.00)
        Ca            10.00    40.07800     Ca( 1.00)
        Cu            11.00    63.54600     Cu( 1.00)
        O              6.00    15.99900     O ( 1.00)
        Y             11.00    88.90584     Y ( 1.00)

      4 Sym. Ops. (no inversion) found ( 3 have fractional translation)

   Cartesian axes

     site n.     atom                  positions (alat units)
         1           O   tau(   1) = (   0.3545921   0.8718562  -0.0077406  )
         2           O   tau(   2) = (   0.0037072   0.8718562  -0.0077406  )
         3           Cu  tau(   3) = (  -0.0002581   0.0006065   0.0080789  )
         4           Cu  tau(   4) = (  -0.0002581   0.3481364   0.0080789  )
         5           Cu  tau(   5) = (   0.3585574   0.3481364   0.0080789  )
         6           Cu  tau(   6) = (  -0.3580421   0.6980913   0.0080789  )
         7           Cu  tau(   7) = (   0.3577988   0.6971373   0.0086255  )
         8           Cu  tau(   8) = (   0.0005005   1.0465760   0.0086255  )
         9           Cu  tau(   9) = (  -0.3588016   0.3490903   0.0086255  )
        10           Cu  tau(  10) = (   0.0005005   0.6971373   0.0086255  )
        11           O   tau(  11) = (  -0.0001733   0.5225410  -0.0089757  )
        12           O   tau(  12) = (   0.3584726   0.5225410  -0.0089757  )
        13           O   tau(  13) = (  -0.0001733   1.2211724  -0.0089757  )
        14           O   tau(  14) = (  -0.3581278   0.5236867  -0.0089757  )
        15           O   tau(  15) = (  -0.3544557   0.8718562  -0.0105593  )
        16           O   tau(  16) = (  -0.0038445   0.1743714  -0.0105593  )
        17           O   tau(  17) = (   0.3588818   0.3486599   0.1817056  )
        18           O   tau(  18) = (  -0.0005825   0.3486599   0.1817056  )
        19           O   tau(  19) = (  -0.0005825   0.0000830   0.1817056  )
        20           O   tau(  20) = (  -0.3577167   0.6975677   0.1817056  )
        21           O   tau(  21) = (   0.3584283   0.6967843   0.1825784  )
        22           O   tau(  22) = (  -0.3581712   0.3494443   0.1825784  )
        23           O   tau(  23) = (  -0.0001290   0.6967843   0.1825784  )
        24           O   tau(  24) = (  -0.0001290   1.0469291   0.1825784  )
        25           Ba  tau(  25) = (   0.1791506   0.8718562   0.1908537  )
        26           Ba  tau(  26) = (   0.5374498   0.5231143   0.1919901  )
        27           Ba  tau(  27) = (  -0.1791506   0.5231143   0.1919901  )
        28           Ba  tau(  28) = (  -0.1793773   0.8718562   0.1931958  )
        29           Ba  tau(  29) = (  -0.1789238   0.1743714   0.1931958  )
        30           Ba  tau(  30) = (   0.1791506   0.5222101   0.1929368  )
        31           Ba  tau(  31) = (  -0.5374498   0.5240176   0.1929368  )
        32           Ba  tau(  32) = (   0.1791506   0.1743714   0.1992469  )
        33           Cu  tau(  33) = (  -0.3583426   0.3488452   0.3777458  )
        34           Cu  tau(  34) = (   0.3582559   0.6973834   0.3777458  )
        35           Cu  tau(  35) = (   0.0000433   0.6973834   0.3777458  )
        36           Cu  tau(  36) = (   0.0000433   1.0463299   0.3777458  )
        37           Cu  tau(  37) = (  -0.3586541   0.6975060   0.3775126  )
        38           Cu  tau(  38) = (   0.3579444   0.3487217   0.3775126  )
        39           Cu  tau(  39) = (   0.0003549   0.0000212   0.3775126  )
        40           Cu  tau(  40) = (   0.0003549   0.3487217   0.3775126  )
        41           O   tau(  41) = (  -0.0047976   0.1743714   0.3996864  )
        42           O   tau(  42) = (  -0.3535026   0.8718562   0.3996864  )
        43           O   tau(  43) = (  -0.5374498   0.6924605   0.3956991  )
        44           O   tau(  44) = (   0.1791506   0.3537672   0.3956991  )
        45           O   tau(  45) = (   0.3586385   0.8718562   0.4046840  )
        46           O   tau(  46) = (  -0.0003392   0.8718562   0.4046840  )
        47           O   tau(  47) = (  -0.0004857   0.5230571   0.4066611  )
        48           O   tau(  48) = (   0.3587850   0.5230571   0.4066611  )
        49           O   tau(  49) = (  -0.3578135   0.5231714   0.4066611  )
        50           O   tau(  50) = (  -0.0004857   1.2206562   0.4066611  )
        51           O   tau(  51) = (   0.1791506   1.0461604   0.4028931  )
        52           O   tau(  52) = (   0.1791506   0.6975521   0.4028931  )
        53           O   tau(  53) = (  -0.1792261   0.6967170   0.4025963  )
        54           O   tau(  54) = (  -0.1790731   0.3495106   0.4025963  )
        55           O   tau(  55) = (  -0.1792261   1.0469964   0.4025963  )
        56           O   tau(  56) = (   0.5375263   0.6967170   0.4025963  )
        57           Ca  tau(  57) = (   0.1791506   0.1743714   0.5358617  )
        58           Y   tau(  58) = (  -0.1811525   0.8718562   0.5373908  )
        59           Y   tau(  59) = (  -0.1771467   0.1743714   0.5373908  )
        60           Y   tau(  60) = (   0.1791506   0.8718562   0.5379568  )
[...]
       210           O   tau( 210) = (   0.0037081   0.8718562   2.3945378  )
       211           Cu  tau( 211) = (  -0.0002516   0.0006074   2.3787339  )
       212           Cu  tau( 212) = (  -0.0002516   0.3481345   2.3787339  )
       213           Cu  tau( 213) = (   0.3585509   0.3481345   2.3787339  )
       214           Cu  tau( 214) = (  -0.3580476   0.6980931   2.3787339  )
       215           Cu  tau( 215) = (   0.3577960   0.6971373   2.3781873  )
       216           Cu  tau( 216) = (   0.0005033   1.0465760   2.3781873  )
       217           Cu  tau( 217) = (  -0.3588035   0.3490903   2.3781873  )
       218           Cu  tau( 218) = (   0.0005033   0.6971373   2.3781873  )
       219           O   tau( 219) = (  -0.0001724   0.5225410   2.3957766  )
       220           O   tau( 220) = (   0.3584716   0.5225410   2.3957766  )
       221           O   tau( 221) = (  -0.0001724   1.2211724   2.3957766  )
[...]
   -23.0359 -22.9716 -22.9455 -22.9061 -22.8756 -22.7782 -22.7461 -22.7142
   -22.6683 -22.6568 -22.6511 -22.6488 -22.5658 -22.5637 -22.5586 -22.5557
   -22.5242 -22.5192 -22.4814 -22.4480 -22.4272 -22.3704 -22.3218 -22.3157
   -22.3142 -22.3034 -22.2838 -22.2194 -22.2181 -22.2134 -22.2076 -22.1732
   -21.3375 -21.3050 -21.2904 -21.2880 -21.2807 -21.2578 -21.2507 -21.2364
   -21.2139 -21.1937 -21.1896 -21.1799 -21.1484 -21.1319 -21.1262 -21.1215
   -21.0899 -21.0819 -21.0767 -21.0493 -21.0286 -19.8416 -19.8381 -19.8246
   -18.6759 -18.6030 -18.5974 -18.5718 -18.5480 -18.5093 -18.4715 -18.4607
   -18.4063 -18.3990 -18.3787 -18.3770 -18.3701 -18.2961 -18.2707 -18.2351
   -18.2099 -18.1911 -18.1864 -18.1171 -18.0642 -16.8936 -16.8652 -16.8587
   -16.1253 -16.0254 -15.9765 -15.8767 -15.7032 -15.6518 -15.6186 -15.5333
   -15.5221 -15.5117 -15.4429 -15.4143 -15.3836 -15.3019 -15.2955 -15.2410
   -15.1581 -15.0530 -14.9830 -14.8580 -14.7499 -14.7158 -14.6997 -14.6824
   -14.6487 -14.6329 -14.5682 -14.5576 -14.5526 -14.5481 -14.5333 -14.5275
   -14.5060 -14.4982 -14.4780 -14.4641 -14.4435 -14.4426 -14.4421 -14.4334
   -14.4253 -14.4223 -14.3914 -14.3790 -14.3715 -14.3702 -14.3549 -14.3508
   -14.3261 -14.3243 -14.3236 -14.3079 -14.2823 -14.2754 -14.2398 -14.2059
   -14.2046 -14.1826 -14.1656 -14.1568 -14.1382 -14.1267 -14.1142 -14.0879
   -14.0780 -14.0763 -14.0721 -14.0721 -14.0649 -14.0542 -14.0522 -14.0431
   -14.0164 -14.0157 -14.0077 -13.9912 -13.9635 -13.9449 -13.8802 -13.8454
   -13.8375 -13.8360 -13.8087 -13.7935 -13.7787 -13.7736 -13.7575 -13.7568
   -13.7557 -13.7527 -13.7103 -13.7071 -13.7056 -13.7040 -13.6999 -13.6973
   -13.6896 -13.6894 -13.6710 -13.6644 -13.6617 -13.6385 -13.6382 -13.6316
   -13.6303 -13.6272 -13.6105 -13.5862 -13.5833 -13.5735 -13.5438 -13.5352
   -13.4799 -13.4588 -13.4070 -13.4006 -13.3118 -13.2402 -13.2232 -13.1526
    -8.6985  -8.5129  -8.4941  -8.4506  -8.4330  -8.4175  -8.3955  -8.3594
    -8.3481  -8.3139  -8.2835  -8.2534  -8.2141  -8.2111  -8.2084  -8.2047
    -8.1984  -8.1784  -8.1351  -8.1306  -8.1012  -8.0724  -8.0713  -8.0540
    -8.0147  -7.9922  -7.9755  -7.9659  -7.9563  -7.9471  -7.9456  -7.9244
    -7.9149  -7.9113  -7.9012  -7.8983  -7.8970  -7.8928  -7.8927  -7.8901
    -7.8896  -7.8809  -7.8756  -7.8706  -7.8665  -7.8615  -7.8572  -7.8477
    -7.8382  -7.8249  -7.8100  -7.8063  -7.7616  -7.7421  -7.7282  -7.7200
    -7.7175  -7.6883  -7.6837  -7.6816  -7.6514  -7.6436  -7.6341  -7.6174
    -7.6031  -7.5916  -7.5878  -7.5853  -7.5715  -7.5709  -7.5671  -7.5614
    -7.5442  -7.5373  -7.5282  -7.5188  -7.5183  -7.5118  -7.5058  -7.4821
    -7.4766  -7.4677  -7.4358  -7.4076  -7.4039  -7.4024  -7.3667  -7.3514
    -7.3243  -7.3228  -7.2814  -7.2772  -7.2245  -7.2203  -7.2130  -7.1937
    -4.5118  -4.1302  -4.0641  -3.9302  -3.8935  -3.4753  -3.4327  -3.4245
    -3.3926  -3.3802  -3.3613  -3.3469  -3.1602  -3.1156  -3.0595  -3.0269
    -3.0040  -2.9961  -2.9938  -2.8715  -2.8670  -2.8258  -2.8217  -2.8070
    -2.7869  -2.7851  -2.7752  -2.7554  -2.7315  -2.7227  -2.7054  -2.6951
    -2.6788  -2.6707  -2.6572  -2.5881  -2.5840  -2.5734  -2.5068  -2.5009
    -2.4985  -2.4751  -2.4569  -2.4521  -2.3792  -2.3408  -2.3393  -2.3225
    -2.2687  -2.2492  -2.2443  -2.2261  -2.2232  -2.2145  -2.2131  -2.1977
    -2.1755  -2.1720  -2.1266  -2.0917  -2.0836  -2.0830  -2.0826  -2.0697
    -2.0380  -2.0344  -2.0247  -2.0087  -1.9833  -1.9819  -1.9815  -1.9780
    -1.9723  -1.9696  -1.9650  -1.9531  -1.9499  -1.9428  -1.9388  -1.9380
    -1.9196  -1.9183  -1.9109  -1.8994  -1.8985  -1.8877  -1.8753  -1.8730
    -1.8721  -1.8642  -1.8376  -1.8316  -1.8314  -1.8142  -1.8127  -1.7921
    -1.7913  -1.7882  -1.7846  -1.7829  -1.7785  -1.7647  -1.7610  -1.7563
    -1.7489  -1.7312  -1.7247  -1.7137  -1.7105  -1.7062  -1.7033  -1.6933
    -1.6925  -1.6853  -1.6752  -1.6603  -1.6418  -1.6311  -1.6309  -1.6229
    -1.6070  -1.5968  -1.5850  -1.5814  -1.5767  -1.5463  -1.5283  -1.5226
    -1.5151  -1.4862  -1.4764  -1.4565  -1.4134  -1.3973  -1.3260  -1.3018
    -1.2893  -1.2609  -1.2565  -1.2353  -1.2322  -1.2063  -1.1954  -1.1858
    -1.1742  -1.1586  -1.1509  -1.1278  -1.1096  -1.0534  -1.0468  -1.0458
    -1.0386  -1.0023  -0.9688  -0.9666  -0.9190  -0.8977  -0.8976  -0.8941
    -0.8903  -0.8834  -0.8739  -0.8667  -0.8525  -0.8497  -0.8460  -0.8369
[...]
     5.8597   5.9082   6.0971   6.2105   6.2306   6.2841   6.3391   6.3492
     6.3560   6.4437   6.4599   6.5112   6.5263   6.5577   6.5873   6.5938
     6.6767   6.6793   6.6832   6.6854   6.6909   6.6935   6.7097   6.7249
     6.7608   6.7739   6.8111   6.8388   6.8417   6.8437   6.8455   6.8730
     6.8740   6.9295   6.9435   6.9746   7.0708   7.0923   7.1174   7.1382
     7.1510   7.1884   7.3195   7.3383   7.3866   7.4061   7.4477   7.4665
     7.5350   7.6257   7.6892   7.9274   7.9469   7.9545   7.9571   7.9807
     7.9870   7.9923   8.0081   8.0286   8.0382   8.0451   8.0707   8.0737
     8.1428   8.1579   8.1955   8.2083   8.2204   8.2231   8.2454   8.2516
     8.2820   8.3219   8.3694   8.4365   8.4370   8.4459   8.4471   8.4588
     8.4662   8.4991   8.5057   8.5087   8.5139   8.5864   8.5891   8.6196
     8.6525   8.7536   8.7845   8.8087   8.8154   8.8295   8.8520   8.8719
     8.8864   8.9584   8.9586   8.9668   8.9824   8.9963   9.0086   9.0253
     9.0848   9.1574   9.1654   9.1768   9.1791   9.1942   9.2077   9.2140
     9.2393   9.2733

     the Fermi energy is     2.9496 ev

!    total energy              =  -14921.75367659 Ry
     Harris-Foulkes estimate   =  -14921.75367663 Ry
     estimated scf accuracy    <          7.0E-09 Ry

     The total energy is the sum of the following terms:

     one-electron contribution = -235445.83777201 Ry
     hartree contribution      =  118945.60909083 Ry
     xc contribution           =   -5114.30173262 Ry
     ewald contribution        =  106692.83915959 Ry
     smearing contrib. (-TS)   =      -0.06242238 Ry

     convergence has been achieved in  41 iterations

     negative rho (up, down):  6.295E-01 0.000E+00

     Forces acting on atoms (cartesian axes, Ry/au):

     atom    1 type  4   force =     0.00011273    0.00000000    0.00020728
     atom    2 type  4   force =    -0.00011273    0.00000000    0.00020728
     atom    3 type  3   force =     0.00009073   -0.00005296   -0.00014719
     atom    4 type  3   force =     0.00009073    0.00005296   -0.00014719
     atom    5 type  3   force =    -0.00009073    0.00005296   -0.00014719
     atom    6 type  3   force =    -0.00009073   -0.00005296   -0.00014719
     atom    7 type  3   force =    -0.00000501   -0.00002994   -0.00031903
     atom    8 type  3   force =     0.00000501    0.00002994   -0.00031903
     atom    9 type  3   force =    -0.00000501    0.00002994   -0.00031903
     atom   10 type  3   force =     0.00000501   -0.00002994   -0.00031903
     atom   11 type  4   force =    -0.00010561    0.00006667    0.00013366
     atom   12 type  4   force =     0.00010561    0.00006667    0.00013366
     atom   13 type  4   force =    -0.00010561   -0.00006667    0.00013366
     atom   14 type  4   force =     0.00010561   -0.00006667    0.00013366
     atom   15 type  4   force =    -0.00016779    0.00000000    0.00013755
     atom   16 type  4   force =     0.00016779    0.00000000    0.00013755
     atom   17 type  4   force =     0.00002691    0.00005327    0.00035893
     atom   18 type  4   force =    -0.00002691    0.00005327    0.00035893
     atom   19 type  4   force =    -0.00002691   -0.00005327    0.00035893
     atom   20 type  4   force =     0.00002691   -0.00005327    0.00035893
     atom   21 type  4   force =     0.00002695    0.00008462    0.00050171
     atom   22 type  4   force =     0.00002695   -0.00008462    0.00050171
     atom   23 type  4   force =    -0.00002695    0.00008462    0.00050171
     atom   24 type  4   force =    -0.00002695   -0.00008462    0.00050171
     atom   25 type  1   force =     0.00000000    0.00000000   -0.00000777
     atom   26 type  1   force =     0.00000000    0.00000000   -0.00010392
     atom   27 type  1   force =     0.00000000    0.00000000   -0.00010392
     atom   28 type  1   force =    -0.00018055    0.00000000    0.00000892
     atom   29 type  1   force =     0.00018055    0.00000000    0.00000892
     atom   30 type  1   force =     0.00000000    0.00010410   -0.00023458
     atom   31 type  1   force =     0.00000000   -0.00010410   -0.00023458
     atom   32 type  1   force =     0.00000000    0.00000000   -0.00012567
     atom   33 type  3   force =    -0.00003655   -0.00000259   -0.00015367
     atom   34 type  3   force =    -0.00003655    0.00000259   -0.00015367
     atom   35 type  3   force =     0.00003655    0.00000259   -0.00015367
     atom   36 type  3   force =     0.00003655   -0.00000259   -0.00015367
     atom   37 type  3   force =     0.00003090    0.00002685   -0.00025030
     atom   38 type  3   force =     0.00003090   -0.00002685   -0.00025030
     atom   39 type  3   force =    -0.00003090    0.00002685   -0.00025030
     atom   40 type  3   force =    -0.00003090   -0.00002685   -0.00025030
     atom   41 type  4   force =    -0.00016477    0.00000000   -0.00017041
     atom   42 type  4   force =     0.00016477    0.00000000   -0.00017041
     atom   43 type  4   force =     0.00000000   -0.00000221    0.00016096
     atom   44 type  4   force =     0.00000000    0.00000221    0.00016096
     atom   45 type  4   force =     0.00006123    0.00000000   -0.00011266
     atom   46 type  4   force =    -0.00006123    0.00000000   -0.00011266
     atom   47 type  4   force =    -0.00002462   -0.00000391   -0.00003374
     atom   48 type  4   force =     0.00002462   -0.00000391   -0.00003374
     atom   49 type  4   force =     0.00002462    0.00000391   -0.00003374
     atom   50 type  4   force =    -0.00002462    0.00000391   -0.00003374
     atom   51 type  4   force =     0.00000000   -0.00002033    0.00010957
     atom   52 type  4   force =     0.00000000    0.00002033    0.00010957
     atom   53 type  4   force =     0.00008556    0.00001035    0.00027051
     atom   54 type  4   force =    -0.00008556   -0.00001035    0.00027051
     atom   55 type  4   force =     0.00008556   -0.00001035    0.00027051
     atom   56 type  4   force =    -0.00008556    0.00001035    0.00027051
     atom   57 type  2   force =     0.00000000    0.00000000   -0.00032173
     atom   58 type  5   force =     0.00032898    0.00000000   -0.00066946
     atom   59 type  5   force =    -0.00032898    0.00000000   -0.00066946
     atom   60 type  5   force =     0.00000000    0.00000000   -0.00018282
[...]
     atom  210 type  4   force =    -0.00020931    0.00000000    0.00498712
     atom  211 type  3   force =     0.00019245   -0.00000817   -0.00260286
     atom  212 type  3   force =     0.00019245    0.00000817   -0.00260286
     atom  213 type  3   force =    -0.00019245    0.00000817   -0.00260286
     atom  214 type  3   force =    -0.00019245   -0.00000817   -0.00260286
     atom  215 type  3   force =     0.00006225   -0.00016066   -0.00271645
     atom  216 type  3   force =    -0.00006225    0.00016066   -0.00271645
     atom  217 type  3   force =     0.00006225    0.00016066   -0.00271645
     atom  218 type  3   force =    -0.00006225   -0.00016066   -0.00271645
     atom  219 type  4   force =    -0.00008035    0.00092624    0.00463460
     atom  220 type  4   force =     0.00008035    0.00092624    0.00463460
     atom  221 type  4   force =    -0.00008035   -0.00092624    0.00463460
     atom  222 type  4   force =     0.00008035   -0.00092624    0.00463460
     atom  223 type  4   force =    -0.00034122    0.00000000    0.00395377
     atom  224 type  4   force =     0.00034122    0.00000000    0.00395377

     Total force =     0.427983     Total SCF correction =     0.000323

     Computing stress (Cartesian axis) and pressure

     negative rho (up, down):  6.295E-01 0.000E+00
          total   stress  (Ry/bohr**3)                   (kbar)     P=      -10.21
  -0.00003215   0.00000000   0.00000000           -4.73        0.00        0.00
   0.00000000  -0.00002289   0.00000000            0.00       -3.37        0.00
   0.00000000   0.00000000  -0.00015317            0.00        0.00      -22.53

     General routines

     Parallel routines

   This run was terminated on:  12:21:35  18May2021

   JOB DONE.
[1621354895.462757] [holy7c06303:28239:0]          mpool.c:43   UCX  WARN  object 0x2d3f380 was not returned to mpool ucp_requests
[1621354895.481007] [holy7c06506:208905:0]          mpool.c:43   UCX  WARN  object 0x3c50c00 was not returned to mpool ucp_requests
[1621354895.481778] [holy7c06509:114568:0]          mpool.c:43   UCX  WARN  object 0x2f19e00 was not returned to mpool ucp_requests
[1621354895.465635] [holy7c06303:28237:0]          mpool.c:43   UCX  WARN  object 0x29b70c0 was not returned to mpool ucp_requests
[1621354895.472298] [holy7c06303:28231:0]          mpool.c:43   UCX  WARN  object 0x3404e80 was not returned to mpool ucp_requests
[1621354895.472330] [holy7c06303:28231:0]          mpool.c:43   UCX  WARN  object 0x3406000 was not returned to mpool ucp_requests
[1621354895.478928] [holy7c06303:28238:0]          mpool.c:43   UCX  WARN  object 0x5570740 was not returned to mpool ucp_requests
[1621354895.481683] [holy7c06509:114566:0]          mpool.c:43   UCX  WARN  object 0x3993a00 was not returned to mpool ucp_requests
[1621354895.482481] [holy7c06506:208897:0]          mpool.c:43   UCX  WARN  object 0x430a7c0 was not returned to mpool ucp_requests
[1621354895.492748] [holy7c06509:114576:0]          mpool.c:43   UCX  WARN  object 0x444a740 was not returned to mpool ucp_requests
[1621354895.486523] [holy7c06506:208895:0]          mpool.c:43   UCX  WARN  object 0x32e9880 was not returned to mpool ucp_requests
[1621354895.489478] [holy7c06506:208906:0]          mpool.c:43   UCX  WARN  object 0x47db9c0 was not returned to mpool ucp_requests
[1621354895.495545] [holy7c06506:208903:0]          mpool.c:43   UCX  WARN  object 0x2fb13c0 was not returned to mpool ucp_requests
[1621354895.500166] [holy7c06509:114574:0]          mpool.c:43   UCX  WARN  object 0x58c3440 was not returned to mpool ucp_requests
[1621354895.484724] [holy7c06506:208889:0]          mpool.c:43   UCX  WARN  object 0x42a8a80 was not returned to mpool ucp_requests
[1621354895.493471] [holy7c06506:208887:0]          mpool.c:43   UCX  WARN  object 0x3462240 was not returned to mpool ucp_requests
[1621354895.487458] [holy7c06506:208896:0]          mpool.c:43   UCX  WARN  object 0x32bb280 was not returned to mpool ucp_requests
[1621354895.491206] [holy7c06509:114569:0]          mpool.c:43   UCX  WARN  object 0x35724c0 was not returned to mpool ucp_requests
[1621354895.486270] [holy7c06303:28240:0]          mpool.c:43   UCX  WARN  object 0x4769b40 was not returned to mpool ucp_requests
[1621354895.481225] [holy7c06303:28230:0]          mpool.c:43   UCX  WARN  object 0x2fd6640 was not returned to mpool ucp_requests
[1621354895.486012] [holy7c06303:28232:0]          mpool.c:43   UCX  WARN  object 0x3702440 was not returned to mpool ucp_requests
[1621354895.492272] [holy7c06511:43293:0]          mpool.c:43   UCX  WARN  object 0x3d08780 was not returned to mpool ucp_requests
[1621354895.495473] [holy7c06511:43291:0]          mpool.c:43   UCX  WARN  object 0x47cae00 was not returned to mpool ucp_requests
[1621354895.484065] [holy7c06511:43292:0]          mpool.c:43   UCX  WARN  object 0x6269340 was not returned to mpool ucp_requests
[1621354895.499664] [holy7c06506:208898:0]          mpool.c:43   UCX  WARN  object 0x28fe980 was not returned to mpool ucp_requests
[1621354895.495633] [holy7c06506:208888:0]          mpool.c:43   UCX  WARN  object 0x473a080 was not returned to mpool ucp_requests
[1621354895.495660] [holy7c06506:208888:0]          mpool.c:43   UCX  WARN  object 0x473ca80 was not returned to mpool ucp_requests
[1621354895.487278] [holy7c06511:43294:0]          mpool.c:43   UCX  WARN  object 0x2f99800 was not returned to mpool ucp_requests
[1621354895.499682] [holy7c06509:114575:0]          mpool.c:43   UCX  WARN  object 0x29e3c40 was not returned to mpool ucp_requests
[1621354895.508307] [holy7c06509:114567:0]          mpool.c:43   UCX  WARN  object 0x37daf40 was not returned to mpool ucp_requests
[1621354895.511521] [holy7c06506:208890:0]          mpool.c:43   UCX  WARN  object 0x4873300 was not returned to mpool ucp_requests
[1621354895.511773] [holy7c06509:114577:0]          mpool.c:43   UCX  WARN  object 0x43743c0 was not returned to mpool ucp_requests
[1621354895.520452] [holy7c06506:208904:0]          mpool.c:43   UCX  WARN  object 0x3f6aac0 was not returned to mpool ucp_requests