     Program PWSCF v.6.5 starts on 17May2021 at 18:15:50

     R & G space division:  proc/nbgrp/npool/nimage =      80
     Reading input from YBCO_BaO_cleave_1.0_sep.pwi
Warning: card &IONS ignored
Warning: card     ION_DYNAMICS = 'BFGS' ignored
Warning: card / ignored
Warning: card &CELL ignored
Warning: card     CELL_DYNAMICS = 'BFGS' ignored
Warning: card     PRESS_CONV_THR = 5 ignored
Warning: card / ignored

     Current dimensions of program PWSCF are:
     Max number of different atomic species (ntypx) = 10
     Max number of k-points (npk) =  40000
     Max angular momentum in pseudopotentials (lmaxx) =  3
     Message from routine volume:
     axis vectors are left-handed

     Message from routine setup:
     using ibrav=0 with symmetry is DISCOURAGED, use correct ibrav instead

     bravais-lattice index     =            0
     lattice parameter (alat)  =      20.5021  a.u.
     unit-cell volume          =   35329.4303 (a.u.)^3
     number of atoms/cell      =          224
     number of atomic types    =            5
     number of electrons       =      1830.00
     number of Kohn-Sham states=         1098
     kinetic-energy cutoff     =      60.0000  Ry
     charge density cutoff     =     720.0000  Ry
     convergence threshold     =      1.0E-08
     mixing beta               =       0.5000
     number of iterations used =           10  local-TF  mixing
     Exchange-correlation= SLA PW PBE PBE
                           (   1   4   3   4   0   0   0)

     celldm(1)=  20.502120  celldm(2)=   0.000000  celldm(3)=   0.000000
     celldm(4)=   0.000000  celldm(5)=   0.000000  celldm(6)=   0.000000

     crystal axes: (cart. coord. in units of alat)
               a(1) = (  -0.716599   0.697485   0.000000 )
               a(2) = (   0.716599   0.697485   0.000000 )
               a(3) = (   0.000000   0.000000   4.101087 )

     reciprocal axes: (cart. coord. in units 2 pi/alat)
               b(1) = ( -0.697740  0.716861  0.000000 )
               b(2) = (  0.697740  0.716861  0.000000 )
               b(3) = (  0.000000  0.000000  0.243838 )

     PseudoPot. # 1 for Ba read from file:
     ./pseudo/Ba.pbe-nsp-van.UPF
     MD5 check sum: 2b9c31dd849566dd297d80989662b7a0
     Pseudo is Ultrasoft + core correction, Zval = 10.0
     Generated by new atomic code, or converted to UPF format
     Using radial grid of  907 points,  6 beta functions with:
                l(1) =   0
                l(2) =   0
                l(3) =   1
                l(4) =   1
                l(5) =   2
                l(6) =   2
     Q(r) pseudized with  6 coefficients,  rinner =    1.200   1.200   1.200
                                                       1.200   1.200

     PseudoPot. # 2 for Ca read from file:
     ./pseudo/Ca.pbe-nsp-van.UPF
     MD5 check sum: 6471098428ff4fa451746d08035ff179
     Pseudo is Ultrasoft + core correction, Zval = 10.0
     Generated by new atomic code, or converted to UPF format
     Using radial grid of  845 points,  6 beta functions with:
                l(1) =   0
                l(2) =   0
                l(3) =   1
                l(4) =   1
                l(5) =   2
                l(6) =   2
     Q(r) pseudized with  6 coefficients,  rinner =    1.200   1.200   1.200
                                                       1.200   1.200

     PseudoPot. # 3 for Cu read from file:
     ./pseudo/Cu.pbe-n-van_ak.UPF
     MD5 check sum: 34e3282627ffb533726feb647e090d62
     Pseudo is Ultrasoft + core correction, Zval = 11.0
     Generated by new atomic code, or converted to UPF format
     Using radial grid of  867 points,  6 beta functions with:
                l(1) =   0
                l(2) =   0
                l(3) =   1
                l(4) =   1
                l(5) =   2
                l(6) =   2
     Q(r) pseudized with  8 coefficients,  rinner =    1.400   1.400   1.400
                                                       1.400   1.400

     PseudoPot. # 4 for O  read from file:
     ./pseudo/O.pbe-van_ak.UPF
     MD5 check sum: 783ce7fe4c79b6a4916957118fed0856
     Pseudo is Ultrasoft, Zval =  6.0
     Generated by new atomic code, or converted to UPF format
     Using radial grid of  737 points,  4 beta functions with:
                l(1) =   0
                l(2) =   0
                l(3) =   1
                l(4) =   1
     Q(r) pseudized with  8 coefficients,  rinner =    0.800   0.800   0.800

     PseudoPot. # 5 for Y  read from file:
     ./pseudo/Y.pbe-nsp-van.UPF
     MD5 check sum: 4412fed3ab108fed87a1b7d6a69a4a38
     Pseudo is Ultrasoft + core correction, Zval = 11.0
     Generated by new atomic code, or converted to UPF format
     Using radial grid of  885 points,  6 beta functions with:
                l(1) =   0
                l(2) =   0
                l(3) =   1
                l(4) =   1
                l(5) =   2
                l(6) =   2
     Q(r) pseudized with  6 coefficients,  rinner =    1.200   1.200   1.200
                                                       1.200   1.200

     atomic species   valence    mass     pseudopotential
        Ba            10.00   137.32700     Ba( 1.00)
        Ca            10.00    40.07800     Ca( 1.00)
        Cu            11.00    63.54600     Cu( 1.00)
        O              6.00    15.99900     O ( 1.00)
        Y             11.00    88.90584     Y ( 1.00)

      4 Sym. Ops. (no inversion) found ( 3 have fractional translation)

   Cartesian axes

     site n.     atom                  positions (alat units)
         1           O   tau(   1) = (   0.3545921   0.8718562  -0.0077406  )
         2           O   tau(   2) = (   0.0037072   0.8718562  -0.0077406  )
         3           Cu  tau(   3) = (  -0.0002581   0.0006065   0.0080789  )
         4           Cu  tau(   4) = (  -0.0002581   0.3481364   0.0080789  )
         5           Cu  tau(   5) = (   0.3585574   0.3481364   0.0080789  )
         6           Cu  tau(   6) = (  -0.3580421   0.6980913   0.0080789  )
         7           Cu  tau(   7) = (   0.3577988   0.6971373   0.0086255  )
         8           Cu  tau(   8) = (   0.0005005   1.0465760   0.0086255  )
         9           Cu  tau(   9) = (  -0.3588016   0.3490903   0.0086255  )
        10           Cu  tau(  10) = (   0.0005005   0.6971373   0.0086255  )
        11           O   tau(  11) = (  -0.0001733   0.5225410  -0.0089757  )
        12           O   tau(  12) = (   0.3584726   0.5225410  -0.0089757  )
        13           O   tau(  13) = (  -0.0001733   1.2211724  -0.0089757  )
        14           O   tau(  14) = (  -0.3581278   0.5236867  -0.0089757  )
        15           O   tau(  15) = (  -0.3544557   0.8718562  -0.0105593  )
        16           O   tau(  16) = (  -0.0038445   0.1743714  -0.0105593  )
        17           O   tau(  17) = (   0.3588818   0.3486599   0.1817056  )
        18           O   tau(  18) = (  -0.0005825   0.3486599   0.1817056  )
        19           O   tau(  19) = (  -0.0005825   0.0000830   0.1817056  )
        20           O   tau(  20) = (  -0.3577167   0.6975677   0.1817056  )
        21           O   tau(  21) = (   0.3584283   0.6967843   0.1825784  )
        22           O   tau(  22) = (  -0.3581712   0.3494443   0.1825784  )
        23           O   tau(  23) = (  -0.0001290   0.6967843   0.1825784  )
        24           O   tau(  24) = (  -0.0001290   1.0469291   0.1825784  )
        25           Ba  tau(  25) = (   0.1791506   0.8718562   0.1908537  )
        26           Ba  tau(  26) = (   0.5374498   0.5231143   0.1919901  )
        27           Ba  tau(  27) = (  -0.1791506   0.5231143   0.1919901  )
        28           Ba  tau(  28) = (  -0.1793773   0.8718562   0.1931958  )
        29           Ba  tau(  29) = (  -0.1789238   0.1743714   0.1931958  )
        30           Ba  tau(  30) = (   0.1791506   0.5222101   0.1929368  )
        31           Ba  tau(  31) = (  -0.5374498   0.5240176   0.1929368  )
        32           Ba  tau(  32) = (   0.1791506   0.1743714   0.1992469  )
        33           Cu  tau(  33) = (  -0.3583426   0.3488452   0.3777458  )
        34           Cu  tau(  34) = (   0.3582559   0.6973834   0.3777458  )
        35           Cu  tau(  35) = (   0.0000433   0.6973834   0.3777458  )
        36           Cu  tau(  36) = (   0.0000433   1.0463299   0.3777458  )
        37           Cu  tau(  37) = (  -0.3586541   0.6975060   0.3775126  )
        38           Cu  tau(  38) = (   0.3579444   0.3487217   0.3775126  )
        39           Cu  tau(  39) = (   0.0003549   0.0000212   0.3775126  )
        40           Cu  tau(  40) = (   0.0003549   0.3487217   0.3775126  )
        41           O   tau(  41) = (  -0.0047976   0.1743714   0.3996864  )
        42           O   tau(  42) = (  -0.3535026   0.8718562   0.3996864  )
        43           O   tau(  43) = (  -0.5374498   0.6924605   0.3956991  )
        44           O   tau(  44) = (   0.1791506   0.3537672   0.3956991  )
        45           O   tau(  45) = (   0.3586385   0.8718562   0.4046840  )
        46           O   tau(  46) = (  -0.0003392   0.8718562   0.4046840  )
        47           O   tau(  47) = (  -0.0004857   0.5230571   0.4066611  )
        48           O   tau(  48) = (   0.3587850   0.5230571   0.4066611  )
        49           O   tau(  49) = (  -0.3578135   0.5231714   0.4066611  )
        50           O   tau(  50) = (  -0.0004857   1.2206562   0.4066611  )
        51           O   tau(  51) = (   0.1791506   1.0461604   0.4028931  )
        52           O   tau(  52) = (   0.1791506   0.6975521   0.4028931  )
        53           O   tau(  53) = (  -0.1792261   0.6967170   0.4025963  )
        54           O   tau(  54) = (  -0.1790731   0.3495106   0.4025963  )
        55           O   tau(  55) = (  -0.1792261   1.0469964   0.4025963  )
        56           O   tau(  56) = (   0.5375263   0.6967170   0.4025963  )
        57           Ca  tau(  57) = (   0.1791506   0.1743714   0.5358617  )
        58           Y   tau(  58) = (  -0.1811525   0.8718562   0.5373908  )
        59           Y   tau(  59) = (  -0.1771467   0.1743714   0.5373908  )
        60           Y   tau(  60) = (   0.1791506   0.8718562   0.5379568  )
[...]
       210           O   tau( 210) = (   0.0037081   0.8718562   2.2562794  )
       211           Cu  tau( 211) = (  -0.0002516   0.0006074   2.2404756  )
       212           Cu  tau( 212) = (  -0.0002516   0.3481345   2.2404756  )
       213           Cu  tau( 213) = (   0.3585509   0.3481345   2.2404756  )
       214           Cu  tau( 214) = (  -0.3580476   0.6980931   2.2404756  )
       215           Cu  tau( 215) = (   0.3577960   0.6971373   2.2399290  )
       216           Cu  tau( 216) = (   0.0005033   1.0465760   2.2399290  )
       217           Cu  tau( 217) = (  -0.3588035   0.3490903   2.2399290  )
       218           Cu  tau( 218) = (   0.0005033   0.6971373   2.2399290  )
       219           O   tau( 219) = (  -0.0001724   0.5225410   2.2575182  )
       220           O   tau( 220) = (   0.3584716   0.5225410   2.2575182  )
       221           O   tau( 221) = (  -0.0001724   1.2211724   2.2575182  )
[...]

[...]

          k = 0.0000 0.4779 0.0000 (277213 PWs)   bands (ev):

[...]

          k =-0.4652-0.0000 0.0000 (277224 PWs)   bands (ev):

   -37.9599 -37.9330 -37.9295 -37.9258 -37.9234 -37.9099 -37.9082 -37.7902
   -37.7475 -37.7438 -37.7414 -37.7391 -37.7259 -37.7239 -35.4974 -35.2534
   -23.1954 -23.0051 -22.9918 -22.9298 -22.8910 -22.8259 -22.7930 -22.6125
   -22.5834 -22.5700 -22.5375 -22.5260 -22.5241 -22.5181 -22.5124 -22.5048
   -22.4350 -22.4329 -22.4278 -22.4216 -22.4196 -22.4144 -22.4001 -22.3884
   -22.3750 -22.3679 -22.3258 -22.2923 -22.2710 -22.1600 -22.1284 -22.0495
   -18.5389 -18.4661 -18.4604 -18.4349 -18.4114 -18.3724 -18.3638 -18.3348
   -18.3240 -18.2982 -18.2926 -18.2727 -18.2692 -18.2620 -18.2419 -18.2402
   -18.2329 -18.2041 -18.2023 -18.1593 -18.1339 -18.1234 -18.1161 -18.0981
   -18.0928 -18.0847 -18.0732 -18.0700 -18.0582 -18.0539 -18.0494 -18.0238
   -17.9801 -17.9486 -17.9278 -17.9271 -17.9181 -17.8842 -17.8836 -17.8586
   -17.8085 -17.7512 -16.7569 -16.7283 -16.7219 -16.4990 -16.4968 -16.4825
   -15.1055 -14.9520 -14.9178 -14.8480 -14.7818 -14.7244 -14.7240 -14.6396
   -14.5918 -14.5814 -14.5484 -14.5431 -14.5101 -14.4923 -14.4808 -14.4777
   -14.4644 -14.4328 -14.4216 -14.4158 -14.3983 -14.3926 -14.3714 -14.3579
   -14.3409 -14.3405 -14.3125 -14.2954 -14.2886 -14.2866 -14.2775 -14.2723
   -14.2695 -14.2650 -14.2618 -14.2387 -14.2316 -14.2219 -14.2177 -14.1968
   -14.1959 -14.1924 -14.1895 -14.1881 -14.1752 -14.1748 -14.1418 -14.1416
   -14.1200 -14.1099 -14.1020 -14.0995 -14.0872 -14.0679 -14.0611 -14.0472
   -14.0363 -14.0289 -14.0210 -14.0016 -13.9873 -13.9537 -13.9434 -13.9418
   -13.9409 -13.9405 -13.9326 -13.9264 -13.9181 -13.9123 -13.8853 -13.8792
   -13.8703 -13.8442 -13.8306 -13.8250 -13.8126 -13.8104 -13.7507 -13.7344
   -13.7011 -13.6656 -13.6549 -13.6534 -13.6484 -13.6472 -13.6433 -13.6291
   -13.6284 -13.6272 -13.6265 -13.6251 -13.6003 -13.5984 -13.5954 -13.5768
   -13.5758 -13.5737 -13.5731 -13.5645 -13.5422 -13.5407 -13.5398 -13.5356
   -13.5340 -13.5249 -13.4971 -13.4967 -13.4896 -13.4871 -13.4596 -13.4547
   -13.3868 -13.3789 -13.3738 -13.3487 -13.3227 -13.2949 -13.2494 -13.1713
    -8.6697  -8.5541  -8.4379  -8.3729  -8.3633  -8.3595  -8.3501  -8.3404
    -8.3247  -8.2887  -8.2343  -8.2295  -8.1441  -8.1248  -8.0952  -8.0843
    -8.0833  -8.0806  -8.0777  -8.0740  -8.0701  -8.0646  -8.0617  -8.0333
    -8.0138  -7.9336  -7.9232  -7.9100  -7.9019  -7.8651  -7.8605  -7.8458
    -7.8360  -7.8253  -7.8214  -7.8149  -7.8118  -7.8106  -7.8051  -7.7995
    -7.7931  -7.7839  -7.7802  -7.7741  -7.7693  -7.7685  -7.7658  -7.7619
    -7.7589  -7.7580  -7.7549  -7.7500  -7.7492  -7.7459  -7.7448  -7.7366
    -7.7354  -7.7314  -7.7313  -7.7234  -7.7209  -7.7059  -7.6944  -7.6829
    -7.6822  -7.6578  -7.6433  -7.6041  -7.5893  -7.5767  -7.5529  -7.5403
    -7.5327  -7.5235  -7.5128  -7.5039  -7.4997  -7.4907  -7.4634  -7.4607
    -7.4598  -7.4484  -7.4191  -7.4066  -7.3975  -7.3939  -7.3881  -7.3849
    -7.3747  -7.3492  -7.2495  -7.2465  -7.1947  -7.1667  -7.1186  -7.0665
    -3.7582  -3.6611  -3.3398  -3.2892  -3.2536  -3.2429  -3.2119  -3.2068
    -3.1472  -3.0192  -2.9911  -2.8968  -2.8887  -2.8637  -2.8569  -2.7135
    -2.6955  -2.6756  -2.6577  -2.6576  -2.6567  -2.6041  -2.5985  -2.5647
    -2.5374  -2.5228  -2.4963  -2.4847  -2.4322  -2.3537  -2.3278  -2.1915
    -2.1873  -2.1761  -2.1398  -2.1318  -2.1309  -2.1173  -2.1128  -2.1059
    -2.0961  -2.0941  -2.0926  -2.0861  -2.0760  -2.0574  -2.0506  -2.0314
    -2.0226  -2.0179  -1.9535  -1.9433  -1.9073  -1.9041  -1.8983  -1.8973
    -1.8893  -1.8747  -1.8734  -1.8538  -1.8514  -1.8472  -1.8465  -1.8199
    -1.8179  -1.8124  -1.8095  -1.8036  -1.7967  -1.7856  -1.7645  -1.7435
    -1.7414  -1.7396  -1.7393  -1.7362  -1.7248  -1.7227  -1.7085  -1.7060
    -1.6817  -1.6636  -1.6603  -1.6581  -1.6579  -1.6572  -1.6544  -1.6516
    -1.6480  -1.6427  -1.6319  -1.6309  -1.6199  -1.6142  -1.6079  -1.6044
    -1.5871  -1.5837  -1.5703  -1.5679  -1.5570  -1.5568  -1.5416  -1.5410
    -1.5317  -1.5216  -1.5200  -1.5076  -1.5015  -1.4927  -1.4908  -1.4770
    -1.4684  -1.4635  -1.4556  -1.4432  -1.4402  -1.4396  -1.4112  -1.3869
    -1.3813  -1.3774  -1.3678  -1.3392  -1.3275  -1.3231  -1.3175  -1.3129
    -1.2929  -1.2230  -1.1840  -1.1816  -1.1215  -1.1198  -1.0904  -1.0543
    -1.0312  -1.0231  -1.0103  -1.0019  -0.9817  -0.9784  -0.9741  -0.9548
    -0.9523  -0.9024  -0.8722  -0.8225  -0.8043  -0.7452  -0.7411  -0.7311
    -0.7271  -0.7264  -0.7178  -0.7151  -0.7109  -0.6902  -0.6853  -0.6838
    -0.6819  -0.6779  -0.6689  -0.6393  -0.6224  -0.6222  -0.6034  -0.6003
[...]
     7.1417   7.2070   7.2500   7.2754   7.2820   7.3221   7.3863   7.4014
     7.4706   7.5263   7.5287   7.5822   7.6851   7.7116   7.7136   7.8029
     7.8667   7.8801   7.8918   7.9415   8.0155   8.0251   8.0743   8.0793
     8.0846   8.0904   8.1039   8.1129   8.1130   8.1288   8.1309   8.1462
     8.1722   8.1798   8.2529   8.2581   8.2653   8.2797   8.2896   8.3052
     8.3180   8.3710   8.4194   8.4268   8.4514   8.4814   8.4818   8.5135
     8.5219   8.5314   8.5557   8.5722   8.5803   8.5875   8.5880   8.5932
     8.6231   8.6734   8.6881   8.7647   8.7791   8.7936   8.8197   8.8596
     8.8851   8.9047   8.9255   8.9341   8.9470   8.9514   8.9592   8.9905
     9.0156   9.0462   9.0665   9.1299   9.1441   9.1546   9.1616   9.1811
     9.1818   9.2224   9.2321   9.2502   9.2805   9.2934   9.3256   9.3365
     9.3507   9.3548   9.3719   9.3884   9.4189   9.4191   9.4307   9.4504
     9.4778   9.4864   9.5012   9.5034   9.5313   9.5461   9.5571   9.5640
     9.5698   9.5836   9.5962   9.5963   9.6216   9.6295   9.6442   9.6665
     9.6679   9.6872

     the Fermi energy is     3.0799 ev

!    total energy              =  -14924.63182486 Ry
     Harris-Foulkes estimate   =  -14924.63182487 Ry
     estimated scf accuracy    <          6.9E-09 Ry

     The total energy is the sum of the following terms:

     one-electron contribution = -236431.34775588 Ry
     hartree contribution      =  119459.24579894 Ry
     xc contribution           =   -5117.34243311 Ry
     ewald contribution        =  107164.86471877 Ry
     smearing contrib. (-TS)   =      -0.05215358 Ry

     convergence has been achieved in  40 iterations

     negative rho (up, down):  6.353E-01 0.000E+00

     Forces acting on atoms (cartesian axes, Ry/au):

     atom    1 type  4   force =     0.00011145    0.00000000    0.00024076
     atom    2 type  4   force =    -0.00011145    0.00000000    0.00024076
     atom    3 type  3   force =     0.00008960   -0.00006246   -0.00019011
     atom    4 type  3   force =     0.00008960    0.00006246   -0.00019011
     atom    5 type  3   force =    -0.00008960    0.00006246   -0.00019011
     atom    6 type  3   force =    -0.00008960   -0.00006246   -0.00019011
     atom    7 type  3   force =    -0.00000846   -0.00002302   -0.00034598
     atom    8 type  3   force =     0.00000846    0.00002302   -0.00034598
     atom    9 type  3   force =    -0.00000846    0.00002302   -0.00034598
     atom   10 type  3   force =     0.00000846   -0.00002302   -0.00034598
     atom   11 type  4   force =    -0.00010237    0.00007072    0.00016170
     atom   12 type  4   force =     0.00010237    0.00007072    0.00016170
     atom   13 type  4   force =    -0.00010237   -0.00007072    0.00016170
     atom   14 type  4   force =     0.00010237   -0.00007072    0.00016170
     atom   15 type  4   force =    -0.00017003    0.00000000    0.00017248
     atom   16 type  4   force =     0.00017003    0.00000000    0.00017248
     atom   17 type  4   force =     0.00003048    0.00004999    0.00038609
     atom   18 type  4   force =    -0.00003048    0.00004999    0.00038609
     atom   19 type  4   force =    -0.00003048   -0.00004999    0.00038609
     atom   20 type  4   force =     0.00003048   -0.00004999    0.00038609
     atom   21 type  4   force =     0.00002819    0.00008663    0.00049621
     atom   22 type  4   force =     0.00002819   -0.00008663    0.00049621
     atom   23 type  4   force =    -0.00002819    0.00008663    0.00049621
     atom   24 type  4   force =    -0.00002819   -0.00008663    0.00049621
     atom   25 type  1   force =     0.00000000    0.00000000    0.00002567
     atom   26 type  1   force =     0.00000000    0.00000000   -0.00006802
     atom   27 type  1   force =     0.00000000    0.00000000   -0.00006802
     atom   28 type  1   force =    -0.00018386    0.00000000    0.00004261
     atom   29 type  1   force =     0.00018386    0.00000000    0.00004261
     atom   30 type  1   force =     0.00000000    0.00010234   -0.00020019
     atom   31 type  1   force =     0.00000000   -0.00010234   -0.00020019
     atom   32 type  1   force =     0.00000000    0.00000000   -0.00009262
     atom   33 type  3   force =    -0.00003909   -0.00000428   -0.00011271
     atom   34 type  3   force =    -0.00003909    0.00000428   -0.00011271
     atom   35 type  3   force =     0.00003909    0.00000428   -0.00011271
     atom   36 type  3   force =     0.00003909   -0.00000428   -0.00011271
     atom   37 type  3   force =     0.00004185    0.00002270   -0.00020214
     atom   38 type  3   force =     0.00004185   -0.00002270   -0.00020214
     atom   39 type  3   force =    -0.00004185    0.00002270   -0.00020214
     atom   40 type  3   force =    -0.00004185   -0.00002270   -0.00020214
     atom   41 type  4   force =    -0.00013240    0.00000000   -0.00031227
     atom   42 type  4   force =     0.00013240    0.00000000   -0.00031227
     atom   43 type  4   force =     0.00000000    0.00001987    0.00004455
     atom   44 type  4   force =     0.00000000   -0.00001987    0.00004455
     atom   45 type  4   force =     0.00006213    0.00000000   -0.00026694
     atom   46 type  4   force =    -0.00006213    0.00000000   -0.00026694
     atom   47 type  4   force =    -0.00002648    0.00000732   -0.00019218
     atom   48 type  4   force =     0.00002648    0.00000732   -0.00019218
     atom   49 type  4   force =     0.00002648   -0.00000732   -0.00019218
     atom   50 type  4   force =    -0.00002648   -0.00000732   -0.00019218
     atom   51 type  4   force =     0.00000000   -0.00002032   -0.00003200
     atom   52 type  4   force =     0.00000000    0.00002032   -0.00003200
     atom   53 type  4   force =     0.00009319    0.00000737    0.00012440
     atom   54 type  4   force =    -0.00009319   -0.00000737    0.00012440
     atom   55 type  4   force =     0.00009319   -0.00000737    0.00012440
     atom   56 type  4   force =    -0.00009319    0.00000737    0.00012440
     atom   57 type  2   force =     0.00000000    0.00000000   -0.00002593
     atom   58 type  5   force =     0.00033442    0.00000000   -0.00017242
     atom   59 type  5   force =    -0.00033442    0.00000000   -0.00017242
     atom   60 type  5   force =     0.00000000    0.00000000    0.00031649
[...]
     atom  210 type  4   force =    -0.00011185    0.00000000    0.00006702
     atom  211 type  3   force =     0.00008935   -0.00006866   -0.00025821
     atom  212 type  3   force =     0.00008935    0.00006866   -0.00025821
     atom  213 type  3   force =    -0.00008935    0.00006866   -0.00025821
     atom  214 type  3   force =    -0.00008935   -0.00006866   -0.00025821
     atom  215 type  3   force =    -0.00000886   -0.00002355   -0.00015418
     atom  216 type  3   force =     0.00000886    0.00002355   -0.00015418
     atom  217 type  3   force =    -0.00000886    0.00002355   -0.00015418
     atom  218 type  3   force =     0.00000886   -0.00002355   -0.00015418
     atom  219 type  4   force =    -0.00010393    0.00003912    0.00013874
     atom  220 type  4   force =     0.00010393    0.00003912    0.00013874
     atom  221 type  4   force =    -0.00010393   -0.00003912    0.00013874
     atom  222 type  4   force =     0.00010393   -0.00003912    0.00013874
     atom  223 type  4   force =    -0.00016794    0.00000000    0.00010769
     atom  224 type  4   force =     0.00016794    0.00000000    0.00010769

     Total force =     0.093445     Total SCF correction =     0.000468

     Computing stress (Cartesian axis) and pressure

     negative rho (up, down):  6.353E-01 0.000E+00
          total   stress  (Ry/bohr**3)                   (kbar)     P=       -6.39
  -0.00005357   0.00000000   0.00000000           -7.88        0.00        0.00
   0.00000000  -0.00003353   0.00000000            0.00       -4.93        0.00
   0.00000000   0.00000000  -0.00004314            0.00        0.00       -6.35

     General routines

     Parallel routines

   This run was terminated on:  19:37:18  17May2021

   JOB DONE.
[1621294638.448161] [holy7c10111:47939:0]          mpool.c:43   UCX  WARN  object 0x3c2c740 was not returned to mpool ucp_requests
[1621294638.448741] [holy7c08607:39852:0]          mpool.c:43   UCX  WARN  object 0x456c100 was not returned to mpool ucp_requests
[1621294638.452167] [holy7c08304:11661:0]          mpool.c:43   UCX  WARN  object 0x409e9c0 was not returned to mpool ucp_requests
[1621294638.455091] [holy7c08304:11662:0]          mpool.c:43   UCX  WARN  object 0x320d540 was not returned to mpool ucp_requests
[1621294638.455391] [holy7c08304:11670:0]          mpool.c:43   UCX  WARN  object 0x2c6a100 was not returned to mpool ucp_requests
[1621294638.460650] [holy7c08304:11668:0]          mpool.c:43   UCX  WARN  object 0x2c09f00 was not returned to mpool ucp_requests
[1621294638.460488] [holy7c08608:266989:0]          mpool.c:43   UCX  WARN  object 0x361eb00 was not returned to mpool ucp_requests
[1621294638.464734] [holy7c08304:11671:0]          mpool.c:43   UCX  WARN  object 0x33e2c80 was not returned to mpool ucp_requests
[1621294638.464770] [holy7c08304:11669:0]          mpool.c:43   UCX  WARN  object 0x64f8140 was not returned to mpool ucp_requests
[1621294638.466583] [holy7c08304:11663:0]          mpool.c:43   UCX  WARN  object 0x2b02d40 was not returned to mpool ucp_requests
[1621294638.460537] [holy7c10111:47938:0]          mpool.c:43   UCX  WARN  object 0x43e0900 was not returned to mpool ucp_requests
[1621294638.460702] [holy7c10111:47945:0]          mpool.c:43   UCX  WARN  object 0x28c0c80 was not returned to mpool ucp_requests
[1621294638.461244] [holy7c10111:47946:0]          mpool.c:43   UCX  WARN  object 0x4682200 was not returned to mpool ucp_requests
[1621294638.462266] [holy7c10111:47937:0]          mpool.c:43   UCX  WARN  object 0x4327cc0 was not returned to mpool ucp_requests
[1621294638.464356] [holy7c10111:47948:0]          mpool.c:43   UCX  WARN  object 0x3f6a840 was not returned to mpool ucp_requests
[1621294638.463566] [holy7c10111:47947:0]          mpool.c:43   UCX  WARN  object 0x55091c0 was not returned to mpool ucp_requests
[1621294638.463305] [holy7c10111:47940:0]          mpool.c:43   UCX  WARN  object 0x3dc2640 was not returned to mpool ucp_requests
[1621294638.453384] [holy7c08607:39860:0]          mpool.c:43   UCX  WARN  object 0x66aef40 was not returned to mpool ucp_requests
[1621294638.460221] [holy7c08607:39853:0]          mpool.c:43   UCX  WARN  object 0x2b8f840 was not returned to mpool ucp_requests
[1621294638.458903] [holy7c08607:39851:0]          mpool.c:43   UCX  WARN  object 0x473b180 was not returned to mpool ucp_requests
[1621294638.461136] [holy7c08607:39858:0]          mpool.c:43   UCX  WARN  object 0x3eeb400 was not returned to mpool ucp_requests
[1621294638.462853] [holy7c08607:39850:0]          mpool.c:43   UCX  WARN  object 0x46e1e40 was not returned to mpool ucp_requests
[1621294638.462892] [holy7c08607:39861:0]          mpool.c:43   UCX  WARN  object 0x34afd40 was not returned to mpool ucp_requests
[1621294638.467230] [holy7c08607:39859:0]          mpool.c:43   UCX  WARN  object 0x343b340 was not returned to mpool ucp_requests
[1621294638.463146] [holy7c08608:266987:0]          mpool.c:43   UCX  WARN  object 0x41d0300 was not returned to mpool ucp_requests
[1621294638.473080] [holy7c08608:266995:0]          mpool.c:43   UCX  WARN  object 0x46e4840 was not returned to mpool ucp_requests
[1621294638.471219] [holy7c08608:266988:0]          mpool.c:43   UCX  WARN  object 0x2a99e40 was not returned to mpool ucp_requests
[1621294638.473392] [holy7c08608:266986:0]          mpool.c:43   UCX  WARN  object 0x35fef00 was not returned to mpool ucp_requests
[1621294638.474569] [holy7c08608:266997:0]          mpool.c:43   UCX  WARN  object 0x4a57f40 was not returned to mpool ucp_requests
[1621294638.477870] [holy7c08608:266996:0]          mpool.c:43   UCX  WARN  object 0x387d900 was not returned to mpool ucp_requests
[1621294638.477207] [holy7c08608:266994:0]          mpool.c:43   UCX  WARN  object 0x3743640 was not returned to mpool ucp_requests