     Program PWSCF v.6.5 starts on 17May2021 at 12:37:14

     R & G space division:  proc/nbgrp/npool/nimage =      80
     Reading input from YBCO_CuO_cleave_0.5_sep.pwi
Warning: card &IONS ignored
Warning: card     ION_DYNAMICS = 'BFGS' ignored
Warning: card / ignored
Warning: card &CELL ignored
Warning: card     CELL_DYNAMICS = 'BFGS' ignored
Warning: card     PRESS_CONV_THR = 5 ignored
Warning: card / ignored

     Current dimensions of program PWSCF are:
     Max number of different atomic species (ntypx) = 10
     Max number of k-points (npk) =  40000
     Max angular momentum in pseudopotentials (lmaxx) =  3
     Message from routine volume:
     axis vectors are left-handed

     Message from routine setup:
     using ibrav=0 with symmetry is DISCOURAGED, use correct ibrav instead

     bravais-lattice index     =            0
     lattice parameter (alat)  =      20.5021  a.u.
     unit-cell volume          =   34932.4146 (a.u.)^3
     number of atoms/cell      =          224
     number of atomic types    =            5
     number of electrons       =      1830.00
     number of Kohn-Sham states=         1098
     kinetic-energy cutoff     =      60.0000  Ry
     charge density cutoff     =     720.0000  Ry
     convergence threshold     =      1.0E-08
     mixing beta               =       0.5000
     number of iterations used =           10  local-TF  mixing
     Exchange-correlation= SLA PW PBE PBE
                           (   1   4   3   4   0   0   0)

     celldm(1)=  20.502120  celldm(2)=   0.000000  celldm(3)=   0.000000
     celldm(4)=   0.000000  celldm(5)=   0.000000  celldm(6)=   0.000000

     crystal axes: (cart. coord. in units of alat)
               a(1) = (  -0.716599   0.697485   0.000000 )
               a(2) = (   0.716599   0.697485   0.000000 )
               a(3) = (   0.000000   0.000000   4.055001 )

     reciprocal axes: (cart. coord. in units 2 pi/alat)
               b(1) = ( -0.697740  0.716861  0.000000 )
               b(2) = (  0.697740  0.716861  0.000000 )
               b(3) = (  0.000000  0.000000  0.246609 )

     PseudoPot. # 1 for Ba read from file:
     ./pseudo/Ba.pbe-nsp-van.UPF
     MD5 check sum: 2b9c31dd849566dd297d80989662b7a0
     Pseudo is Ultrasoft + core correction, Zval = 10.0
     Generated by new atomic code, or converted to UPF format
     Using radial grid of  907 points,  6 beta functions with:
                l(1) =   0
                l(2) =   0
                l(3) =   1
                l(4) =   1
                l(5) =   2
                l(6) =   2
     Q(r) pseudized with  6 coefficients,  rinner =    1.200   1.200   1.200
                                                       1.200   1.200

     PseudoPot. # 2 for Ca read from file:
     ./pseudo/Ca.pbe-nsp-van.UPF
     MD5 check sum: 6471098428ff4fa451746d08035ff179
     Pseudo is Ultrasoft + core correction, Zval = 10.0
     Generated by new atomic code, or converted to UPF format
     Using radial grid of  845 points,  6 beta functions with:
                l(1) =   0
                l(2) =   0
                l(3) =   1
                l(4) =   1
                l(5) =   2
                l(6) =   2
     Q(r) pseudized with  6 coefficients,  rinner =    1.200   1.200   1.200
                                                       1.200   1.200

     PseudoPot. # 3 for Cu read from file:
     ./pseudo/Cu.pbe-n-van_ak.UPF
     MD5 check sum: 34e3282627ffb533726feb647e090d62
     Pseudo is Ultrasoft + core correction, Zval = 11.0
     Generated by new atomic code, or converted to UPF format
     Using radial grid of  867 points,  6 beta functions with:
                l(1) =   0
                l(2) =   0
                l(3) =   1
                l(4) =   1
                l(5) =   2
                l(6) =   2
     Q(r) pseudized with  8 coefficients,  rinner =    1.400   1.400   1.400
                                                       1.400   1.400

     PseudoPot. # 4 for O  read from file:
     ./pseudo/O.pbe-van_ak.UPF
     MD5 check sum: 783ce7fe4c79b6a4916957118fed0856
     Pseudo is Ultrasoft, Zval =  6.0
     Generated by new atomic code, or converted to UPF format
     Using radial grid of  737 points,  4 beta functions with:
                l(1) =   0
                l(2) =   0
                l(3) =   1
                l(4) =   1
     Q(r) pseudized with  8 coefficients,  rinner =    0.800   0.800   0.800

     PseudoPot. # 5 for Y  read from file:
     ./pseudo/Y.pbe-nsp-van.UPF
     MD5 check sum: 4412fed3ab108fed87a1b7d6a69a4a38
     Pseudo is Ultrasoft + core correction, Zval = 11.0
     Generated by new atomic code, or converted to UPF format
     Using radial grid of  885 points,  6 beta functions with:
                l(1) =   0
                l(2) =   0
                l(3) =   1
                l(4) =   1
                l(5) =   2
                l(6) =   2
     Q(r) pseudized with  6 coefficients,  rinner =    1.200   1.200   1.200
                                                       1.200   1.200

     atomic species   valence    mass     pseudopotential
        Ba            10.00   137.32700     Ba( 1.00)
        Ca            10.00    40.07800     Ca( 1.00)
        Cu            11.00    63.54600     Cu( 1.00)
        O              6.00    15.99900     O ( 1.00)
        Y             11.00    88.90584     Y ( 1.00)

      4 Sym. Ops. (no inversion) found ( 3 have fractional translation)

   Cartesian axes

     site n.     atom                  positions (alat units)
         1           O   tau(   1) = (   0.3545921   0.8718562  -0.0077406  )
         2           O   tau(   2) = (   0.0037072   0.8718562  -0.0077406  )
         3           Cu  tau(   3) = (  -0.0002581   0.0006065   0.0080789  )
         4           Cu  tau(   4) = (  -0.0002581   0.3481364   0.0080789  )
         5           Cu  tau(   5) = (   0.3585574   0.3481364   0.0080789  )
         6           Cu  tau(   6) = (  -0.3580421   0.6980913   0.0080789  )
         7           Cu  tau(   7) = (   0.3577988   0.6971373   0.0086255  )
         8           Cu  tau(   8) = (   0.0005005   1.0465760   0.0086255  )
         9           Cu  tau(   9) = (  -0.3588016   0.3490903   0.0086255  )
        10           Cu  tau(  10) = (   0.0005005   0.6971373   0.0086255  )
        11           O   tau(  11) = (  -0.0001733   0.5225410  -0.0089757  )
        12           O   tau(  12) = (   0.3584726   0.5225410  -0.0089757  )
        13           O   tau(  13) = (  -0.0001733   1.2211724  -0.0089757  )
        14           O   tau(  14) = (  -0.3581278   0.5236867  -0.0089757  )
        15           O   tau(  15) = (  -0.3544557   0.8718562  -0.0105593  )
        16           O   tau(  16) = (  -0.0038445   0.1743714  -0.0105593  )
        17           O   tau(  17) = (   0.3588818   0.3486599   0.1817056  )
        18           O   tau(  18) = (  -0.0005825   0.3486599   0.1817056  )
        19           O   tau(  19) = (  -0.0005825   0.0000830   0.1817056  )
        20           O   tau(  20) = (  -0.3577167   0.6975677   0.1817056  )
        21           O   tau(  21) = (   0.3584283   0.6967843   0.1825784  )
        22           O   tau(  22) = (  -0.3581712   0.3494443   0.1825784  )
        23           O   tau(  23) = (  -0.0001290   0.6967843   0.1825784  )
        24           O   tau(  24) = (  -0.0001290   1.0469291   0.1825784  )
        25           Ba  tau(  25) = (   0.1791506   0.8718562   0.1908537  )
        26           Ba  tau(  26) = (   0.5374498   0.5231143   0.1919901  )
        27           Ba  tau(  27) = (  -0.1791506   0.5231143   0.1919901  )
        28           Ba  tau(  28) = (  -0.1793773   0.8718562   0.1931958  )
        29           Ba  tau(  29) = (  -0.1789238   0.1743714   0.1931958  )
        30           Ba  tau(  30) = (   0.1791506   0.5222101   0.1929368  )
        31           Ba  tau(  31) = (  -0.5374498   0.5240176   0.1929368  )
        32           Ba  tau(  32) = (   0.1791506   0.1743714   0.1992469  )
        33           Cu  tau(  33) = (  -0.3583426   0.3488452   0.3777458  )
        34           Cu  tau(  34) = (   0.3582559   0.6973834   0.3777458  )
        35           Cu  tau(  35) = (   0.0000433   0.6973834   0.3777458  )
        36           Cu  tau(  36) = (   0.0000433   1.0463299   0.3777458  )
        37           Cu  tau(  37) = (  -0.3586541   0.6975060   0.3775126  )
        38           Cu  tau(  38) = (   0.3579444   0.3487217   0.3775126  )
        39           Cu  tau(  39) = (   0.0003549   0.0000212   0.3775126  )
        40           Cu  tau(  40) = (   0.0003549   0.3487217   0.3775126  )
        41           O   tau(  41) = (  -0.0047976   0.1743714   0.3996864  )
        42           O   tau(  42) = (  -0.3535026   0.8718562   0.3996864  )
        43           O   tau(  43) = (  -0.5374498   0.6924605   0.3956991  )
        44           O   tau(  44) = (   0.1791506   0.3537672   0.3956991  )
        45           O   tau(  45) = (   0.3586385   0.8718562   0.4046840  )
        46           O   tau(  46) = (  -0.0003392   0.8718562   0.4046840  )
        47           O   tau(  47) = (  -0.0004857   0.5230571   0.4066611  )
        48           O   tau(  48) = (   0.3587850   0.5230571   0.4066611  )
        49           O   tau(  49) = (  -0.3578135   0.5231714   0.4066611  )
        50           O   tau(  50) = (  -0.0004857   1.2206562   0.4066611  )
        51           O   tau(  51) = (   0.1791506   1.0461604   0.4028931  )
        52           O   tau(  52) = (   0.1791506   0.6975521   0.4028931  )
        53           O   tau(  53) = (  -0.1792261   0.6967170   0.4025963  )
        54           O   tau(  54) = (  -0.1790731   0.3495106   0.4025963  )
        55           O   tau(  55) = (  -0.1792261   1.0469964   0.4025963  )
        56           O   tau(  56) = (   0.5375263   0.6967170   0.4025963  )
        57           Ca  tau(  57) = (   0.1791506   0.1743714   0.5358617  )
        58           Y   tau(  58) = (  -0.1811525   0.8718562   0.5373908  )
        59           Y   tau(  59) = (  -0.1771467   0.1743714   0.5373908  )
        60           Y   tau(  60) = (   0.1791506   0.8718562   0.5379568  )
[...]
       210           O   tau( 210) = (   0.0037081   0.8718562   2.2101933  )
       211           Cu  tau( 211) = (  -0.0002516   0.0006074   2.1943895  )
       212           Cu  tau( 212) = (  -0.0002516   0.3481345   2.1943895  )
       213           Cu  tau( 213) = (   0.3585509   0.3481345   2.1943895  )
       214           Cu  tau( 214) = (  -0.3580476   0.6980931   2.1943895  )
       215           Cu  tau( 215) = (   0.3577960   0.6971373   2.1938429  )
       216           Cu  tau( 216) = (   0.0005033   1.0465760   2.1938429  )
       217           Cu  tau( 217) = (  -0.3588035   0.3490903   2.1938429  )
       218           Cu  tau( 218) = (   0.0005033   0.6971373   2.1938429  )
       219           O   tau( 219) = (  -0.0001724   0.5225410   2.2114321  )
       220           O   tau( 220) = (   0.3584716   0.5225410   2.2114321  )
       221           O   tau( 221) = (  -0.0001724   1.2211724   2.2114321  )
[...]

   -37.9355 -37.9134 -37.9084 -37.9050 -37.9008 -37.8985 -37.8848 -37.8831
   -37.8792 -37.8759 -37.8688 -37.8663 -37.8550 -37.8537 -35.4725 -35.4361
   -22.5412 -22.5376 -22.4953 -22.4916 -22.4838 -22.4803 -22.4758 -22.4723
   -22.3928 -22.3907 -22.3891 -22.3872 -22.3856 -22.3822 -22.3462 -22.3426
   -22.3328 -22.2832 -22.2519 -22.2354 -22.2202 -22.2156 -22.1853 -22.1811
   -22.1260 -22.1243 -22.0971 -22.0641 -22.0595 -22.0352 -21.9855 -21.9495
   -18.5142 -18.4849 -18.4417 -18.4360 -18.4134 -18.4115 -18.4079 -18.3880
   -18.3856 -18.3604 -18.3482 -18.3193 -18.3087 -18.2984 -18.2805 -18.2743
   -18.2445 -18.2375 -18.2178 -18.2148 -18.2136 -18.2084 -18.2080 -18.1898
   -18.1864 -18.1764 -18.1338 -18.1086 -18.1078 -18.0788 -18.0738 -18.0475
   -18.0443 -18.0296 -18.0257 -18.0207 -18.0005 -18.0001 -17.9557 -17.9255
   -17.9026 -17.8726 -16.7312 -16.7034 -16.6976 -16.6952 -16.6666 -16.6627
   -15.0765 -15.0556 -14.8889 -14.8682 -14.8186 -14.8011 -14.6905 -14.6730
   -14.5536 -14.5481 -14.5283 -14.5281 -14.5142 -14.5000 -14.4752 -14.4633
   -14.4025 -14.3929 -14.3806 -14.3701 -14.3690 -14.3609 -14.3469 -14.3373
   -14.3365 -14.3212 -14.3175 -14.2992 -14.2956 -14.2763 -14.2698 -14.2543
   -14.2507 -14.2292 -14.1959 -14.1797 -14.1767 -14.1697 -14.1587 -14.1551
   -14.1536 -14.1450 -14.1446 -14.1436 -14.1400 -14.1373 -14.1249 -14.1090
   -14.0949 -14.0776 -14.0425 -14.0403 -14.0387 -14.0162 -14.0083 -14.0016
   -13.9962 -13.9870 -13.9834 -13.9786 -13.9716 -13.9679 -13.9673 -13.9581
   -13.9542 -13.9376 -13.9370 -13.9235 -13.9075 -13.9058 -13.8992 -13.8978
   -13.8798 -13.8708 -13.8646 -13.8570 -13.8423 -13.8382 -13.8380 -13.8277
   -13.8223 -13.8164 -13.8045 -13.7985 -13.7584 -13.7572 -13.6904 -13.6127
   -13.6053 -13.6011 -13.6003 -13.5958 -13.5841 -13.5834 -13.5793 -13.5788
   -13.5337 -13.5306 -13.5292 -13.5259 -13.5113 -13.4977 -13.4973 -13.4926
   -13.4910 -13.4860 -13.4398 -13.3754 -13.3470 -13.3110 -13.2861 -13.2682
   -12.8041 -12.7583 -12.7136 -12.7107 -12.6615 -12.6607 -12.6395 -12.5456
    -8.3209  -8.3177  -8.0410  -8.0402  -8.0375  -8.0353  -8.0320  -8.0317
    -8.0283  -7.8808  -7.8776  -7.8395  -7.8188  -7.8149  -7.8079  -7.7937
    -7.7901  -7.7833  -7.7793  -7.7727  -7.7688  -7.7517  -7.7483  -7.7415
    -7.7381  -7.7375  -7.7342  -7.7271  -7.7235  -7.7196  -7.7165  -7.7162
    -7.7132  -7.7077  -7.7042  -7.7026  -7.6990  -7.6932  -7.6895  -7.6811
    -7.6558  -7.6397  -7.6297  -7.6202  -7.6171  -7.5892  -7.5865  -7.5786
    -7.5767  -7.5470  -7.5435  -7.5383  -7.5312  -7.5106  -7.5072  -7.5041
    -7.5038  -7.4709  -7.4705  -7.4671  -7.4631  -7.4547  -7.4471  -7.4350
    -7.4255  -7.4186  -7.4151  -7.4112  -7.4047  -7.3972  -7.3752  -7.3642
    -7.3608  -7.3552  -7.3519  -7.3458  -7.3423  -7.3177  -7.3147  -7.2875
    -7.2788  -7.2719  -7.2417  -7.1982  -7.1903  -7.1793  -7.1459  -7.1037
    -7.0699  -7.0581  -7.0389  -7.0199  -6.9983  -6.9707  -6.9198  -6.9166
    -3.7302  -3.7045  -3.3114  -3.2844  -3.2595  -3.2368  -3.2288  -3.1850
    -3.1780  -3.1576  -2.8855  -2.8643  -2.8386  -2.8356  -2.8198  -2.7873
    -2.6527  -2.6480  -2.6133  -2.6089  -2.5976  -2.5611  -2.5516  -2.5469
    -2.5019  -2.4886  -2.4862  -2.4750  -2.4134  -2.3637  -2.3302  -2.3028
    -2.2888  -2.2608  -2.1497  -2.1493  -2.0969  -2.0826  -2.0777  -2.0722
    -2.0707  -2.0703  -2.0550  -2.0484  -2.0186  -2.0034  -1.9852  -1.9502
    -1.9409  -1.9320  -1.9148  -1.9064  -1.8649  -1.8620  -1.8606  -1.8585
    -1.8484  -1.8443  -1.8082  -1.8058  -1.8036  -1.8011  -1.7930  -1.7769
    -1.7759  -1.7754  -1.7708  -1.7675  -1.7605  -1.7577  -1.7535  -1.7365
    -1.7067  -1.6996  -1.6983  -1.6955  -1.6907  -1.6888  -1.6874  -1.6780
    -1.6766  -1.6614  -1.6594  -1.6527  -1.6292  -1.6145  -1.6123  -1.6108
    -1.6107  -1.6068  -1.6064  -1.5976  -1.5932  -1.5827  -1.5780  -1.5607
    -1.5571  -1.5556  -1.5388  -1.5332  -1.5306  -1.5242  -1.5085  -1.5032
    -1.4945  -1.4927  -1.4801  -1.4730  -1.4580  -1.4508  -1.4499  -1.4430
    -1.4317  -1.4308  -1.4093  -1.4053  -1.3967  -1.3712  -1.3704  -1.3634
    -1.3524  -1.3350  -1.3324  -1.3299  -1.3135  -1.3064  -1.3024  -1.2872
    -1.2692  -1.2664  -1.2619  -1.2249  -1.0484  -1.0162  -1.0123  -0.9871
    -0.9866  -0.9581  -0.8891  -0.8215  -0.7853  -0.7707  -0.7642  -0.7586
    -0.7304  -0.7213  -0.7084  -0.6851  -0.6789  -0.6736  -0.6719  -0.6667
    -0.6601  -0.6534  -0.6455  -0.6411  -0.6350  -0.6276  -0.6259  -0.6137
    -0.5954  -0.5782  -0.5742  -0.5637  -0.5576  -0.5528  -0.5512  -0.5418
[...]
     7.2969   7.3005   7.3305   7.3498   7.3842   7.4840   7.5030   7.5423
     7.6082   7.6429   7.6502   7.7914   8.0810   8.1082   8.1300   8.1348
     8.1383   8.1425   8.1510   8.1562   8.1588   8.1680   8.1771   8.1905
     8.1992   8.2013   8.2077   8.2129   8.3024   8.3298   8.3452   8.3721
     8.4127   8.4630   8.5093   8.5685   8.5794   8.5869   8.5923   8.5992
     8.6158   8.6194   8.6208   8.6312   8.6351   8.6592   8.6929   8.7195
     8.7261   8.7774   8.8021   8.9376   8.9480   8.9525   8.9589   8.9651
     8.9775   8.9802   8.9998   9.0281   9.0287   9.0594   9.0740   9.1150
     9.1445   9.1551   9.1884   9.2071   9.2076   9.2412   9.2821   9.2948
     9.3039   9.3415   9.3674   9.3718   9.3791   9.3926   9.3955   9.4068
     9.4202   9.4225   9.4278   9.4520   9.4536   9.4820   9.4992   9.5130
     9.5249   9.5264   9.5433   9.5456   9.5666   9.5988   9.6007   9.6071
     9.6252   9.6267   9.6426   9.6496   9.6800   9.7016   9.7186   9.7258
     9.7273   9.7486   9.7651   9.7660   9.7675   9.7797   9.8072   9.8133
     9.8190   9.8873

     the Fermi energy is     3.1233 ev

!    total energy              =  -14924.56184707 Ry
     Harris-Foulkes estimate   =  -14924.56184711 Ry
     estimated scf accuracy    <          7.6E-09 Ry

     The total energy is the sum of the following terms:

     one-electron contribution = -243395.61054487 Ry
     hartree contribution      =  122946.71761180 Ry
     xc contribution           =   -5117.61393048 Ry
     ewald contribution        =  110642.00149658 Ry
     smearing contrib. (-TS)   =      -0.05648010 Ry

     convergence has been achieved in  40 iterations

     negative rho (up, down):  6.352E-01 0.000E+00

     Forces acting on atoms (cartesian axes, Ry/au):

     atom    1 type  4   force =     0.00012136    0.00000000    0.00017239
     atom    2 type  4   force =    -0.00012136    0.00000000    0.00017239
     atom    3 type  3   force =     0.00009053   -0.00005655   -0.00018486
     atom    4 type  3   force =     0.00009053    0.00005655   -0.00018486
     atom    5 type  3   force =    -0.00009053    0.00005655   -0.00018486
     atom    6 type  3   force =    -0.00009053   -0.00005655   -0.00018486
     atom    7 type  3   force =    -0.00000617   -0.00002401   -0.00034869
     atom    8 type  3   force =     0.00000617    0.00002401   -0.00034869
     atom    9 type  3   force =    -0.00000617    0.00002401   -0.00034869
     atom   10 type  3   force =     0.00000617   -0.00002401   -0.00034869
     atom   11 type  4   force =    -0.00010490    0.00005907    0.00009863
     atom   12 type  4   force =     0.00010490    0.00005907    0.00009863
     atom   13 type  4   force =    -0.00010490   -0.00005907    0.00009863
     atom   14 type  4   force =     0.00010490   -0.00005907    0.00009863
     atom   15 type  4   force =    -0.00016808    0.00000000    0.00009192
     atom   16 type  4   force =     0.00016808    0.00000000    0.00009192
     atom   17 type  4   force =     0.00002621    0.00004900    0.00039536
     atom   18 type  4   force =    -0.00002621    0.00004900    0.00039536
     atom   19 type  4   force =    -0.00002621   -0.00004900    0.00039536
     atom   20 type  4   force =     0.00002621   -0.00004900    0.00039536
     atom   21 type  4   force =     0.00003001    0.00007786    0.00057674
     atom   22 type  4   force =     0.00003001   -0.00007786    0.00057674
     atom   23 type  4   force =    -0.00003001    0.00007786    0.00057674
     atom   24 type  4   force =    -0.00003001   -0.00007786    0.00057674
     atom   25 type  1   force =     0.00000000    0.00000000   -0.00004748
     atom   26 type  1   force =     0.00000000    0.00000000   -0.00014797
     atom   27 type  1   force =     0.00000000    0.00000000   -0.00014797
     atom   28 type  1   force =    -0.00017388    0.00000000   -0.00003411
     atom   29 type  1   force =     0.00017388    0.00000000   -0.00003411
     atom   30 type  1   force =     0.00000000    0.00011010   -0.00027615
     atom   31 type  1   force =     0.00000000   -0.00011010   -0.00027615
     atom   32 type  1   force =     0.00000000    0.00000000   -0.00016637
     atom   33 type  3   force =    -0.00003153    0.00000903   -0.00026296
     atom   34 type  3   force =    -0.00003153   -0.00000903   -0.00026296
     atom   35 type  3   force =     0.00003153   -0.00000903   -0.00026296
     atom   36 type  3   force =     0.00003153    0.00000903   -0.00026296
     atom   37 type  3   force =     0.00002329    0.00000681   -0.00033035
     atom   38 type  3   force =     0.00002329   -0.00000681   -0.00033035
     atom   39 type  3   force =    -0.00002329    0.00000681   -0.00033035
     atom   40 type  3   force =    -0.00002329   -0.00000681   -0.00033035
     atom   41 type  4   force =    -0.00023193    0.00000000    0.00023368
     atom   42 type  4   force =     0.00023193    0.00000000    0.00023368
     atom   43 type  4   force =     0.00000000   -0.00002949    0.00044172
     atom   44 type  4   force =     0.00000000    0.00002949    0.00044172
     atom   45 type  4   force =     0.00006068    0.00000000    0.00036392
     atom   46 type  4   force =    -0.00006068    0.00000000    0.00036392
     atom   47 type  4   force =    -0.00002272   -0.00002488    0.00041396
     atom   48 type  4   force =     0.00002272   -0.00002488    0.00041396
     atom   49 type  4   force =     0.00002272    0.00002488    0.00041396
     atom   50 type  4   force =    -0.00002272    0.00002488    0.00041396
     atom   51 type  4   force =     0.00000000   -0.00003248    0.00044399
     atom   52 type  4   force =     0.00000000    0.00003248    0.00044399
     atom   53 type  4   force =     0.00006975    0.00002012    0.00059060
     atom   54 type  4   force =    -0.00006975   -0.00002012    0.00059060
     atom   55 type  4   force =     0.00006975   -0.00002012    0.00059060
     atom   56 type  4   force =    -0.00006975    0.00002012    0.00059060
     atom   57 type  2   force =     0.00000000    0.00000000   -0.00093466
     atom   58 type  5   force =     0.00035652    0.00000000   -0.00180310
     atom   59 type  5   force =    -0.00035652    0.00000000   -0.00180310
     atom   60 type  5   force =     0.00000000    0.00000000   -0.00130169
[...]
     atom  210 type  4   force =    -0.00010802    0.00000000   -0.00022453
     atom  211 type  3   force =     0.00008802   -0.00006340    0.00037588
     atom  212 type  3   force =     0.00008802    0.00006340    0.00037588
     atom  213 type  3   force =    -0.00008802    0.00006340    0.00037588
     atom  214 type  3   force =    -0.00008802   -0.00006340    0.00037588
     atom  215 type  3   force =    -0.00000461   -0.00002292    0.00056646
     atom  216 type  3   force =     0.00000461    0.00002292    0.00056646
     atom  217 type  3   force =    -0.00000461    0.00002292    0.00056646
     atom  218 type  3   force =     0.00000461   -0.00002292    0.00056646
     atom  219 type  4   force =    -0.00010387    0.00010864   -0.00019442
     atom  220 type  4   force =     0.00010387    0.00010864   -0.00019442
     atom  221 type  4   force =    -0.00010387   -0.00010864   -0.00019442
     atom  222 type  4   force =     0.00010387   -0.00010864   -0.00019442
     atom  223 type  4   force =    -0.00015778    0.00000000   -0.00018877
     atom  224 type  4   force =     0.00015778    0.00000000   -0.00018877

     Total force =     0.167524     Total SCF correction =     0.000290

     Computing stress (Cartesian axis) and pressure

     negative rho (up, down):  6.352E-01 0.000E+00
          total   stress  (Ry/bohr**3)                   (kbar)     P=       -6.35
  -0.00000394   0.00000000   0.00000000           -0.58        0.00        0.00
   0.00000000  -0.00004786   0.00000000            0.00       -7.04        0.00
   0.00000000   0.00000000  -0.00007768            0.00        0.00      -11.43

     General routines

     Parallel routines

   This run was terminated on:  14: 0:11  17May2021

   JOB DONE.
[1621274412.182786] [holy7c04209:241539:0]          mpool.c:43   UCX  WARN  object 0x5d66d80 was not returned to mpool ucp_requests
[1621274412.185167] [holy7c04209:241540:0]          mpool.c:43   UCX  WARN  object 0x2ce3080 was not returned to mpool ucp_requests
[1621274412.189063] [holy7c08209:93510:0]          mpool.c:43   UCX  WARN  object 0x2dc7b00 was not returned to mpool ucp_requests
[1621274412.188843] [holy7c04209:241541:0]          mpool.c:43   UCX  WARN  object 0x554e400 was not returned to mpool ucp_requests
[1621274412.196300] [holy7c08607:4443 :0]          mpool.c:43   UCX  WARN  object 0x2d787c0 was not returned to mpool ucp_requests
[1621274412.199918] [holy7c08604:148784:0]          mpool.c:43   UCX  WARN  object 0x33ad140 was not returned to mpool ucp_requests
[1621274412.205689] [holy7c08609:80514:0]          mpool.c:43   UCX  WARN  object 0x3129140 was not returned to mpool ucp_requests
[1621274412.194393] [holy7c08209:93502:0]          mpool.c:43   UCX  WARN  object 0x2a60c00 was not returned to mpool ucp_requests
[1621274412.192793] [holy7c08209:93509:0]          mpool.c:43   UCX  WARN  object 0x4573600 was not returned to mpool ucp_requests
[1621274412.192821] [holy7c08209:93509:0]          mpool.c:43   UCX  WARN  object 0x4580480 was not returned to mpool ucp_requests
[1621274412.193109] [holy7c08209:93511:0]          mpool.c:43   UCX  WARN  object 0x30f3940 was not returned to mpool ucp_requests
[1621274412.198759] [holy7c08209:93501:0]          mpool.c:43   UCX  WARN  object 0x3f63280 was not returned to mpool ucp_requests
[1621274412.205282] [holy7c08209:93503:0]          mpool.c:43   UCX  WARN  object 0x46e01c0 was not returned to mpool ucp_requests
[1621274412.208877] [holy7c08209:93512:0]          mpool.c:43   UCX  WARN  object 0x3b63280 was not returned to mpool ucp_requests
[1621274412.214328] [holy7c08209:93504:0]          mpool.c:43   UCX  WARN  object 0x387f2c0 was not returned to mpool ucp_requests
[1621274412.198212] [holy7c08607:4445 :0]          mpool.c:43   UCX  WARN  object 0x3691440 was not returned to mpool ucp_requests
[1621274412.203446] [holy7c08607:4444 :0]          mpool.c:43   UCX  WARN  object 0x463eec0 was not returned to mpool ucp_requests
[1621274412.203152] [holy7c08607:4436 :0]          mpool.c:43   UCX  WARN  object 0x3cc9500 was not returned to mpool ucp_requests
[1621274412.201659] [holy7c08607:4438 :0]          mpool.c:43   UCX  WARN  object 0x385b480 was not returned to mpool ucp_requests
[1621274412.204962] [holy7c08607:4435 :0]          mpool.c:43   UCX  WARN  object 0x2a8f000 was not returned to mpool ucp_requests
[1621274412.212914] [holy7c08607:4446 :0]          mpool.c:43   UCX  WARN  object 0x63968c0 was not returned to mpool ucp_requests
[1621274412.209679] [holy7c08607:4451 :0]          mpool.c:43   UCX  WARN  object 0x5426dc0 was not returned to mpool ucp_requests
[1621274412.215477] [holy7c08607:4437 :0]          mpool.c:43   UCX  WARN  object 0x3431d80 was not returned to mpool ucp_requests
[1621274412.215811] [holy7c08607:4452 :0]          mpool.c:43   UCX  WARN  object 0x37a6980 was not returned to mpool ucp_requests
[1621274412.199890] [holy7c08604:148776:0]          mpool.c:43   UCX  WARN  object 0x5514b00 was not returned to mpool ucp_requests
[1621274412.201988] [holy7c08604:148775:0]          mpool.c:43   UCX  WARN  object 0x3ce3800 was not returned to mpool ucp_requests
[1621274412.206800] [holy7c08604:148783:0]          mpool.c:43   UCX  WARN  object 0x3c30f80 was not returned to mpool ucp_requests
[1621274412.208087] [holy7c08604:148782:0]          mpool.c:43   UCX  WARN  object 0x34cc640 was not returned to mpool ucp_requests
[1621274412.201111] [holy7c08604:148781:0]          mpool.c:43   UCX  WARN  object 0x30ffe40 was not returned to mpool ucp_requests
[1621274412.207023] [holy7c08604:148774:0]          mpool.c:43   UCX  WARN  object 0x3691300 was not returned to mpool ucp_requests
[1621274412.208140] [holy7c08604:148773:0]          mpool.c:43   UCX  WARN  object 0x2ed6540 was not returned to mpool ucp_requests
[1621274412.209839] [holy7c08609:80513:0]          mpool.c:43   UCX  WARN  object 0x442ed40 was not returned to mpool ucp_requests