     Program PWSCF v.6.5 starts on 17May2021 at 20:50:18

     R & G space division:  proc/nbgrp/npool/nimage =      80
     Reading input from YBCO_CuO_cleave_3.0_sep.pwi
Warning: card &IONS ignored
Warning: card     ION_DYNAMICS = 'BFGS' ignored
Warning: card / ignored
Warning: card &CELL ignored
Warning: card     CELL_DYNAMICS = 'BFGS' ignored
Warning: card     PRESS_CONV_THR = 5 ignored
Warning: card / ignored

     Current dimensions of program PWSCF are:
     Max number of different atomic species (ntypx) = 10
     Max number of k-points (npk) =  40000
     Max angular momentum in pseudopotentials (lmaxx) =  3
     Message from routine volume:
     axis vectors are left-handed

     Message from routine setup:
     using ibrav=0 with symmetry is DISCOURAGED, use correct ibrav instead

     bravais-lattice index     =            0
     lattice parameter (alat)  =      20.5021  a.u.
     unit-cell volume          =   36917.4932 (a.u.)^3
     number of atoms/cell      =          224
     number of atomic types    =            5
     number of electrons       =      1830.00
     number of Kohn-Sham states=         1098
     kinetic-energy cutoff     =      60.0000  Ry
     charge density cutoff     =     720.0000  Ry
     convergence threshold     =      1.0E-08
     mixing beta               =       0.5000
     number of iterations used =           10  local-TF  mixing
     Exchange-correlation= SLA PW PBE PBE
                           (   1   4   3   4   0   0   0)

     celldm(1)=  20.502120  celldm(2)=   0.000000  celldm(3)=   0.000000
     celldm(4)=   0.000000  celldm(5)=   0.000000  celldm(6)=   0.000000

     crystal axes: (cart. coord. in units of alat)
               a(1) = (  -0.716599   0.697485   0.000000 )
               a(2) = (   0.716599   0.697485   0.000000 )
               a(3) = (   0.000000   0.000000   4.285432 )

     reciprocal axes: (cart. coord. in units 2 pi/alat)
               b(1) = ( -0.697740  0.716861  0.000000 )
               b(2) = (  0.697740  0.716861  0.000000 )
               b(3) = (  0.000000  0.000000  0.233349 )

     PseudoPot. # 1 for Ba read from file:
     ./pseudo/Ba.pbe-nsp-van.UPF
     MD5 check sum: 2b9c31dd849566dd297d80989662b7a0
     Pseudo is Ultrasoft + core correction, Zval = 10.0
     Generated by new atomic code, or converted to UPF format
     Using radial grid of  907 points,  6 beta functions with:
                l(1) =   0
                l(2) =   0
                l(3) =   1
                l(4) =   1
                l(5) =   2
                l(6) =   2
     Q(r) pseudized with  6 coefficients,  rinner =    1.200   1.200   1.200
                                                       1.200   1.200

     PseudoPot. # 2 for Ca read from file:
     ./pseudo/Ca.pbe-nsp-van.UPF
     MD5 check sum: 6471098428ff4fa451746d08035ff179
     Pseudo is Ultrasoft + core correction, Zval = 10.0
     Generated by new atomic code, or converted to UPF format
     Using radial grid of  845 points,  6 beta functions with:
                l(1) =   0
                l(2) =   0
                l(3) =   1
                l(4) =   1
                l(5) =   2
                l(6) =   2
     Q(r) pseudized with  6 coefficients,  rinner =    1.200   1.200   1.200
                                                       1.200   1.200

     PseudoPot. # 3 for Cu read from file:
     ./pseudo/Cu.pbe-n-van_ak.UPF
     MD5 check sum: 34e3282627ffb533726feb647e090d62
     Pseudo is Ultrasoft + core correction, Zval = 11.0
     Generated by new atomic code, or converted to UPF format
     Using radial grid of  867 points,  6 beta functions with:
                l(1) =   0
                l(2) =   0
                l(3) =   1
                l(4) =   1
                l(5) =   2
                l(6) =   2
     Q(r) pseudized with  8 coefficients,  rinner =    1.400   1.400   1.400
                                                       1.400   1.400

     PseudoPot. # 4 for O  read from file:
     ./pseudo/O.pbe-van_ak.UPF
     MD5 check sum: 783ce7fe4c79b6a4916957118fed0856
     Pseudo is Ultrasoft, Zval =  6.0
     Generated by new atomic code, or converted to UPF format
     Using radial grid of  737 points,  4 beta functions with:
                l(1) =   0
                l(2) =   0
                l(3) =   1
                l(4) =   1
     Q(r) pseudized with  8 coefficients,  rinner =    0.800   0.800   0.800

     PseudoPot. # 5 for Y  read from file:
     ./pseudo/Y.pbe-nsp-van.UPF
     MD5 check sum: 4412fed3ab108fed87a1b7d6a69a4a38
     Pseudo is Ultrasoft + core correction, Zval = 11.0
     Generated by new atomic code, or converted to UPF format
     Using radial grid of  885 points,  6 beta functions with:
                l(1) =   0
                l(2) =   0
                l(3) =   1
                l(4) =   1
                l(5) =   2
                l(6) =   2
     Q(r) pseudized with  6 coefficients,  rinner =    1.200   1.200   1.200
                                                       1.200   1.200

     atomic species   valence    mass     pseudopotential
        Ba            10.00   137.32700     Ba( 1.00)
        Ca            10.00    40.07800     Ca( 1.00)
        Cu            11.00    63.54600     Cu( 1.00)
        O              6.00    15.99900     O ( 1.00)
        Y             11.00    88.90584     Y ( 1.00)

      4 Sym. Ops. (no inversion) found ( 3 have fractional translation)

   Cartesian axes

     site n.     atom                  positions (alat units)
         1           O   tau(   1) = (   0.3545921   0.8718562  -0.0077406  )
         2           O   tau(   2) = (   0.0037072   0.8718562  -0.0077406  )
         3           Cu  tau(   3) = (  -0.0002581   0.0006065   0.0080789  )
         4           Cu  tau(   4) = (  -0.0002581   0.3481364   0.0080789  )
         5           Cu  tau(   5) = (   0.3585574   0.3481364   0.0080789  )
         6           Cu  tau(   6) = (  -0.3580421   0.6980913   0.0080789  )
         7           Cu  tau(   7) = (   0.3577988   0.6971373   0.0086255  )
         8           Cu  tau(   8) = (   0.0005005   1.0465760   0.0086255  )
         9           Cu  tau(   9) = (  -0.3588016   0.3490903   0.0086255  )
        10           Cu  tau(  10) = (   0.0005005   0.6971373   0.0086255  )
        11           O   tau(  11) = (  -0.0001733   0.5225410  -0.0089757  )
        12           O   tau(  12) = (   0.3584726   0.5225410  -0.0089757  )
        13           O   tau(  13) = (  -0.0001733   1.2211724  -0.0089757  )
        14           O   tau(  14) = (  -0.3581278   0.5236867  -0.0089757  )
        15           O   tau(  15) = (  -0.3544557   0.8718562  -0.0105593  )
        16           O   tau(  16) = (  -0.0038445   0.1743714  -0.0105593  )
        17           O   tau(  17) = (   0.3588818   0.3486599   0.1817056  )
        18           O   tau(  18) = (  -0.0005825   0.3486599   0.1817056  )
        19           O   tau(  19) = (  -0.0005825   0.0000830   0.1817056  )
        20           O   tau(  20) = (  -0.3577167   0.6975677   0.1817056  )
        21           O   tau(  21) = (   0.3584283   0.6967843   0.1825784  )
        22           O   tau(  22) = (  -0.3581712   0.3494443   0.1825784  )
        23           O   tau(  23) = (  -0.0001290   0.6967843   0.1825784  )
        24           O   tau(  24) = (  -0.0001290   1.0469291   0.1825784  )
        25           Ba  tau(  25) = (   0.1791506   0.8718562   0.1908537  )
        26           Ba  tau(  26) = (   0.5374498   0.5231143   0.1919901  )
        27           Ba  tau(  27) = (  -0.1791506   0.5231143   0.1919901  )
        28           Ba  tau(  28) = (  -0.1793773   0.8718562   0.1931958  )
        29           Ba  tau(  29) = (  -0.1789238   0.1743714   0.1931958  )
        30           Ba  tau(  30) = (   0.1791506   0.5222101   0.1929368  )
        31           Ba  tau(  31) = (  -0.5374498   0.5240176   0.1929368  )
        32           Ba  tau(  32) = (   0.1791506   0.1743714   0.1992469  )
        33           Cu  tau(  33) = (  -0.3583426   0.3488452   0.3777458  )
        34           Cu  tau(  34) = (   0.3582559   0.6973834   0.3777458  )
        35           Cu  tau(  35) = (   0.0000433   0.6973834   0.3777458  )
        36           Cu  tau(  36) = (   0.0000433   1.0463299   0.3777458  )
        37           Cu  tau(  37) = (  -0.3586541   0.6975060   0.3775126  )
        38           Cu  tau(  38) = (   0.3579444   0.3487217   0.3775126  )
        39           Cu  tau(  39) = (   0.0003549   0.0000212   0.3775126  )
        40           Cu  tau(  40) = (   0.0003549   0.3487217   0.3775126  )
        41           O   tau(  41) = (  -0.0047976   0.1743714   0.3996864  )
        42           O   tau(  42) = (  -0.3535026   0.8718562   0.3996864  )
        43           O   tau(  43) = (  -0.5374498   0.6924605   0.3956991  )
        44           O   tau(  44) = (   0.1791506   0.3537672   0.3956991  )
        45           O   tau(  45) = (   0.3586385   0.8718562   0.4046840  )
        46           O   tau(  46) = (  -0.0003392   0.8718562   0.4046840  )
        47           O   tau(  47) = (  -0.0004857   0.5230571   0.4066611  )
        48           O   tau(  48) = (   0.3587850   0.5230571   0.4066611  )
        49           O   tau(  49) = (  -0.3578135   0.5231714   0.4066611  )
        50           O   tau(  50) = (  -0.0004857   1.2206562   0.4066611  )
        51           O   tau(  51) = (   0.1791506   1.0461604   0.4028931  )
        52           O   tau(  52) = (   0.1791506   0.6975521   0.4028931  )
        53           O   tau(  53) = (  -0.1792261   0.6967170   0.4025963  )
        54           O   tau(  54) = (  -0.1790731   0.3495106   0.4025963  )
        55           O   tau(  55) = (  -0.1792261   1.0469964   0.4025963  )
        56           O   tau(  56) = (   0.5375263   0.6967170   0.4025963  )
        57           Ca  tau(  57) = (   0.1791506   0.1743714   0.5358617  )
        58           Y   tau(  58) = (  -0.1811525   0.8718562   0.5373908  )
        59           Y   tau(  59) = (  -0.1771467   0.1743714   0.5373908  )
        60           Y   tau(  60) = (   0.1791506   0.8718562   0.5379568  )
[...]
       210           O   tau( 210) = (   0.0037081   0.8718562   2.4406239  )
       211           Cu  tau( 211) = (  -0.0002516   0.0006074   2.4248200  )
       212           Cu  tau( 212) = (  -0.0002516   0.3481345   2.4248200  )
       213           Cu  tau( 213) = (   0.3585509   0.3481345   2.4248200  )
       214           Cu  tau( 214) = (  -0.3580476   0.6980931   2.4248200  )
       215           Cu  tau( 215) = (   0.3577960   0.6971373   2.4242735  )
       216           Cu  tau( 216) = (   0.0005033   1.0465760   2.4242735  )
       217           Cu  tau( 217) = (  -0.3588035   0.3490903   2.4242735  )
       218           Cu  tau( 218) = (   0.0005033   0.6971373   2.4242735  )
       219           O   tau( 219) = (  -0.0001724   0.5225410   2.4418627  )
       220           O   tau( 220) = (   0.3584716   0.5225410   2.4418627  )
       221           O   tau( 221) = (  -0.0001724   1.2211724   2.4418627  )
[...]

          k = 0.0000 0.4779 0.0000 (289679 PWs)   bands (ev):

[...]

          k =-0.4652-0.0000 0.0000 (289778 PWs)   bands (ev):

   -38.3932 -38.3669 -38.3637 -38.3594 -38.3572 -38.3426 -38.3409 -38.3155
   -38.2791 -38.2759 -38.2667 -38.2641 -38.2538 -38.2528 -35.9342 -35.8406
   -22.9593 -22.9451 -22.9317 -22.9133 -22.9020 -22.8989 -22.8938 -22.8879
   -22.8799 -22.8716 -22.8713 -22.8636 -22.8182 -22.8108 -22.8088 -22.8038
   -22.7964 -22.7947 -22.7899 -22.7889 -22.7643 -22.7522 -22.7501 -22.7341
   -22.7267 -22.7196 -22.6913 -22.6712 -22.6442 -22.6085 -22.5272 -22.3270
   -18.9725 -18.9002 -18.8945 -18.8847 -18.8704 -18.8427 -18.8139 -18.8082
   -18.8069 -18.7916 -18.7661 -18.7655 -18.7557 -18.7200 -18.7033 -18.6962
   -18.6837 -18.6796 -18.6773 -18.6721 -18.6676 -18.6124 -18.6077 -18.5915
   -18.5912 -18.5896 -18.5744 -18.5652 -18.5322 -18.5129 -18.5050 -18.4883
   -18.4844 -18.4809 -18.4439 -18.4241 -18.4143 -18.4017 -18.3993 -18.3613
   -18.3242 -18.2711 -17.1920 -17.1653 -17.1595 -17.1011 -17.0700 -17.0687
   -15.5288 -15.4680 -15.3412 -15.2809 -15.2703 -15.2155 -15.1352 -15.0828
   -15.0115 -14.9933 -14.9578 -14.9418 -14.9364 -14.9162 -14.9126 -14.8761
   -14.8523 -14.8456 -14.8217 -14.8091 -14.7897 -14.7797 -14.7780 -14.7709
   -14.7580 -14.7449 -14.7416 -14.7312 -14.7215 -14.7151 -14.6992 -14.6866
   -14.6732 -14.6640 -14.6422 -14.6359 -14.6035 -14.6016 -14.5896 -14.5816
   -14.5791 -14.5774 -14.5670 -14.5627 -14.5522 -14.5518 -14.5482 -14.5369
   -14.5331 -14.5301 -14.5118 -14.5053 -14.5015 -14.4961 -14.4642 -14.4543
   -14.4477 -14.4477 -14.4456 -14.4353 -14.4324 -14.4292 -14.4155 -14.4141
   -14.3920 -14.3890 -14.3745 -14.3683 -14.3656 -14.3618 -14.3471 -14.3426
   -14.3281 -14.3177 -14.3129 -14.3104 -14.2955 -14.2932 -14.2894 -14.2708
   -14.2555 -14.2407 -14.2401 -14.2393 -14.2256 -14.1896 -14.1651 -14.1605
   -14.0211 -14.0165 -14.0044 -14.0042 -13.9999 -13.9992 -13.9983 -13.9823
   -13.9812 -13.9808 -13.9497 -13.9461 -13.9314 -13.9275 -13.9257 -13.9138
   -13.9071 -13.8935 -13.8869 -13.8505 -13.8209 -13.7853 -13.7751 -13.7541
   -12.8479 -12.8349 -12.7603 -12.7600 -12.6981 -12.6971 -12.6587 -12.5819
    -8.7386  -8.7253  -8.5859  -8.4588  -8.4531  -8.4495  -8.4449  -8.4396
    -8.4358  -8.3676  -8.3456  -8.3207  -8.2984  -8.2865  -8.2852  -8.2809
    -8.2651  -8.2567  -8.2540  -8.2377  -8.2201  -8.2147  -8.2019  -8.2006
    -8.1974  -8.1906  -8.1863  -8.1818  -8.1766  -8.1638  -8.1610  -8.1579
    -8.1570  -8.1484  -8.1457  -8.1423  -8.1373  -8.1359  -8.1346  -8.1311
    -8.1276  -8.1267  -8.1257  -8.1236  -8.1207  -8.1206  -8.1126  -8.1116
    -8.1113  -8.1069  -8.1001  -8.0958  -8.0922  -8.0902  -8.0529  -8.0203
    -8.0180  -7.9933  -7.9649  -7.9539  -7.9538  -7.9509  -7.9440  -7.9284
    -7.9251  -7.9148  -7.8883  -7.8760  -7.8748  -7.8667  -7.8472  -7.8429
    -7.8362  -7.8243  -7.8226  -7.7820  -7.7741  -7.7730  -7.7684  -7.7662
    -7.7636  -7.7596  -7.7528  -7.7500  -7.7346  -7.7306  -7.7002  -7.6504
    -7.6249  -7.6013  -7.5940  -7.5703  -7.5608  -7.5429  -7.3412  -7.3381
    -4.1829  -4.1143  -3.7643  -3.7104  -3.6929  -3.6890  -3.6469  -3.6236
    -3.5942  -3.5689  -3.3493  -3.3220  -3.2950  -3.2531  -3.2254  -3.1932
    -3.0669  -3.0494  -3.0272  -3.0095  -2.9984  -2.9828  -2.9633  -2.9456
    -2.9322  -2.9262  -2.9016  -2.8885  -2.8805  -2.7976  -2.7751  -2.7721
    -2.7053  -2.6811  -2.5735  -2.5641  -2.5434  -2.5116  -2.5020  -2.4982
    -2.4921  -2.4899  -2.4861  -2.4830  -2.4742  -2.4638  -2.4127  -2.4077
    -2.4063  -2.3603  -2.3373  -2.3295  -2.2859  -2.2754  -2.2735  -2.2701
    -2.2654  -2.2540  -2.2400  -2.2235  -2.2231  -2.2175  -2.2133  -2.2096
    -2.2089  -2.1901  -2.1877  -2.1844  -2.1818  -2.1757  -2.1666  -2.1531
    -2.1529  -2.1443  -2.1305  -2.1126  -2.1065  -2.1050  -2.1029  -2.0989
    -2.0774  -2.0738  -2.0709  -2.0685  -2.0591  -2.0350  -2.0290  -2.0281
    -2.0239  -2.0219  -2.0212  -2.0128  -2.0082  -2.0038  -2.0032  -2.0021
    -1.9926  -1.9917  -1.9748  -1.9731  -1.9543  -1.9518  -1.9498  -1.9432
    -1.9329  -1.9250  -1.9227  -1.9047  -1.9032  -1.8981  -1.8960  -1.8895
    -1.8703  -1.8655  -1.8649  -1.8627  -1.8608  -1.8464  -1.8371  -1.8289
    -1.8255  -1.8163  -1.8160  -1.8054  -1.7902  -1.7866  -1.7692  -1.7584
    -1.7471  -1.7204  -1.7172  -1.6345  -1.4996  -1.4623  -1.4365  -1.4263
    -1.4005  -1.3674  -1.3297  -1.2297  -1.2215  -1.2063  -1.2033  -1.1731
    -1.1574  -1.1381  -1.1258  -1.1148  -1.1141  -1.1022  -1.0999  -1.0935
    -1.0902  -1.0747  -1.0731  -1.0706  -1.0593  -1.0569  -1.0496  -1.0397
    -1.0316  -1.0207  -1.0017  -0.9880  -0.9853  -0.9846  -0.9794  -0.9689
[...]
     6.8637   6.8791   6.8865   6.8955   6.9309   6.9737   7.0574   7.1048
     7.1331   7.1678   7.1704   7.2295   7.3577   7.3711   7.4027   7.5218
     7.5616   7.5619   7.6382   7.6481   7.6863   7.7036   7.7101   7.7171
     7.7311   7.7350   7.7361   7.7474   7.7537   7.7560   7.7913   7.7913
     7.8055   7.8128   7.8422   7.8918   7.9025   7.9229   7.9259   7.9363
     7.9858   7.9951   8.0274   8.0329   8.0561   8.0814   8.1387   8.1627
     8.1708   8.1917   8.2008   8.2158   8.2167   8.2327   8.2569   8.2979
     8.3071   8.3282   8.3357   8.3461   8.3813   8.4074   8.4618   8.4629
     8.5275   8.5321   8.5380   8.5518   8.5738   8.5971   8.6112   8.6266
     8.6625   8.6887   8.7052   8.7600   8.7636   8.7648   8.8111   8.8351
     8.8676   8.8736   8.8942   8.9188   8.9293   8.9467   8.9491   8.9675
     8.9678   8.9741   8.9772   8.9807   9.0034   9.0218   9.0433   9.0435
     9.0597   9.0640   9.0727   9.0767   9.0822   9.0845   9.1086   9.1295
     9.1360   9.1423   9.1602   9.1750   9.1758   9.1848   9.1885   9.2175
     9.2302   9.2480

     the Fermi energy is     2.7066 ev

!    total energy              =  -14923.87969502 Ry
     Harris-Foulkes estimate   =  -14923.87969501 Ry
     estimated scf accuracy    <          4.4E-09 Ry

     The total energy is the sum of the following terms:

     one-electron contribution = -207108.17913086 Ry
     hartree contribution      =  104774.04689413 Ry
     xc contribution           =   -5117.02967164 Ry
     ewald contribution        =   92527.35461951 Ry
     smearing contrib. (-TS)   =      -0.07240616 Ry

     convergence has been achieved in  43 iterations

     negative rho (up, down):  6.348E-01 0.000E+00

     Forces acting on atoms (cartesian axes, Ry/au):

     atom    1 type  4   force =     0.00009418    0.00000000   -0.00045229
     atom    2 type  4   force =    -0.00009418    0.00000000   -0.00045229
     atom    3 type  3   force =     0.00008602   -0.00003733    0.00020684
     atom    4 type  3   force =     0.00008602    0.00003733    0.00020684
     atom    5 type  3   force =    -0.00008602    0.00003733    0.00020684
     atom    6 type  3   force =    -0.00008602   -0.00003733    0.00020684
     atom    7 type  3   force =    -0.00000133   -0.00000074   -0.00000764
     atom    8 type  3   force =     0.00000133    0.00000074   -0.00000764
     atom    9 type  3   force =    -0.00000133    0.00000074   -0.00000764
     atom   10 type  3   force =     0.00000133   -0.00000074   -0.00000764
     atom   11 type  4   force =    -0.00011167    0.00006058   -0.00046924
     atom   12 type  4   force =     0.00011167    0.00006058   -0.00046924
     atom   13 type  4   force =    -0.00011167   -0.00006058   -0.00046924
     atom   14 type  4   force =     0.00011167   -0.00006058   -0.00046924
     atom   15 type  4   force =    -0.00014066    0.00000000   -0.00055921
     atom   16 type  4   force =     0.00014066    0.00000000   -0.00055921
     atom   17 type  4   force =     0.00000209    0.00005259    0.00065605
     atom   18 type  4   force =    -0.00000209    0.00005259    0.00065605
     atom   19 type  4   force =    -0.00000209   -0.00005259    0.00065605
     atom   20 type  4   force =     0.00000209   -0.00005259    0.00065605
     atom   21 type  4   force =     0.00004260    0.00004067    0.00086888
     atom   22 type  4   force =     0.00004260   -0.00004067    0.00086888
     atom   23 type  4   force =    -0.00004260    0.00004067    0.00086888
     atom   24 type  4   force =    -0.00004260   -0.00004067    0.00086888
     atom   25 type  1   force =     0.00000000    0.00000000   -0.00020638
     atom   26 type  1   force =     0.00000000    0.00000000   -0.00033478
     atom   27 type  1   force =     0.00000000    0.00000000   -0.00033478
     atom   28 type  1   force =    -0.00015693    0.00000000   -0.00020564
     atom   29 type  1   force =     0.00015693    0.00000000   -0.00020564
     atom   30 type  1   force =     0.00000000    0.00012282   -0.00045227
     atom   31 type  1   force =     0.00000000   -0.00012282   -0.00045227
     atom   32 type  1   force =     0.00000000    0.00000000   -0.00034420
     atom   33 type  3   force =    -0.00004266   -0.00001014   -0.00056650
     atom   34 type  3   force =    -0.00004266    0.00001014   -0.00056650
     atom   35 type  3   force =     0.00004266    0.00001014   -0.00056650
     atom   36 type  3   force =     0.00004266   -0.00001014   -0.00056650
     atom   37 type  3   force =     0.00002064   -0.00004432   -0.00055844
     atom   38 type  3   force =     0.00002064    0.00004432   -0.00055844
     atom   39 type  3   force =    -0.00002064   -0.00004432   -0.00055844
     atom   40 type  3   force =    -0.00002064    0.00004432   -0.00055844
     atom   41 type  4   force =    -0.00040920    0.00000000    0.00148242
     atom   42 type  4   force =     0.00040920    0.00000000    0.00148242
     atom   43 type  4   force =     0.00000000   -0.00011279    0.00136108
     atom   44 type  4   force =     0.00000000    0.00011279    0.00136108
     atom   45 type  4   force =     0.00006969    0.00000000    0.00173128
     atom   46 type  4   force =    -0.00006969    0.00000000    0.00173128
     atom   47 type  4   force =    -0.00001559   -0.00010597    0.00174751
     atom   48 type  4   force =     0.00001559   -0.00010597    0.00174751
     atom   49 type  4   force =     0.00001559    0.00010597    0.00174751
     atom   50 type  4   force =    -0.00001559    0.00010597    0.00174751
     atom   51 type  4   force =     0.00000000   -0.00002821    0.00135795
     atom   52 type  4   force =     0.00000000    0.00002821    0.00135795
     atom   53 type  4   force =     0.00003225    0.00003615    0.00157433
     atom   54 type  4   force =    -0.00003225   -0.00003615    0.00157433
     atom   55 type  4   force =     0.00003225   -0.00003615    0.00157433
     atom   56 type  4   force =    -0.00003225    0.00003615    0.00157433
     atom   57 type  2   force =     0.00000000    0.00000000   -0.00328395
     atom   58 type  5   force =     0.00053672    0.00000000   -0.00553697
     atom   59 type  5   force =    -0.00053672    0.00000000   -0.00553697
     atom   60 type  5   force =     0.00000000    0.00000000   -0.00481215
[...]
     atom  210 type  4   force =    -0.00006385    0.00000000   -0.00010150
     atom  211 type  3   force =     0.00009111   -0.00004681    0.00066180
     atom  212 type  3   force =     0.00009111    0.00004681    0.00066180
     atom  213 type  3   force =    -0.00009111    0.00004681    0.00066180
     atom  214 type  3   force =    -0.00009111   -0.00004681    0.00066180
     atom  215 type  3   force =     0.00000526   -0.00003276    0.00091575
     atom  216 type  3   force =    -0.00000526    0.00003276    0.00091575
     atom  217 type  3   force =     0.00000526    0.00003276    0.00091575
     atom  218 type  3   force =    -0.00000526   -0.00003276    0.00091575
     atom  219 type  4   force =    -0.00010493    0.00020723   -0.00001927
     atom  220 type  4   force =     0.00010493    0.00020723   -0.00001927
     atom  221 type  4   force =    -0.00010493   -0.00020723   -0.00001927
     atom  222 type  4   force =     0.00010493   -0.00020723   -0.00001927
     atom  223 type  4   force =    -0.00011385    0.00000000    0.00003758
     atom  224 type  4   force =     0.00011385    0.00000000    0.00003758

     Total force =     0.158687     Total SCF correction =     0.000316

     Computing stress (Cartesian axis) and pressure

     negative rho (up, down):  6.348E-01 0.000E+00
          total   stress  (Ry/bohr**3)                   (kbar)     P=       -6.66
  -0.00000344   0.00000000   0.00000000           -0.51        0.00        0.00
   0.00000000  -0.00010264   0.00000000            0.00      -15.10        0.00
   0.00000000   0.00000000  -0.00002970            0.00        0.00       -4.37

     General routines

     Parallel routines

   This run was terminated on:  22:16:50  17May2021

   JOB DONE.
[1621304210.430618] [holy7c16107:9784 :0]          mpool.c:43   UCX  WARN  object 0x299a080 was not returned to mpool ucp_requests
[1621304210.436513] [holy7c16107:9790 :0]          mpool.c:43   UCX  WARN  object 0x2f4c3c0 was not returned to mpool ucp_requests
[1621304210.433767] [holy7c16107:9782 :0]          mpool.c:43   UCX  WARN  object 0x3b139c0 was not returned to mpool ucp_requests
[1621304210.448154] [holy7c16201:107845:0]          mpool.c:43   UCX  WARN  object 0x45ce640 was not returned to mpool ucp_requests
[1621304210.436162] [holy7c16107:9791 :0]          mpool.c:43   UCX  WARN  object 0x3b769c0 was not returned to mpool ucp_requests
[1621304210.465154] [holy7c16106:172338:0]          mpool.c:43   UCX  WARN  object 0x3512540 was not returned to mpool ucp_requests
[1621304210.469813] [holy7c16104:21093:0]          mpool.c:43   UCX  WARN  object 0x3b99680 was not returned to mpool ucp_requests
[1621304210.472654] [holy7c16104:21095:0]          mpool.c:43   UCX  WARN  object 0x3cf3e40 was not returned to mpool ucp_requests
[1621304210.472181] [holy7c16104:21088:0]          mpool.c:43   UCX  WARN  object 0x326e080 was not returned to mpool ucp_requests
[1621304210.470437] [holy7c16104:21086:0]          mpool.c:43   UCX  WARN  object 0x36a7900 was not returned to mpool ucp_requests
[1621304210.474979] [holy7c16104:21096:0]          mpool.c:43   UCX  WARN  object 0x5801480 was not returned to mpool ucp_requests
[1621304210.477152] [holy7c16104:21094:0]          mpool.c:43   UCX  WARN  object 0x2ebdc80 was not returned to mpool ucp_requests
[1621304210.441928] [holy7c16107:9783 :0]          mpool.c:43   UCX  WARN  object 0x608c980 was not returned to mpool ucp_requests
[1621304210.479429] [holy7c16104:21087:0]          mpool.c:43   UCX  WARN  object 0x320a080 was not returned to mpool ucp_requests
[1621304210.443869] [holy7c16107:9785 :0]          mpool.c:43   UCX  WARN  object 0x46a1240 was not returned to mpool ucp_requests
[1621304210.451112] [holy7c16201:107853:0]          mpool.c:43   UCX  WARN  object 0x295eb80 was not returned to mpool ucp_requests
[1621304210.458302] [holy7c16201:107846:0]          mpool.c:43   UCX  WARN  object 0x644e640 was not returned to mpool ucp_requests
[1621304210.458977] [holy7c16201:107838:0]          mpool.c:43   UCX  WARN  object 0x5041340 was not returned to mpool ucp_requests
[1621304210.454659] [holy7c16201:107839:0]          mpool.c:43   UCX  WARN  object 0x33e5a40 was not returned to mpool ucp_requests
[1621304210.462017] [holy7c16201:107844:0]          mpool.c:43   UCX  WARN  object 0x339d800 was not returned to mpool ucp_requests
[1621304210.463781] [holy7c16201:107847:0]          mpool.c:43   UCX  WARN  object 0x2c90440 was not returned to mpool ucp_requests
[1621304210.465073] [holy7c16201:107852:0]          mpool.c:43   UCX  WARN  object 0x35b9400 was not returned to mpool ucp_requests
[1621304210.463982] [holy7c16201:107854:0]          mpool.c:43   UCX  WARN  object 0x4180900 was not returned to mpool ucp_requests
[1621304210.462839] [holy7c16106:172339:0]          mpool.c:43   UCX  WARN  object 0x2f85980 was not returned to mpool ucp_requests
[1621304210.461408] [holy7c16106:172331:0]          mpool.c:43   UCX  WARN  object 0x3b5fdc0 was not returned to mpool ucp_requests
[1621304210.468744] [holy7c16106:172330:0]          mpool.c:43   UCX  WARN  object 0x28879c0 was not returned to mpool ucp_requests
[1621304210.465686] [holy7c16106:172329:0]          mpool.c:43   UCX  WARN  object 0x3648fc0 was not returned to mpool ucp_requests
[1621304210.474332] [holy7c16106:172337:0]          mpool.c:43   UCX  WARN  object 0x4a81f40 was not returned to mpool ucp_requests
[1621304210.473543] [holy7c16106:172340:0]          mpool.c:43   UCX  WARN  object 0x37941c0 was not returned to mpool ucp_requests
[1621304210.471464] [holy7c16106:172332:0]          mpool.c:43   UCX  WARN  object 0x3087280 was not returned to mpool ucp_requests
[1621304210.477894] [holy7c16203:253464:0]          mpool.c:43   UCX  WARN  object 0x29908c0 was not returned to mpool ucp_requests