     Program PWSCF v.6.5 starts on 17May2021 at 18:15:50

     R & G space division:  proc/nbgrp/npool/nimage =      80
     Reading input from YBCO_Y_cleave_1.0_sep.pwi
Warning: card &IONS ignored
Warning: card     ION_DYNAMICS = 'BFGS' ignored
Warning: card / ignored
Warning: card &CELL ignored
Warning: card     CELL_DYNAMICS = 'BFGS' ignored
Warning: card     PRESS_CONV_THR = 5 ignored
Warning: card / ignored

     Current dimensions of program PWSCF are:
     Max number of different atomic species (ntypx) = 10
     Max number of k-points (npk) =  40000
     Max angular momentum in pseudopotentials (lmaxx) =  3
     Message from routine volume:
     axis vectors are left-handed

     Message from routine setup:
     using ibrav=0 with symmetry is DISCOURAGED, use correct ibrav instead

     bravais-lattice index     =            0
     lattice parameter (alat)  =      20.5021  a.u.
     unit-cell volume          =   35329.4303 (a.u.)^3
     number of atoms/cell      =          224
     number of atomic types    =            5
     number of electrons       =      1830.00
     number of Kohn-Sham states=         1098
     kinetic-energy cutoff     =      60.0000  Ry
     charge density cutoff     =     720.0000  Ry
     convergence threshold     =      1.0E-08
     mixing beta               =       0.5000
     number of iterations used =           10  local-TF  mixing
     Exchange-correlation= SLA PW PBE PBE
                           (   1   4   3   4   0   0   0)

     celldm(1)=  20.502120  celldm(2)=   0.000000  celldm(3)=   0.000000
     celldm(4)=   0.000000  celldm(5)=   0.000000  celldm(6)=   0.000000

     crystal axes: (cart. coord. in units of alat)
               a(1) = (  -0.716599   0.697485   0.000000 )
               a(2) = (   0.716599   0.697485   0.000000 )
               a(3) = (   0.000000   0.000000   4.101087 )

     reciprocal axes: (cart. coord. in units 2 pi/alat)
               b(1) = ( -0.697740  0.716861  0.000000 )
               b(2) = (  0.697740  0.716861  0.000000 )
               b(3) = (  0.000000  0.000000  0.243838 )

     PseudoPot. # 1 for Ba read from file:
     ./pseudo/Ba.pbe-nsp-van.UPF
     MD5 check sum: 2b9c31dd849566dd297d80989662b7a0
     Pseudo is Ultrasoft + core correction, Zval = 10.0
     Generated by new atomic code, or converted to UPF format
     Using radial grid of  907 points,  6 beta functions with:
                l(1) =   0
                l(2) =   0
                l(3) =   1
                l(4) =   1
                l(5) =   2
                l(6) =   2
     Q(r) pseudized with  6 coefficients,  rinner =    1.200   1.200   1.200
                                                       1.200   1.200

     PseudoPot. # 2 for Ca read from file:
     ./pseudo/Ca.pbe-nsp-van.UPF
     MD5 check sum: 6471098428ff4fa451746d08035ff179
     Pseudo is Ultrasoft + core correction, Zval = 10.0
     Generated by new atomic code, or converted to UPF format
     Using radial grid of  845 points,  6 beta functions with:
                l(1) =   0
                l(2) =   0
                l(3) =   1
                l(4) =   1
                l(5) =   2
                l(6) =   2
     Q(r) pseudized with  6 coefficients,  rinner =    1.200   1.200   1.200
                                                       1.200   1.200

     PseudoPot. # 3 for Cu read from file:
     ./pseudo/Cu.pbe-n-van_ak.UPF
     MD5 check sum: 34e3282627ffb533726feb647e090d62
     Pseudo is Ultrasoft + core correction, Zval = 11.0
     Generated by new atomic code, or converted to UPF format
     Using radial grid of  867 points,  6 beta functions with:
                l(1) =   0
                l(2) =   0
                l(3) =   1
                l(4) =   1
                l(5) =   2
                l(6) =   2
     Q(r) pseudized with  8 coefficients,  rinner =    1.400   1.400   1.400
                                                       1.400   1.400

     PseudoPot. # 4 for O  read from file:
     ./pseudo/O.pbe-van_ak.UPF
     MD5 check sum: 783ce7fe4c79b6a4916957118fed0856
     Pseudo is Ultrasoft, Zval =  6.0
     Generated by new atomic code, or converted to UPF format
     Using radial grid of  737 points,  4 beta functions with:
                l(1) =   0
                l(2) =   0
                l(3) =   1
                l(4) =   1
     Q(r) pseudized with  8 coefficients,  rinner =    0.800   0.800   0.800

     PseudoPot. # 5 for Y  read from file:
     ./pseudo/Y.pbe-nsp-van.UPF
     MD5 check sum: 4412fed3ab108fed87a1b7d6a69a4a38
     Pseudo is Ultrasoft + core correction, Zval = 11.0
     Generated by new atomic code, or converted to UPF format
     Using radial grid of  885 points,  6 beta functions with:
                l(1) =   0
                l(2) =   0
                l(3) =   1
                l(4) =   1
                l(5) =   2
                l(6) =   2
     Q(r) pseudized with  6 coefficients,  rinner =    1.200   1.200   1.200
                                                       1.200   1.200

     atomic species   valence    mass     pseudopotential
        Ba            10.00   137.32700     Ba( 1.00)
        Ca            10.00    40.07800     Ca( 1.00)
        Cu            11.00    63.54600     Cu( 1.00)
        O              6.00    15.99900     O ( 1.00)
        Y             11.00    88.90584     Y ( 1.00)

      4 Sym. Ops. (no inversion) found ( 3 have fractional translation)

   Cartesian axes

     site n.     atom                  positions (alat units)
         1           O   tau(   1) = (   0.3545921   0.8718562  -0.0077406  )
         2           O   tau(   2) = (   0.0037072   0.8718562  -0.0077406  )
         3           Cu  tau(   3) = (  -0.0002581   0.0006065   0.0080789  )
         4           Cu  tau(   4) = (  -0.0002581   0.3481364   0.0080789  )
         5           Cu  tau(   5) = (   0.3585574   0.3481364   0.0080789  )
         6           Cu  tau(   6) = (  -0.3580421   0.6980913   0.0080789  )
         7           Cu  tau(   7) = (   0.3577988   0.6971373   0.0086255  )
         8           Cu  tau(   8) = (   0.0005005   1.0465760   0.0086255  )
         9           Cu  tau(   9) = (  -0.3588016   0.3490903   0.0086255  )
        10           Cu  tau(  10) = (   0.0005005   0.6971373   0.0086255  )
        11           O   tau(  11) = (  -0.0001733   0.5225410  -0.0089757  )
        12           O   tau(  12) = (   0.3584726   0.5225410  -0.0089757  )
        13           O   tau(  13) = (  -0.0001733   1.2211724  -0.0089757  )
        14           O   tau(  14) = (  -0.3581278   0.5236867  -0.0089757  )
        15           O   tau(  15) = (  -0.3544557   0.8718562  -0.0105593  )
        16           O   tau(  16) = (  -0.0038445   0.1743714  -0.0105593  )
        17           O   tau(  17) = (   0.3588818   0.3486599   0.1817056  )
        18           O   tau(  18) = (  -0.0005825   0.3486599   0.1817056  )
        19           O   tau(  19) = (  -0.0005825   0.0000830   0.1817056  )
        20           O   tau(  20) = (  -0.3577167   0.6975677   0.1817056  )
        21           O   tau(  21) = (   0.3584283   0.6967843   0.1825784  )
        22           O   tau(  22) = (  -0.3581712   0.3494443   0.1825784  )
        23           O   tau(  23) = (  -0.0001290   0.6967843   0.1825784  )
        24           O   tau(  24) = (  -0.0001290   1.0469291   0.1825784  )
        25           Ba  tau(  25) = (   0.1791506   0.8718562   0.1908537  )
        26           Ba  tau(  26) = (   0.5374498   0.5231143   0.1919901  )
        27           Ba  tau(  27) = (  -0.1791506   0.5231143   0.1919901  )
        28           Ba  tau(  28) = (  -0.1793773   0.8718562   0.1931958  )
        29           Ba  tau(  29) = (  -0.1789238   0.1743714   0.1931958  )
        30           Ba  tau(  30) = (   0.1791506   0.5222101   0.1929368  )
        31           Ba  tau(  31) = (  -0.5374498   0.5240176   0.1929368  )
        32           Ba  tau(  32) = (   0.1791506   0.1743714   0.1992469  )
        33           Cu  tau(  33) = (  -0.3583426   0.3488452   0.3777458  )
        34           Cu  tau(  34) = (   0.3582559   0.6973834   0.3777458  )
        35           Cu  tau(  35) = (   0.0000433   0.6973834   0.3777458  )
        36           Cu  tau(  36) = (   0.0000433   1.0463299   0.3777458  )
        37           Cu  tau(  37) = (  -0.3586541   0.6975060   0.3775126  )
        38           Cu  tau(  38) = (   0.3579444   0.3487217   0.3775126  )
        39           Cu  tau(  39) = (   0.0003549   0.0000212   0.3775126  )
        40           Cu  tau(  40) = (   0.0003549   0.3487217   0.3775126  )
        41           O   tau(  41) = (  -0.0047976   0.1743714   0.3996864  )
        42           O   tau(  42) = (  -0.3535026   0.8718562   0.3996864  )
        43           O   tau(  43) = (  -0.5374498   0.6924605   0.3956991  )
        44           O   tau(  44) = (   0.1791506   0.3537672   0.3956991  )
        45           O   tau(  45) = (   0.3586385   0.8718562   0.4046840  )
        46           O   tau(  46) = (  -0.0003392   0.8718562   0.4046840  )
        47           O   tau(  47) = (  -0.0004857   0.5230571   0.4066611  )
        48           O   tau(  48) = (   0.3587850   0.5230571   0.4066611  )
        49           O   tau(  49) = (  -0.3578135   0.5231714   0.4066611  )
        50           O   tau(  50) = (  -0.0004857   1.2206562   0.4066611  )
        51           O   tau(  51) = (   0.1791506   1.0461604   0.4028931  )
        52           O   tau(  52) = (   0.1791506   0.6975521   0.4028931  )
        53           O   tau(  53) = (  -0.1792261   0.6967170   0.4025963  )
        54           O   tau(  54) = (  -0.1790731   0.3495106   0.4025963  )
        55           O   tau(  55) = (  -0.1792261   1.0469964   0.4025963  )
        56           O   tau(  56) = (   0.5375263   0.6967170   0.4025963  )
        57           Ca  tau(  57) = (   0.1791506   0.1743714   0.5358617  )
        58           Y   tau(  58) = (  -0.1811525   0.8718562   0.5373908  )
        59           Y   tau(  59) = (  -0.1771467   0.1743714   0.5373908  )
        60           Y   tau(  60) = (   0.1791506   0.8718562   0.5379568  )
[...]
       210           O   tau( 210) = (   0.0037081   0.8718562   2.2562794  )
       211           Cu  tau( 211) = (  -0.0002516   0.0006074   2.2404756  )
       212           Cu  tau( 212) = (  -0.0002516   0.3481345   2.2404756  )
       213           Cu  tau( 213) = (   0.3585509   0.3481345   2.2404756  )
       214           Cu  tau( 214) = (  -0.3580476   0.6980931   2.2404756  )
       215           Cu  tau( 215) = (   0.3577960   0.6971373   2.2399290  )
       216           Cu  tau( 216) = (   0.0005033   1.0465760   2.2399290  )
       217           Cu  tau( 217) = (  -0.3588035   0.3490903   2.2399290  )
       218           Cu  tau( 218) = (   0.0005033   0.6971373   2.2399290  )
       219           O   tau( 219) = (  -0.0001724   0.5225410   2.2575182  )
       220           O   tau( 220) = (   0.3584716   0.5225410   2.2575182  )
       221           O   tau( 221) = (  -0.0001724   1.2211724   2.2575182  )
[...]
          k = 0.0000 0.4779 0.0000 (277213 PWs)   bands (ev):

[...]

          k =-0.4652-0.0000 0.0000 (277224 PWs)   bands (ev):

   -40.1871 -40.1759 -40.1728 -40.1643 -40.1605 -40.1558 -40.1554 -37.8796
   -37.8522 -37.8488 -37.8450 -37.8426 -37.8291 -37.8274 -37.5789 -35.4161
   -22.6704 -22.6257 -22.5943 -22.5566 -22.5310 -22.5000 -22.4541 -22.4426
   -22.4346 -22.4309 -22.3990 -22.3516 -22.3495 -22.3444 -22.3190 -22.3129
   -22.3050 -22.2982 -22.2863 -22.2524 -22.2443 -22.2395 -22.2315 -22.2111
   -22.1894 -22.1499 -22.1466 -22.1402 -22.1017 -22.0806 -22.0485 -21.9728
   -20.4194 -20.3697 -20.3530 -20.3457 -20.3102 -20.2872 -20.2853 -20.2586
   -20.2341 -20.2052 -20.1602 -20.1478 -20.1343 -20.1312 -20.1188 -20.0900
   -20.0830 -20.0825 -20.0566 -20.0454 -20.0327 -18.6745 -18.6552 -18.5712
   -18.4581 -18.3854 -18.3798 -18.3545 -18.3305 -18.2917 -18.2538 -18.2433
   -18.1884 -18.1812 -18.1612 -18.1594 -18.1521 -18.0785 -18.0529 -18.0174
   -17.9923 -17.9733 -17.9690 -17.8993 -17.8463 -16.6755 -16.6469 -16.6407
   -15.5983 -15.4988 -15.4521 -15.3452 -15.1825 -15.1332 -15.1042 -15.0241
   -15.0123 -15.0037 -14.9976 -14.9294 -14.8989 -14.8706 -14.8364 -14.7870
   -14.7696 -14.7666 -14.6418 -14.6341 -14.5117 -14.4992 -14.4664 -14.4611
   -14.4281 -14.4067 -14.3923 -14.3818 -14.3512 -14.3401 -14.3171 -14.3106
   -14.3064 -14.2966 -14.2911 -14.2815 -14.2811 -14.2779 -14.2709 -14.2635
   -14.2606 -14.2121 -14.2085 -14.2060 -14.2020 -14.1394 -14.1355 -14.1180
   -14.1105 -14.1094 -14.1086 -14.1084 -14.1068 -14.0922 -14.0595 -14.0551
   -14.0456 -14.0342 -14.0209 -13.9865 -13.9660 -13.9481 -13.9390 -13.9212
   -13.9057 -13.8759 -13.8613 -13.8562 -13.8530 -13.8351 -13.8260 -13.8222
   -13.8071 -13.7979 -13.7895 -13.7859 -13.7777 -13.7539 -13.7443 -13.6707
   -13.6667 -13.6515 -13.6332 -13.5984 -13.5649 -13.5605 -13.5596 -13.5596
   -13.5572 -13.5451 -13.5435 -13.5429 -13.5415 -13.5411 -13.5359 -13.5240
   -13.5232 -13.5157 -13.5080 -13.5017 -13.4932 -13.4901 -13.4701 -13.4680
   -13.4571 -13.4505 -13.4456 -13.4357 -13.4309 -13.4187 -13.4168 -13.3956
   -13.3898 -13.3808 -13.3195 -13.3115 -13.2996 -13.2808 -13.2290 -13.2269
    -8.3517  -8.2799  -8.1485  -8.1064  -8.1031  -8.0818  -8.0655  -8.0474
    -8.0212  -8.0073  -7.9999  -7.9980  -7.9942  -7.9906  -7.9641  -7.9383
    -7.8731  -7.8470  -7.8398  -7.8192  -7.8141  -7.8122  -7.7981  -7.7891
    -7.7856  -7.7775  -7.7533  -7.7475  -7.7420  -7.7339  -7.7314  -7.7291
    -7.7005  -7.6986  -7.6954  -7.6858  -7.6785  -7.6769  -7.6752  -7.6666
    -7.6664  -7.6647  -7.6615  -7.6522  -7.6479  -7.6097  -7.6095  -7.5958
    -7.5700  -7.5638  -7.5268  -7.5074  -7.5061  -7.5059  -7.5053  -7.5045
    -7.4913  -7.4892  -7.4881  -7.4801  -7.4695  -7.4610  -7.4584  -7.4471
    -7.4468  -7.4438  -7.4294  -7.4206  -7.4192  -7.4177  -7.4060  -7.3964
    -7.3832  -7.3827  -7.3774  -7.3736  -7.3734  -7.3335  -7.3235  -7.3232
    -7.3141  -7.3047  -7.3027  -7.2853  -7.2663  -7.2458  -7.1992  -7.1711
    -7.1641  -7.1419  -7.1323  -7.1183  -7.1125  -7.0870  -7.0409  -6.9870
    -4.0730  -3.6903  -3.6770  -3.6279  -3.5027  -3.2585  -3.2080  -3.1741
    -3.1303  -3.0000  -2.9519  -2.9219  -2.9163  -2.8690  -2.8182  -2.8086
    -2.7832  -2.7767  -2.6782  -2.6523  -2.6118  -2.5730  -2.5464  -2.5167
    -2.5162  -2.5101  -2.4762  -2.4649  -2.4562  -2.4415  -2.4017  -2.3903
    -2.3838  -2.3537  -2.3510  -2.3124  -2.2826  -2.2694  -2.2572  -2.2311
    -2.1994  -2.1442  -2.1085  -2.0879  -2.0798  -2.0763  -2.0494  -2.0377
    -2.0340  -2.0298  -2.0181  -2.0109  -2.0021  -1.9864  -1.9727  -1.9706
    -1.9528  -1.9514  -1.8741  -1.8710  -1.8650  -1.8239  -1.8205  -1.8175
    -1.8067  -1.7862  -1.7680  -1.7633  -1.7566  -1.7514  -1.7458  -1.7431
    -1.7362  -1.7351  -1.7216  -1.7212  -1.7165  -1.7146  -1.7124  -1.7117
    -1.7054  -1.7051  -1.7002  -1.6972  -1.6773  -1.6619  -1.6609  -1.6599
    -1.6589  -1.6576  -1.6551  -1.6468  -1.6384  -1.6201  -1.6116  -1.5839
    -1.5767  -1.5757  -1.5743  -1.5706  -1.5623  -1.5451  -1.5446  -1.5411
    -1.5397  -1.5371  -1.5353  -1.5063  -1.4966  -1.4871  -1.4765  -1.4634
    -1.4430  -1.4255  -1.4120  -1.4082  -1.3894  -1.3776  -1.3493  -1.3489
    -1.3236  -1.3080  -1.3032  -1.3028  -1.2758  -1.2404  -1.2294  -1.1434
    -1.1342  -1.0954  -1.0855  -1.0661  -1.0576  -1.0526  -1.0520  -1.0426
    -1.0221  -1.0060  -1.0045  -0.9983  -0.9946  -0.9764  -0.9691  -0.9579
    -0.9376  -0.9321  -0.9299  -0.9179  -0.9082  -0.8875  -0.8857  -0.8623
    -0.8466  -0.8167  -0.8053  -0.7998  -0.7930  -0.7812  -0.7730  -0.7632
    -0.7621  -0.7494  -0.7419  -0.6848  -0.6631  -0.6501  -0.6412  -0.6321
[...]
     6.7918   6.7975   6.8006   6.8069   6.8425   6.8469   6.8515   6.8797
     6.8915   6.8955   6.9050   6.9608   6.9672   6.9896   7.0619   7.0918
     7.1114   7.1280   7.1616   7.1778   7.2044   7.2888   7.3173   7.3180
     7.3334   7.3694   7.4069   7.4239   7.4294   7.5044   7.5541   7.6086
     7.6649   7.7171   7.7222   7.7851   7.8200   7.8519   7.8712   7.9009
     7.9515   7.9682   8.0044   8.0143   8.0629   8.1317   8.1663   8.1726
     8.1945   8.1993   8.2081   8.2274   8.2472   8.2982   8.3081   8.3365
     8.3602   8.3641   8.3861   8.3956   8.4048   8.4392   8.5169   8.5320
     8.5495   8.5719   8.5942   8.6080   8.6370   8.6412   8.6553   8.6610
     8.6669   8.6872   8.7276   8.7370   8.7416   8.7574   8.7830   8.8323
     8.8703   8.9725   8.9892   9.0247   9.0254   9.0775   9.0799   9.0946
     9.1431   9.1542   9.1796   9.1999   9.2463   9.2847   9.2888   9.3125
     9.3233   9.3310   9.3408   9.3647   9.4165   9.4375   9.4486   9.4668
     9.4735   9.4938   9.4995   9.5275   9.5318   9.5390   9.5449   9.5550
     9.5775   9.5986

     the Fermi energy is     3.1635 ev

!    total energy              =  -14923.47165972 Ry
     Harris-Foulkes estimate   =  -14923.47165977 Ry
     estimated scf accuracy    <          5.6E-09 Ry

     The total energy is the sum of the following terms:

     one-electron contribution = -244288.42729169 Ry
     hartree contribution      =  123384.30195589 Ry
     xc contribution           =   -5115.88627034 Ry
     ewald contribution        =  111096.59311893 Ry
     smearing contrib. (-TS)   =      -0.05317251 Ry

     convergence has been achieved in  41 iterations

     negative rho (up, down):  6.323E-01 0.000E+00

     Forces acting on atoms (cartesian axes, Ry/au):

     atom    1 type  4   force =     0.00011290    0.00000000    0.00021114
     atom    2 type  4   force =    -0.00011290    0.00000000    0.00021114
     atom    3 type  3   force =     0.00008900   -0.00006167   -0.00023092
     atom    4 type  3   force =     0.00008900    0.00006167   -0.00023092
     atom    5 type  3   force =    -0.00008900    0.00006167   -0.00023092
     atom    6 type  3   force =    -0.00008900   -0.00006167   -0.00023092
     atom    7 type  3   force =    -0.00000862   -0.00002291   -0.00038056
     atom    8 type  3   force =     0.00000862    0.00002291   -0.00038056
     atom    9 type  3   force =    -0.00000862    0.00002291   -0.00038056
     atom   10 type  3   force =     0.00000862   -0.00002291   -0.00038056
     atom   11 type  4   force =    -0.00010273    0.00007482    0.00013419
     atom   12 type  4   force =     0.00010273    0.00007482    0.00013419
     atom   13 type  4   force =    -0.00010273   -0.00007482    0.00013419
     atom   14 type  4   force =     0.00010273   -0.00007482    0.00013419
     atom   15 type  4   force =    -0.00017059    0.00000000    0.00014392
     atom   16 type  4   force =     0.00017059    0.00000000    0.00014392
     atom   17 type  4   force =     0.00002887    0.00005008    0.00039020
     atom   18 type  4   force =    -0.00002887    0.00005008    0.00039020
     atom   19 type  4   force =    -0.00002887   -0.00005008    0.00039020
     atom   20 type  4   force =     0.00002887   -0.00005008    0.00039020
     atom   21 type  4   force =     0.00002773    0.00008417    0.00048963
     atom   22 type  4   force =     0.00002773   -0.00008417    0.00048963
     atom   23 type  4   force =    -0.00002773    0.00008417    0.00048963
     atom   24 type  4   force =    -0.00002773   -0.00008417    0.00048963
     atom   25 type  1   force =     0.00000000    0.00000000    0.00000702
     atom   26 type  1   force =     0.00000000    0.00000000   -0.00008587
     atom   27 type  1   force =     0.00000000    0.00000000   -0.00008587
     atom   28 type  1   force =    -0.00018477    0.00000000    0.00002526
     atom   29 type  1   force =     0.00018477    0.00000000    0.00002526
     atom   30 type  1   force =     0.00000000    0.00010148   -0.00021758
     atom   31 type  1   force =     0.00000000   -0.00010148   -0.00021758
     atom   32 type  1   force =     0.00000000    0.00000000   -0.00010786
     atom   33 type  3   force =    -0.00003693   -0.00000275   -0.00016028
     atom   34 type  3   force =    -0.00003693    0.00000275   -0.00016028
     atom   35 type  3   force =     0.00003693    0.00000275   -0.00016028
     atom   36 type  3   force =     0.00003693   -0.00000275   -0.00016028
     atom   37 type  3   force =     0.00003128    0.00003084   -0.00023442
     atom   38 type  3   force =     0.00003128   -0.00003084   -0.00023442
     atom   39 type  3   force =    -0.00003128    0.00003084   -0.00023442
     atom   40 type  3   force =    -0.00003128   -0.00003084   -0.00023442
     atom   41 type  4   force =    -0.00014847    0.00000000   -0.00023794
     atom   42 type  4   force =     0.00014847    0.00000000   -0.00023794
     atom   43 type  4   force =     0.00000000    0.00000756    0.00007788
     atom   44 type  4   force =     0.00000000   -0.00000756    0.00007788
     atom   45 type  4   force =     0.00005976    0.00000000   -0.00016420
     atom   46 type  4   force =    -0.00005976    0.00000000   -0.00016420
     atom   47 type  4   force =    -0.00002583    0.00000643   -0.00009803
     atom   48 type  4   force =     0.00002583    0.00000643   -0.00009803
     atom   49 type  4   force =     0.00002583   -0.00000643   -0.00009803
     atom   50 type  4   force =    -0.00002583   -0.00000643   -0.00009803
     atom   51 type  4   force =     0.00000000   -0.00002685    0.00002760
     atom   52 type  4   force =     0.00000000    0.00002685    0.00002760
     atom   53 type  4   force =     0.00009196    0.00000977    0.00017950
     atom   54 type  4   force =    -0.00009196   -0.00000977    0.00017950
     atom   55 type  4   force =     0.00009196   -0.00000977    0.00017950
     atom   56 type  4   force =    -0.00009196    0.00000977    0.00017950
     atom   57 type  2   force =     0.00000000    0.00000000   -0.00011357
     atom   58 type  5   force =     0.00029754    0.00000000   -0.00036893
     atom   59 type  5   force =    -0.00029754    0.00000000   -0.00036893
     atom   60 type  5   force =     0.00000000    0.00000000    0.00008311
[...]
     atom  210 type  4   force =    -0.00020809    0.00000000    0.00218869
     atom  211 type  3   force =     0.00013733   -0.00006915   -0.00151695
     atom  212 type  3   force =     0.00013733    0.00006915   -0.00151695
     atom  213 type  3   force =    -0.00013733    0.00006915   -0.00151695
     atom  214 type  3   force =    -0.00013733   -0.00006915   -0.00151695
     atom  215 type  3   force =     0.00003848   -0.00010692   -0.00171900
     atom  216 type  3   force =    -0.00003848    0.00010692   -0.00171900
     atom  217 type  3   force =     0.00003848    0.00010692   -0.00171900
     atom  218 type  3   force =    -0.00003848   -0.00010692   -0.00171900
     atom  219 type  4   force =    -0.00007738    0.00051848    0.00212718
     atom  220 type  4   force =     0.00007738    0.00051848    0.00212718
     atom  221 type  4   force =    -0.00007738   -0.00051848    0.00212718
     atom  222 type  4   force =     0.00007738   -0.00051848    0.00212718
     atom  223 type  4   force =    -0.00026149    0.00000000    0.00154211
     atom  224 type  4   force =     0.00026149    0.00000000    0.00154211

     Total force =     0.315024     Total SCF correction =     0.000355

     Computing stress (Cartesian axis) and pressure

     negative rho (up, down):  6.323E-01 0.000E+00
          total   stress  (Ry/bohr**3)                   (kbar)     P=      -11.33
  -0.00001176   0.00000000   0.00000000           -1.73        0.00        0.00
   0.00000000  -0.00000303   0.00000000            0.00       -0.45        0.00
   0.00000000   0.00000000  -0.00021632            0.00        0.00      -31.82

     General routines

     Parallel routines

   This run was terminated on:  19:36:22  17May2021

   JOB DONE.
[1621294582.616000] [holy7c10311:17746:0]          mpool.c:43   UCX  WARN  object 0x2f6e0c0 was not returned to mpool ucp_requests
[1621294582.622825] [holy7c10311:17745:0]          mpool.c:43   UCX  WARN  object 0x31ac100 was not returned to mpool ucp_requests
[1621294582.623907] [holy7c10311:17744:0]          mpool.c:43   UCX  WARN  object 0x44c6840 was not returned to mpool ucp_requests
[1621294582.629633] [holy7c10311:17752:0]          mpool.c:43   UCX  WARN  object 0x2f07e40 was not returned to mpool ucp_requests
[1621294582.630002] [holy7c10403:254636:0]          mpool.c:43   UCX  WARN  object 0x46c11c0 was not returned to mpool ucp_requests
[1621294582.630517] [holy7c10311:17743:0]          mpool.c:43   UCX  WARN  object 0x385b980 was not returned to mpool ucp_requests
[1621294582.631820] [holy7c10311:17753:0]          mpool.c:43   UCX  WARN  object 0x3739ec0 was not returned to mpool ucp_requests
[1621294582.631283] [holy7c10210:172374:0]          mpool.c:43   UCX  WARN  object 0x2c6ea80 was not returned to mpool ucp_requests
[1621294582.630637] [holy7c10210:172382:0]          mpool.c:43   UCX  WARN  object 0x3921980 was not returned to mpool ucp_requests
[1621294582.630955] [holy7c10210:172373:0]          mpool.c:43   UCX  WARN  object 0x4001a40 was not returned to mpool ucp_requests
[1621294582.633722] [holy7c10311:17751:0]          mpool.c:43   UCX  WARN  object 0x5367880 was not returned to mpool ucp_requests
[1621294582.631980] [holy7c10210:172375:0]          mpool.c:43   UCX  WARN  object 0x3226dc0 was not returned to mpool ucp_requests
[1621294582.633300] [holy7c10210:172380:0]          mpool.c:43   UCX  WARN  object 0x3cb8dc0 was not returned to mpool ucp_requests
[1621294582.635199] [holy7c10308:131850:0]          mpool.c:43   UCX  WARN  object 0x2fa0d80 was not returned to mpool ucp_requests
[1621294582.635638] [holy7c10308:131848:0]          mpool.c:43   UCX  WARN  object 0x432a040 was not returned to mpool ucp_requests
[1621294582.633540] [holy7c10210:172381:0]          mpool.c:43   UCX  WARN  object 0x4221840 was not returned to mpool ucp_requests
[1621294582.643905] [holy7c10210:172383:0]          mpool.c:43   UCX  WARN  object 0x40b6680 was not returned to mpool ucp_requests
[1621294582.639524] [holy7c10308:131858:0]          mpool.c:43   UCX  WARN  object 0x30f9a80 was not returned to mpool ucp_requests
[1621294582.641740] [holy7c10308:131856:0]          mpool.c:43   UCX  WARN  object 0x5649a00 was not returned to mpool ucp_requests
[1621294582.629849] [holy7c10311:17754:0]          mpool.c:43   UCX  WARN  object 0x35a1680 was not returned to mpool ucp_requests
[1621294582.644390] [holy7c10308:131857:0]          mpool.c:43   UCX  WARN  object 0x3b5a200 was not returned to mpool ucp_requests
[1621294582.630215] [holy7c10403:254638:0]          mpool.c:43   UCX  WARN  object 0x32e0c40 was not returned to mpool ucp_requests
[1621294582.630049] [holy7c10403:254635:0]          mpool.c:43   UCX  WARN  object 0x3fbaac0 was not returned to mpool ucp_requests
[1621294582.630323] [holy7c10403:254637:0]          mpool.c:43   UCX  WARN  object 0x3093700 was not returned to mpool ucp_requests
[1621294582.631887] [holy7c10403:254646:0]          mpool.c:43   UCX  WARN  object 0x3efa540 was not returned to mpool ucp_requests
[1621294582.632973] [holy7c10403:254645:0]          mpool.c:43   UCX  WARN  object 0x3cb9bc0 was not returned to mpool ucp_requests
[1621294582.636195] [holy7c10403:254644:0]          mpool.c:43   UCX  WARN  object 0x428c940 was not returned to mpool ucp_requests
[1621294582.651177] [holy7c10403:254643:0]          mpool.c:43   UCX  WARN  object 0x3fb2980 was not returned to mpool ucp_requests
[1621294582.647566] [holy7c10308:131849:0]          mpool.c:43   UCX  WARN  object 0x369ca40 was not returned to mpool ucp_requests
[1621294582.650693] [holy7c10308:131859:0]          mpool.c:43   UCX  WARN  object 0x3154840 was not returned to mpool ucp_requests
[1621294582.667976] [holy7c10308:131851:0]          mpool.c:43   UCX  WARN  object 0x5df1100 was not returned to mpool ucp_requests