     Program PWSCF v.6.5 starts on 17May2021 at 17:59:42

     R & G space division:  proc/nbgrp/npool/nimage =      80
     Reading input from YBCO_BaO_cleave_1.5_sep.pwi
Warning: card &IONS ignored
Warning: card     ION_DYNAMICS = 'BFGS' ignored
Warning: card / ignored
Warning: card &CELL ignored
Warning: card     CELL_DYNAMICS = 'BFGS' ignored
Warning: card     PRESS_CONV_THR = 5 ignored
Warning: card / ignored

     Current dimensions of program PWSCF are:
     Max number of different atomic species (ntypx) = 10
     Max number of k-points (npk) =  40000
     Max angular momentum in pseudopotentials (lmaxx) =  3
     Message from routine volume:
     axis vectors are left-handed

     Message from routine setup:
     using ibrav=0 with symmetry is DISCOURAGED, use correct ibrav instead

     bravais-lattice index     =            0
     lattice parameter (alat)  =      20.5021  a.u.
     unit-cell volume          =   35726.4460 (a.u.)^3
     number of atoms/cell      =          224
     number of atomic types    =            5
     number of electrons       =      1830.00
     number of Kohn-Sham states=         1098
     kinetic-energy cutoff     =      60.0000  Ry
     charge density cutoff     =     720.0000  Ry
     convergence threshold     =      1.0E-08
     mixing beta               =       0.5000
     number of iterations used =           10  local-TF  mixing
     Exchange-correlation= SLA PW PBE PBE
                           (   1   4   3   4   0   0   0)

     celldm(1)=  20.502120  celldm(2)=   0.000000  celldm(3)=   0.000000
     celldm(4)=   0.000000  celldm(5)=   0.000000  celldm(6)=   0.000000

     crystal axes: (cart. coord. in units of alat)
               a(1) = (  -0.716599   0.697485   0.000000 )
               a(2) = (   0.716599   0.697485   0.000000 )
               a(3) = (   0.000000   0.000000   4.147173 )

     reciprocal axes: (cart. coord. in units 2 pi/alat)
               b(1) = ( -0.697740  0.716861  0.000000 )
               b(2) = (  0.697740  0.716861  0.000000 )
               b(3) = (  0.000000  0.000000  0.241128 )

     PseudoPot. # 1 for Ba read from file:
     ./pseudo/Ba.pbe-nsp-van.UPF
     MD5 check sum: 2b9c31dd849566dd297d80989662b7a0
     Pseudo is Ultrasoft + core correction, Zval = 10.0
     Generated by new atomic code, or converted to UPF format
     Using radial grid of  907 points,  6 beta functions with:
                l(1) =   0
                l(2) =   0
                l(3) =   1
                l(4) =   1
                l(5) =   2
                l(6) =   2
     Q(r) pseudized with  6 coefficients,  rinner =    1.200   1.200   1.200
                                                       1.200   1.200

     PseudoPot. # 2 for Ca read from file:
     ./pseudo/Ca.pbe-nsp-van.UPF
     MD5 check sum: 6471098428ff4fa451746d08035ff179
     Pseudo is Ultrasoft + core correction, Zval = 10.0
     Generated by new atomic code, or converted to UPF format
     Using radial grid of  845 points,  6 beta functions with:
                l(1) =   0
                l(2) =   0
                l(3) =   1
                l(4) =   1
                l(5) =   2
                l(6) =   2
     Q(r) pseudized with  6 coefficients,  rinner =    1.200   1.200   1.200
                                                       1.200   1.200

     PseudoPot. # 3 for Cu read from file:
     ./pseudo/Cu.pbe-n-van_ak.UPF
     MD5 check sum: 34e3282627ffb533726feb647e090d62
     Pseudo is Ultrasoft + core correction, Zval = 11.0
     Generated by new atomic code, or converted to UPF format
     Using radial grid of  867 points,  6 beta functions with:
                l(1) =   0
                l(2) =   0
                l(3) =   1
                l(4) =   1
                l(5) =   2
                l(6) =   2
     Q(r) pseudized with  8 coefficients,  rinner =    1.400   1.400   1.400
                                                       1.400   1.400

     PseudoPot. # 4 for O  read from file:
     ./pseudo/O.pbe-van_ak.UPF
     MD5 check sum: 783ce7fe4c79b6a4916957118fed0856
     Pseudo is Ultrasoft, Zval =  6.0
     Generated by new atomic code, or converted to UPF format
     Using radial grid of  737 points,  4 beta functions with:
                l(1) =   0
                l(2) =   0
                l(3) =   1
                l(4) =   1
     Q(r) pseudized with  8 coefficients,  rinner =    0.800   0.800   0.800

     PseudoPot. # 5 for Y  read from file:
     ./pseudo/Y.pbe-nsp-van.UPF
     MD5 check sum: 4412fed3ab108fed87a1b7d6a69a4a38
     Pseudo is Ultrasoft + core correction, Zval = 11.0
     Generated by new atomic code, or converted to UPF format
     Using radial grid of  885 points,  6 beta functions with:
                l(1) =   0
                l(2) =   0
                l(3) =   1
                l(4) =   1
                l(5) =   2
                l(6) =   2
     Q(r) pseudized with  6 coefficients,  rinner =    1.200   1.200   1.200
                                                       1.200   1.200

     atomic species   valence    mass     pseudopotential
        Ba            10.00   137.32700     Ba( 1.00)
        Ca            10.00    40.07800     Ca( 1.00)
        Cu            11.00    63.54600     Cu( 1.00)
        O              6.00    15.99900     O ( 1.00)
        Y             11.00    88.90584     Y ( 1.00)

      4 Sym. Ops. (no inversion) found ( 3 have fractional translation)

   Cartesian axes

     site n.     atom                  positions (alat units)
         1           O   tau(   1) = (   0.3545921   0.8718562  -0.0077406  )
         2           O   tau(   2) = (   0.0037072   0.8718562  -0.0077406  )
         3           Cu  tau(   3) = (  -0.0002581   0.0006065   0.0080789  )
         4           Cu  tau(   4) = (  -0.0002581   0.3481364   0.0080789  )
         5           Cu  tau(   5) = (   0.3585574   0.3481364   0.0080789  )
         6           Cu  tau(   6) = (  -0.3580421   0.6980913   0.0080789  )
         7           Cu  tau(   7) = (   0.3577988   0.6971373   0.0086255  )
         8           Cu  tau(   8) = (   0.0005005   1.0465760   0.0086255  )
         9           Cu  tau(   9) = (  -0.3588016   0.3490903   0.0086255  )
        10           Cu  tau(  10) = (   0.0005005   0.6971373   0.0086255  )
        11           O   tau(  11) = (  -0.0001733   0.5225410  -0.0089757  )
        12           O   tau(  12) = (   0.3584726   0.5225410  -0.0089757  )
        13           O   tau(  13) = (  -0.0001733   1.2211724  -0.0089757  )
        14           O   tau(  14) = (  -0.3581278   0.5236867  -0.0089757  )
        15           O   tau(  15) = (  -0.3544557   0.8718562  -0.0105593  )
        16           O   tau(  16) = (  -0.0038445   0.1743714  -0.0105593  )
        17           O   tau(  17) = (   0.3588818   0.3486599   0.1817056  )
        18           O   tau(  18) = (  -0.0005825   0.3486599   0.1817056  )
        19           O   tau(  19) = (  -0.0005825   0.0000830   0.1817056  )
        20           O   tau(  20) = (  -0.3577167   0.6975677   0.1817056  )
        21           O   tau(  21) = (   0.3584283   0.6967843   0.1825784  )
        22           O   tau(  22) = (  -0.3581712   0.3494443   0.1825784  )
        23           O   tau(  23) = (  -0.0001290   0.6967843   0.1825784  )
        24           O   tau(  24) = (  -0.0001290   1.0469291   0.1825784  )
        25           Ba  tau(  25) = (   0.1791506   0.8718562   0.1908537  )
        26           Ba  tau(  26) = (   0.5374498   0.5231143   0.1919901  )
        27           Ba  tau(  27) = (  -0.1791506   0.5231143   0.1919901  )
        28           Ba  tau(  28) = (  -0.1793773   0.8718562   0.1931958  )
        29           Ba  tau(  29) = (  -0.1789238   0.1743714   0.1931958  )
        30           Ba  tau(  30) = (   0.1791506   0.5222101   0.1929368  )
        31           Ba  tau(  31) = (  -0.5374498   0.5240176   0.1929368  )
        32           Ba  tau(  32) = (   0.1791506   0.1743714   0.1992469  )
        33           Cu  tau(  33) = (  -0.3583426   0.3488452   0.3777458  )
        34           Cu  tau(  34) = (   0.3582559   0.6973834   0.3777458  )
        35           Cu  tau(  35) = (   0.0000433   0.6973834   0.3777458  )
        36           Cu  tau(  36) = (   0.0000433   1.0463299   0.3777458  )
        37           Cu  tau(  37) = (  -0.3586541   0.6975060   0.3775126  )
        38           Cu  tau(  38) = (   0.3579444   0.3487217   0.3775126  )
        39           Cu  tau(  39) = (   0.0003549   0.0000212   0.3775126  )
        40           Cu  tau(  40) = (   0.0003549   0.3487217   0.3775126  )
        41           O   tau(  41) = (  -0.0047976   0.1743714   0.3996864  )
        42           O   tau(  42) = (  -0.3535026   0.8718562   0.3996864  )
        43           O   tau(  43) = (  -0.5374498   0.6924605   0.3956991  )
        44           O   tau(  44) = (   0.1791506   0.3537672   0.3956991  )
        45           O   tau(  45) = (   0.3586385   0.8718562   0.4046840  )
        46           O   tau(  46) = (  -0.0003392   0.8718562   0.4046840  )
        47           O   tau(  47) = (  -0.0004857   0.5230571   0.4066611  )
        48           O   tau(  48) = (   0.3587850   0.5230571   0.4066611  )
        49           O   tau(  49) = (  -0.3578135   0.5231714   0.4066611  )
        50           O   tau(  50) = (  -0.0004857   1.2206562   0.4066611  )
        51           O   tau(  51) = (   0.1791506   1.0461604   0.4028931  )
        52           O   tau(  52) = (   0.1791506   0.6975521   0.4028931  )
        53           O   tau(  53) = (  -0.1792261   0.6967170   0.4025963  )
        54           O   tau(  54) = (  -0.1790731   0.3495106   0.4025963  )
        55           O   tau(  55) = (  -0.1792261   1.0469964   0.4025963  )
        56           O   tau(  56) = (   0.5375263   0.6967170   0.4025963  )
        57           Ca  tau(  57) = (   0.1791506   0.1743714   0.5358617  )
        58           Y   tau(  58) = (  -0.1811525   0.8718562   0.5373908  )
        59           Y   tau(  59) = (  -0.1771467   0.1743714   0.5373908  )
        60           Y   tau(  60) = (   0.1791506   0.8718562   0.5379568  )
[...]
       210           O   tau( 210) = (   0.0037081   0.8718562   2.3023655  )
       211           Cu  tau( 211) = (  -0.0002516   0.0006074   2.2865617  )
       212           Cu  tau( 212) = (  -0.0002516   0.3481345   2.2865617  )
       213           Cu  tau( 213) = (   0.3585509   0.3481345   2.2865617  )
       214           Cu  tau( 214) = (  -0.3580476   0.6980931   2.2865617  )
       215           Cu  tau( 215) = (   0.3577960   0.6971373   2.2860151  )
       216           Cu  tau( 216) = (   0.0005033   1.0465760   2.2860151  )
       217           Cu  tau( 217) = (  -0.3588035   0.3490903   2.2860151  )
       218           Cu  tau( 218) = (   0.0005033   0.6971373   2.2860151  )
       219           O   tau( 219) = (  -0.0001724   0.5225410   2.3036043  )
       220           O   tau( 220) = (   0.3584716   0.5225410   2.3036043  )
       221           O   tau( 221) = (  -0.0001724   1.2211724   2.3036043  )
[...]
[...]

          k = 0.0000 0.4779 0.0000 (280335 PWs)   bands (ev):

[...]

          k =-0.4652-0.0000 0.0000 (280314 PWs)   bands (ev):

   -38.0273 -38.0007 -37.9972 -37.9938 -37.9914 -37.9778 -37.9761 -37.8103
   -37.7641 -37.7603 -37.7574 -37.7550 -37.7428 -37.7409 -35.5656 -35.2619
   -23.5909 -23.3367 -23.3260 -23.2546 -23.2133 -23.1611 -23.1253 -22.9123
   -22.6486 -22.6308 -22.6027 -22.5912 -22.5849 -22.5832 -22.5731 -22.5656
   -22.5002 -22.4981 -22.4930 -22.4897 -22.4824 -22.4804 -22.4752 -22.4591
   -22.4536 -22.4357 -22.4160 -22.3820 -22.3623 -22.2472 -22.2160 -22.1361
   -18.6067 -18.5337 -18.5281 -18.5022 -18.4790 -18.4401 -18.4027 -18.3916
   -18.3827 -18.3371 -18.3297 -18.3186 -18.3129 -18.3095 -18.3080 -18.3009
   -18.2949 -18.2269 -18.2242 -18.2186 -18.2018 -18.1659 -18.1409 -18.1389
   -18.1326 -18.1216 -18.1168 -18.1106 -18.1022 -18.0898 -18.0761 -18.0479
   -18.0373 -17.9949 -17.9636 -17.9472 -17.9319 -17.9041 -17.9028 -17.8727
   -17.8276 -17.7691 -16.8251 -16.7965 -16.7899 -16.5097 -16.5089 -16.4888
   -15.1728 -14.9869 -14.9849 -14.9149 -14.8210 -14.7907 -14.7670 -14.6895
   -14.6884 -14.6483 -14.6364 -14.6151 -14.6019 -14.5738 -14.5449 -14.5349
   -14.5198 -14.5002 -14.4897 -14.4745 -14.4651 -14.4628 -14.4600 -14.4339
   -14.4314 -14.4096 -14.4092 -14.3724 -14.3620 -14.3576 -14.3548 -14.3271
   -14.3208 -14.3193 -14.3171 -14.2999 -14.2903 -14.2878 -14.2841 -14.2831
   -14.2602 -14.2582 -14.2563 -14.2412 -14.2405 -14.2222 -14.2082 -14.1823
   -14.1710 -14.1703 -14.1485 -14.1416 -14.1362 -14.1198 -14.1142 -14.1010
   -14.0975 -14.0940 -14.0702 -14.0685 -14.0590 -14.0541 -14.0541 -14.0235
   -14.0092 -14.0016 -13.9984 -13.9817 -13.9783 -13.9550 -13.9472 -13.9385
   -13.9112 -13.9008 -13.8941 -13.8785 -13.8296 -13.8202 -13.8195 -13.7506
   -13.7292 -13.7135 -13.7125 -13.7120 -13.7084 -13.7074 -13.6924 -13.6922
   -13.6919 -13.6916 -13.6730 -13.6678 -13.6606 -13.6463 -13.6435 -13.6419
   -13.6388 -13.6360 -13.6282 -13.6093 -13.6083 -13.6067 -13.6057 -13.6000
   -13.5991 -13.5929 -13.5901 -13.5810 -13.5630 -13.5545 -13.5477 -13.5394
   -13.5323 -13.4872 -13.4791 -13.4580 -13.4437 -13.4336 -13.3901 -13.3263
    -8.9993  -8.9528  -8.7764  -8.6987  -8.6844  -8.6765  -8.6490  -8.6143
    -8.5564  -8.5391  -8.4762  -8.4459  -8.4285  -8.4109  -8.4052  -8.4012
    -8.3427  -8.3233  -8.2293  -8.1994  -8.1832  -8.1485  -8.1428  -8.1392
    -8.1310  -8.1255  -8.1249  -8.1244  -8.1227  -8.0472  -8.0422  -7.9884
    -7.9710  -7.9529  -7.9517  -7.9262  -7.9062  -7.9016  -7.8962  -7.8913
    -7.8885  -7.8818  -7.8800  -7.8709  -7.8598  -7.8496  -7.8457  -7.8431
    -7.8361  -7.8334  -7.8289  -7.8271  -7.8263  -7.8241  -7.8154  -7.8153
    -7.8101  -7.8100  -7.8075  -7.8069  -7.7996  -7.7974  -7.7920  -7.7910
    -7.7816  -7.7814  -7.7719  -7.7527  -7.6545  -7.6377  -7.6272  -7.6181
    -7.6142  -7.6109  -7.6014  -7.5940  -7.5780  -7.5605  -7.5585  -7.5493
    -7.5260  -7.5095  -7.5092  -7.4718  -7.4626  -7.4549  -7.4532  -7.4459
    -7.4418  -7.4356  -7.3380  -7.3374  -7.2854  -7.2561  -7.2069  -7.1559
    -3.8250  -3.7090  -3.4068  -3.3559  -3.3220  -3.2909  -3.2788  -3.2580
    -3.2001  -3.0867  -3.0356  -2.9975  -2.9567  -2.9360  -2.9262  -2.7689
    -2.7605  -2.7220  -2.7217  -2.7090  -2.6717  -2.6644  -2.6212  -2.6146
    -2.6036  -2.5888  -2.5522  -2.5409  -2.5010  -2.4242  -2.3993  -2.2567
    -2.2357  -2.2256  -2.2240  -2.2024  -2.1978  -2.1827  -2.1780  -2.1606
    -2.1569  -2.1536  -2.1536  -2.1528  -2.1501  -2.1323  -2.1125  -2.0992
    -2.0931  -2.0584  -2.0206  -2.0104  -1.9724  -1.9691  -1.9613  -1.9598
    -1.9546  -1.9352  -1.9165  -1.9149  -1.9120  -1.9115  -1.9043  -1.8849
    -1.8847  -1.8753  -1.8704  -1.8528  -1.8483  -1.8354  -1.8087  -1.8084
    -1.8032  -1.8017  -1.8015  -1.7961  -1.7918  -1.7750  -1.7735  -1.7433
    -1.7312  -1.7297  -1.7232  -1.7212  -1.7203  -1.7195  -1.7194  -1.7147
    -1.7047  -1.7042  -1.6996  -1.6964  -1.6960  -1.6851  -1.6814  -1.6731
    -1.6640  -1.6613  -1.6593  -1.6462  -1.6356  -1.6334  -1.6251  -1.6223
    -1.6140  -1.6003  -1.5902  -1.5772  -1.5651  -1.5446  -1.5419  -1.5384
    -1.5353  -1.5258  -1.5191  -1.4999  -1.4807  -1.4702  -1.4611  -1.4496
    -1.4129  -1.4112  -1.3986  -1.3927  -1.3654  -1.3644  -1.3342  -1.3314
    -1.2991  -1.2625  -1.2565  -1.2256  -1.1990  -1.1633  -1.1349  -1.1316
    -1.1292  -1.1143  -1.0861  -1.0860  -1.0779  -1.0634  -1.0387  -1.0215
    -1.0095  -0.9944  -0.9434  -0.8755  -0.8727  -0.8225  -0.8127  -0.8060
    -0.7914  -0.7869  -0.7819  -0.7794  -0.7778  -0.7709  -0.7578  -0.7568
    -0.7449  -0.7354  -0.7238  -0.6973  -0.6934  -0.6759  -0.6714  -0.6690
[...]
     7.0125   7.0214   7.1375   7.1582   7.1986   7.2062   7.2491   7.2578
     7.2678   7.3778   7.3911   7.4053   7.4463   7.4506   7.5150   7.5200
     7.5436   7.5660   7.5933   7.6935   7.7078   7.7479   7.7906   7.7994
     7.8196   7.8614   7.9159   8.0178   8.0239   8.0461   8.0469   8.0634
     8.0664   8.0690   8.0800   8.1012   8.1153   8.1536   8.1920   8.2121
     8.2455   8.2611   8.3307   8.3347   8.3603   8.3682   8.3770   8.4093
     8.4153   8.4438   8.4441   8.4789   8.4921   8.5064   8.5076   8.5201
     8.5240   8.5402   8.5554   8.6342   8.7004   8.7026   8.7234   8.7340
     8.7463   8.7571   8.7693   8.8123   8.8272   8.8471   8.8732   8.8774
     8.8869   8.8998   8.9066   8.9578   9.0125   9.0305   9.0368   9.0559
     9.0728   9.0784   9.0978   9.0982   9.1391   9.1755   9.1772   9.1878
     9.2485   9.2680   9.2875   9.2945   9.3090   9.3187   9.3231   9.3340
     9.3437   9.3946   9.4030   9.4141   9.4295   9.4307   9.4440   9.4489
     9.4802   9.4872   9.4933   9.5013   9.5066   9.5194   9.5287   9.5359
     9.5486   9.5627

     the Fermi energy is     3.0151 ev

!    total energy              =  -14924.50994381 Ry
     Harris-Foulkes estimate   =  -14924.50994379 Ry
     estimated scf accuracy    <          5.5E-09 Ry

     The total energy is the sum of the following terms:

     one-electron contribution = -229304.74434273 Ry
     hartree contribution      =  115890.76406630 Ry
     xc contribution           =   -5117.15068908 Ry
     ewald contribution        =  103606.67208968 Ry
     smearing contrib. (-TS)   =      -0.05106798 Ry

     convergence has been achieved in  43 iterations

     negative rho (up, down):  6.352E-01 0.000E+00

     Forces acting on atoms (cartesian axes, Ry/au):

     atom    1 type  4   force =     0.00011289    0.00000000    0.00023541
     atom    2 type  4   force =    -0.00011289    0.00000000    0.00023541
     atom    3 type  3   force =     0.00009022   -0.00006135   -0.00017886
     atom    4 type  3   force =     0.00009022    0.00006135   -0.00017886
     atom    5 type  3   force =    -0.00009022    0.00006135   -0.00017886
     atom    6 type  3   force =    -0.00009022   -0.00006135   -0.00017886
     atom    7 type  3   force =    -0.00000710   -0.00002613   -0.00035414
     atom    8 type  3   force =     0.00000710    0.00002613   -0.00035414
     atom    9 type  3   force =    -0.00000710    0.00002613   -0.00035414
     atom   10 type  3   force =     0.00000710   -0.00002613   -0.00035414
     atom   11 type  4   force =    -0.00010311    0.00006599    0.00015492
     atom   12 type  4   force =     0.00010311    0.00006599    0.00015492
     atom   13 type  4   force =    -0.00010311   -0.00006599    0.00015492
     atom   14 type  4   force =     0.00010311   -0.00006599    0.00015492
     atom   15 type  4   force =    -0.00016930    0.00000000    0.00016627
     atom   16 type  4   force =     0.00016930    0.00000000    0.00016627
     atom   17 type  4   force =     0.00003242    0.00005101    0.00036654
     atom   18 type  4   force =    -0.00003242    0.00005101    0.00036654
     atom   19 type  4   force =    -0.00003242   -0.00005101    0.00036654
     atom   20 type  4   force =     0.00003242   -0.00005101    0.00036654
     atom   21 type  4   force =     0.00002639    0.00008554    0.00048963
     atom   22 type  4   force =     0.00002639   -0.00008554    0.00048963
     atom   23 type  4   force =    -0.00002639    0.00008554    0.00048963
     atom   24 type  4   force =    -0.00002639   -0.00008554    0.00048963
     atom   25 type  1   force =     0.00000000    0.00000000    0.00001810
     atom   26 type  1   force =     0.00000000    0.00000000   -0.00007892
     atom   27 type  1   force =     0.00000000    0.00000000   -0.00007892
     atom   28 type  1   force =    -0.00018140    0.00000000    0.00003307
     atom   29 type  1   force =     0.00018140    0.00000000    0.00003307
     atom   30 type  1   force =     0.00000000    0.00010356   -0.00021128
     atom   31 type  1   force =     0.00000000   -0.00010356   -0.00021128
     atom   32 type  1   force =     0.00000000    0.00000000   -0.00010446
     atom   33 type  3   force =    -0.00004014   -0.00000397   -0.00006440
     atom   34 type  3   force =    -0.00004014    0.00000397   -0.00006440
     atom   35 type  3   force =     0.00004014    0.00000397   -0.00006440
     atom   36 type  3   force =     0.00004014   -0.00000397   -0.00006440
     atom   37 type  3   force =     0.00004157    0.00002127   -0.00017138
     atom   38 type  3   force =     0.00004157   -0.00002127   -0.00017138
     atom   39 type  3   force =    -0.00004157    0.00002127   -0.00017138
     atom   40 type  3   force =    -0.00004157   -0.00002127   -0.00017138
     atom   41 type  4   force =    -0.00014393    0.00000000   -0.00026568
     atom   42 type  4   force =     0.00014393    0.00000000   -0.00026568
     atom   43 type  4   force =     0.00000000    0.00001317    0.00010606
     atom   44 type  4   force =     0.00000000   -0.00001317    0.00010606
     atom   45 type  4   force =     0.00006415    0.00000000   -0.00024004
     atom   46 type  4   force =    -0.00006415    0.00000000   -0.00024004
     atom   47 type  4   force =    -0.00002451    0.00000096   -0.00014996
     atom   48 type  4   force =     0.00002451    0.00000096   -0.00014996
     atom   49 type  4   force =     0.00002451   -0.00000096   -0.00014996
     atom   50 type  4   force =    -0.00002451   -0.00000096   -0.00014996
     atom   51 type  4   force =     0.00000000   -0.00001022    0.00001221
     atom   52 type  4   force =     0.00000000    0.00001022    0.00001221
     atom   53 type  4   force =     0.00008688    0.00000892    0.00018283
     atom   54 type  4   force =    -0.00008688   -0.00000892    0.00018283
     atom   55 type  4   force =     0.00008688   -0.00000892    0.00018283
     atom   56 type  4   force =    -0.00008688    0.00000892    0.00018283
     atom   57 type  2   force =     0.00000000    0.00000000   -0.00018628
     atom   58 type  5   force =     0.00036305    0.00000000   -0.00039391
     atom   59 type  5   force =    -0.00036305    0.00000000   -0.00039391
     atom   60 type  5   force =     0.00000000    0.00000000    0.00013410
[...]
     atom  210 type  4   force =    -0.00010965    0.00000000    0.00011180
     atom  211 type  3   force =     0.00009088   -0.00006591   -0.00034181
     atom  212 type  3   force =     0.00009088    0.00006591   -0.00034181
     atom  213 type  3   force =    -0.00009088    0.00006591   -0.00034181
     atom  214 type  3   force =    -0.00009088   -0.00006591   -0.00034181
     atom  215 type  3   force =    -0.00000656   -0.00002773   -0.00023029
     atom  216 type  3   force =     0.00000656    0.00002773   -0.00023029
     atom  217 type  3   force =    -0.00000656    0.00002773   -0.00023029
     atom  218 type  3   force =     0.00000656   -0.00002773   -0.00023029
     atom  219 type  4   force =    -0.00010415    0.00003550    0.00018867
     atom  220 type  4   force =     0.00010415    0.00003550    0.00018867
     atom  221 type  4   force =    -0.00010415   -0.00003550    0.00018867
     atom  222 type  4   force =     0.00010415   -0.00003550    0.00018867
     atom  223 type  4   force =    -0.00016112    0.00000000    0.00016167
     atom  224 type  4   force =     0.00016112    0.00000000    0.00016167

     Total force =     0.113652     Total SCF correction =     0.000323

     Computing stress (Cartesian axis) and pressure

     negative rho (up, down):  6.352E-01 0.000E+00
          total   stress  (Ry/bohr**3)                   (kbar)     P=       -6.86
  -0.00006370   0.00000000   0.00000000           -9.37        0.00        0.00
   0.00000000  -0.00003718   0.00000000            0.00       -5.47        0.00
   0.00000000   0.00000000  -0.00003895            0.00        0.00       -5.73

     General routines

     Parallel routines

   This run was terminated on:  19:22:55  17May2021

   JOB DONE.
[1621293776.056553] [holy7c08507:95145:0]          mpool.c:43   UCX  WARN  object 0x3205000 was not returned to mpool ucp_requests
[1621293776.060187] [holy7c08603:156157:0]          mpool.c:43   UCX  WARN  object 0x416f600 was not returned to mpool ucp_requests
[1621293776.066438] [holy7c08504:91481:0]          mpool.c:43   UCX  WARN  object 0x336da40 was not returned to mpool ucp_requests
[1621293776.065385] [holy7c08509:167850:0]          mpool.c:43   UCX  WARN  object 0x3cf3ac0 was not returned to mpool ucp_requests
[1621293776.071838] [holy7c08504:91489:0]          mpool.c:43   UCX  WARN  object 0x42d98c0 was not returned to mpool ucp_requests
[1621293776.073494] [holy7c08504:91480:0]          mpool.c:43   UCX  WARN  object 0x4530180 was not returned to mpool ucp_requests
[1621293776.074483] [holy7c08504:91482:0]          mpool.c:43   UCX  WARN  object 0x2c4dec0 was not returned to mpool ucp_requests
[1621293776.076718] [holy7c08504:91488:0]          mpool.c:43   UCX  WARN  object 0x43413c0 was not returned to mpool ucp_requests
[1621293776.075594] [holy7c08504:91487:0]          mpool.c:43   UCX  WARN  object 0x6651240 was not returned to mpool ucp_requests
[1621293776.084629] [holy7c08504:91490:0]          mpool.c:43   UCX  WARN  object 0x326d6c0 was not returned to mpool ucp_requests
[1621293776.062750] [holy7c08507:95153:0]          mpool.c:43   UCX  WARN  object 0x2e03780 was not returned to mpool ucp_requests
[1621293776.064113] [holy7c08507:95144:0]          mpool.c:43   UCX  WARN  object 0x3d2ac40 was not returned to mpool ucp_requests
[1621293776.068414] [holy7c08507:95154:0]          mpool.c:43   UCX  WARN  object 0x32a0880 was not returned to mpool ucp_requests
[1621293776.064601] [holy7c08507:95152:0]          mpool.c:43   UCX  WARN  object 0x4555040 was not returned to mpool ucp_requests
[1621293776.070889] [holy7c08507:95146:0]          mpool.c:43   UCX  WARN  object 0x436b4c0 was not returned to mpool ucp_requests
[1621293776.071739] [holy7c08507:95143:0]          mpool.c:43   UCX  WARN  object 0x38cb200 was not returned to mpool ucp_requests
[1621293776.078778] [holy7c08507:95151:0]          mpool.c:43   UCX  WARN  object 0x46f4100 was not returned to mpool ucp_requests
[1621293776.066071] [holy7c08603:156158:0]          mpool.c:43   UCX  WARN  object 0x4863e00 was not returned to mpool ucp_requests
[1621293776.067471] [holy7c08603:156165:0]          mpool.c:43   UCX  WARN  object 0x31fb200 was not returned to mpool ucp_requests
[1621293776.066801] [holy7c08603:156166:0]          mpool.c:43   UCX  WARN  object 0x41bdb00 was not returned to mpool ucp_requests
[1621293776.070228] [holy7c08603:156167:0]          mpool.c:43   UCX  WARN  object 0x3210d40 was not returned to mpool ucp_requests
[1621293776.073348] [holy7c08603:156160:0]          mpool.c:43   UCX  WARN  object 0x3c2d8c0 was not returned to mpool ucp_requests
[1621293776.073412] [holy7c08603:156159:0]          mpool.c:43   UCX  WARN  object 0x2d84140 was not returned to mpool ucp_requests
[1621293776.077174] [holy7c08603:156168:0]          mpool.c:43   UCX  WARN  object 0x348cbc0 was not returned to mpool ucp_requests
[1621293776.072857] [holy7c08509:167858:0]          mpool.c:43   UCX  WARN  object 0x3889cc0 was not returned to mpool ucp_requests
[1621293776.074452] [holy7c08509:167860:0]          mpool.c:43   UCX  WARN  object 0x448de40 was not returned to mpool ucp_requests
[1621293776.077118] [holy7c08509:167852:0]          mpool.c:43   UCX  WARN  object 0x3075100 was not returned to mpool ucp_requests
[1621293776.078981] [holy7c08509:167853:0]          mpool.c:43   UCX  WARN  object 0x3bb9980 was not returned to mpool ucp_requests
[1621293776.083260] [holy7c08509:167851:0]          mpool.c:43   UCX  WARN  object 0x421ba80 was not returned to mpool ucp_requests
[1621293776.079942] [holy7c08509:167859:0]          mpool.c:43   UCX  WARN  object 0x31bccc0 was not returned to mpool ucp_requests
[1621293776.091787] [holy7c08509:167861:0]          mpool.c:43   UCX  WARN  object 0x2f0fc80 was not returned to mpool ucp_requests