     Program PWSCF v.6.5 starts on 18May2021 at 21:13:52

     R & G space division:  proc/nbgrp/npool/nimage =      80
     Reading input from YBCO_BaO_cleave_7.0_sep.pwi
Warning: card &IONS ignored
Warning: card     ION_DYNAMICS = 'BFGS' ignored
Warning: card / ignored
Warning: card &CELL ignored
Warning: card     CELL_DYNAMICS = 'BFGS' ignored
Warning: card     PRESS_CONV_THR = 5 ignored
Warning: card / ignored

     Current dimensions of program PWSCF are:
     Max number of different atomic species (ntypx) = 10
     Max number of k-points (npk) =  40000
     Max angular momentum in pseudopotentials (lmaxx) =  3
     Message from routine volume:
     axis vectors are left-handed

     Message from routine setup:
     using ibrav=0 with symmetry is DISCOURAGED, use correct ibrav instead

     bravais-lattice index     =            0
     lattice parameter (alat)  =      20.5021  a.u.
     unit-cell volume          =   40093.6191 (a.u.)^3
     number of atoms/cell      =          224
     number of atomic types    =            5
     number of electrons       =      1830.00
     number of Kohn-Sham states=         1098
     kinetic-energy cutoff     =      60.0000  Ry
     charge density cutoff     =     720.0000  Ry
     convergence threshold     =      1.0E-08
     mixing beta               =       0.5000
     number of iterations used =           10  local-TF  mixing
     Exchange-correlation= SLA PW PBE PBE
                           (   1   4   3   4   0   0   0)

     celldm(1)=  20.502120  celldm(2)=   0.000000  celldm(3)=   0.000000
     celldm(4)=   0.000000  celldm(5)=   0.000000  celldm(6)=   0.000000

     crystal axes: (cart. coord. in units of alat)
               a(1) = (  -0.716599   0.697485   0.000000 )
               a(2) = (   0.716599   0.697485   0.000000 )
               a(3) = (   0.000000   0.000000   4.654121 )

     reciprocal axes: (cart. coord. in units 2 pi/alat)
               b(1) = ( -0.697740  0.716861  0.000000 )
               b(2) = (  0.697740  0.716861  0.000000 )
               b(3) = (  0.000000  0.000000  0.214863 )

     PseudoPot. # 1 for Ba read from file:
     ./pseudo/Ba.pbe-nsp-van.UPF
     MD5 check sum: 2b9c31dd849566dd297d80989662b7a0
     Pseudo is Ultrasoft + core correction, Zval = 10.0
     Generated by new atomic code, or converted to UPF format
     Using radial grid of  907 points,  6 beta functions with:
                l(1) =   0
                l(2) =   0
                l(3) =   1
                l(4) =   1
                l(5) =   2
                l(6) =   2
     Q(r) pseudized with  6 coefficients,  rinner =    1.200   1.200   1.200
                                                       1.200   1.200

     PseudoPot. # 2 for Ca read from file:
     ./pseudo/Ca.pbe-nsp-van.UPF
     MD5 check sum: 6471098428ff4fa451746d08035ff179
     Pseudo is Ultrasoft + core correction, Zval = 10.0
     Generated by new atomic code, or converted to UPF format
     Using radial grid of  845 points,  6 beta functions with:
                l(1) =   0
                l(2) =   0
                l(3) =   1
                l(4) =   1
                l(5) =   2
                l(6) =   2
     Q(r) pseudized with  6 coefficients,  rinner =    1.200   1.200   1.200
                                                       1.200   1.200

     PseudoPot. # 3 for Cu read from file:
     ./pseudo/Cu.pbe-n-van_ak.UPF
     MD5 check sum: 34e3282627ffb533726feb647e090d62
     Pseudo is Ultrasoft + core correction, Zval = 11.0
     Generated by new atomic code, or converted to UPF format
     Using radial grid of  867 points,  6 beta functions with:
                l(1) =   0
                l(2) =   0
                l(3) =   1
                l(4) =   1
                l(5) =   2
                l(6) =   2
     Q(r) pseudized with  8 coefficients,  rinner =    1.400   1.400   1.400
                                                       1.400   1.400

     PseudoPot. # 4 for O  read from file:
     ./pseudo/O.pbe-van_ak.UPF
     MD5 check sum: 783ce7fe4c79b6a4916957118fed0856
     Pseudo is Ultrasoft, Zval =  6.0
     Generated by new atomic code, or converted to UPF format
     Using radial grid of  737 points,  4 beta functions with:
                l(1) =   0
                l(2) =   0
                l(3) =   1
                l(4) =   1
     Q(r) pseudized with  8 coefficients,  rinner =    0.800   0.800   0.800

     PseudoPot. # 5 for Y  read from file:
     ./pseudo/Y.pbe-nsp-van.UPF
     MD5 check sum: 4412fed3ab108fed87a1b7d6a69a4a38
     Pseudo is Ultrasoft + core correction, Zval = 11.0
     Generated by new atomic code, or converted to UPF format
     Using radial grid of  885 points,  6 beta functions with:
                l(1) =   0
                l(2) =   0
                l(3) =   1
                l(4) =   1
                l(5) =   2
                l(6) =   2
     Q(r) pseudized with  6 coefficients,  rinner =    1.200   1.200   1.200
                                                       1.200   1.200

     atomic species   valence    mass     pseudopotential
        Ba            10.00   137.32700     Ba( 1.00)
        Ca            10.00    40.07800     Ca( 1.00)
        Cu            11.00    63.54600     Cu( 1.00)
        O              6.00    15.99900     O ( 1.00)
        Y             11.00    88.90584     Y ( 1.00)

      4 Sym. Ops. (no inversion) found ( 3 have fractional translation)

   Cartesian axes

     site n.     atom                  positions (alat units)
         1           O   tau(   1) = (   0.3545921   0.8718562  -0.0077406  )
         2           O   tau(   2) = (   0.0037072   0.8718562  -0.0077406  )
         3           Cu  tau(   3) = (  -0.0002581   0.0006065   0.0080789  )
         4           Cu  tau(   4) = (  -0.0002581   0.3481364   0.0080789  )
         5           Cu  tau(   5) = (   0.3585574   0.3481364   0.0080789  )
         6           Cu  tau(   6) = (  -0.3580421   0.6980913   0.0080789  )
         7           Cu  tau(   7) = (   0.3577988   0.6971373   0.0086255  )
         8           Cu  tau(   8) = (   0.0005005   1.0465760   0.0086255  )
         9           Cu  tau(   9) = (  -0.3588016   0.3490903   0.0086255  )
        10           Cu  tau(  10) = (   0.0005005   0.6971373   0.0086255  )
        11           O   tau(  11) = (  -0.0001733   0.5225410  -0.0089757  )
        12           O   tau(  12) = (   0.3584726   0.5225410  -0.0089757  )
        13           O   tau(  13) = (  -0.0001733   1.2211724  -0.0089757  )
        14           O   tau(  14) = (  -0.3581278   0.5236867  -0.0089757  )
        15           O   tau(  15) = (  -0.3544557   0.8718562  -0.0105593  )
        16           O   tau(  16) = (  -0.0038445   0.1743714  -0.0105593  )
        17           O   tau(  17) = (   0.3588818   0.3486599   0.1817056  )
        18           O   tau(  18) = (  -0.0005825   0.3486599   0.1817056  )
        19           O   tau(  19) = (  -0.0005825   0.0000830   0.1817056  )
        20           O   tau(  20) = (  -0.3577167   0.6975677   0.1817056  )
        21           O   tau(  21) = (   0.3584283   0.6967843   0.1825784  )
        22           O   tau(  22) = (  -0.3581712   0.3494443   0.1825784  )
        23           O   tau(  23) = (  -0.0001290   0.6967843   0.1825784  )
        24           O   tau(  24) = (  -0.0001290   1.0469291   0.1825784  )
        25           Ba  tau(  25) = (   0.1791506   0.8718562   0.1908537  )
        26           Ba  tau(  26) = (   0.5374498   0.5231143   0.1919901  )
        27           Ba  tau(  27) = (  -0.1791506   0.5231143   0.1919901  )
        28           Ba  tau(  28) = (  -0.1793773   0.8718562   0.1931958  )
        29           Ba  tau(  29) = (  -0.1789238   0.1743714   0.1931958  )
        30           Ba  tau(  30) = (   0.1791506   0.5222101   0.1929368  )
        31           Ba  tau(  31) = (  -0.5374498   0.5240176   0.1929368  )
        32           Ba  tau(  32) = (   0.1791506   0.1743714   0.1992469  )
        33           Cu  tau(  33) = (  -0.3583426   0.3488452   0.3777458  )
        34           Cu  tau(  34) = (   0.3582559   0.6973834   0.3777458  )
        35           Cu  tau(  35) = (   0.0000433   0.6973834   0.3777458  )
        36           Cu  tau(  36) = (   0.0000433   1.0463299   0.3777458  )
        37           Cu  tau(  37) = (  -0.3586541   0.6975060   0.3775126  )
        38           Cu  tau(  38) = (   0.3579444   0.3487217   0.3775126  )
        39           Cu  tau(  39) = (   0.0003549   0.0000212   0.3775126  )
        40           Cu  tau(  40) = (   0.0003549   0.3487217   0.3775126  )
        41           O   tau(  41) = (  -0.0047976   0.1743714   0.3996864  )
        42           O   tau(  42) = (  -0.3535026   0.8718562   0.3996864  )
        43           O   tau(  43) = (  -0.5374498   0.6924605   0.3956991  )
        44           O   tau(  44) = (   0.1791506   0.3537672   0.3956991  )
        45           O   tau(  45) = (   0.3586385   0.8718562   0.4046840  )
        46           O   tau(  46) = (  -0.0003392   0.8718562   0.4046840  )
        47           O   tau(  47) = (  -0.0004857   0.5230571   0.4066611  )
        48           O   tau(  48) = (   0.3587850   0.5230571   0.4066611  )
        49           O   tau(  49) = (  -0.3578135   0.5231714   0.4066611  )
        50           O   tau(  50) = (  -0.0004857   1.2206562   0.4066611  )
        51           O   tau(  51) = (   0.1791506   1.0461604   0.4028931  )
        52           O   tau(  52) = (   0.1791506   0.6975521   0.4028931  )
        53           O   tau(  53) = (  -0.1792261   0.6967170   0.4025963  )
        54           O   tau(  54) = (  -0.1790731   0.3495106   0.4025963  )
        55           O   tau(  55) = (  -0.1792261   1.0469964   0.4025963  )
        56           O   tau(  56) = (   0.5375263   0.6967170   0.4025963  )
        57           Ca  tau(  57) = (   0.1791506   0.1743714   0.5358617  )
        58           Y   tau(  58) = (  -0.1811525   0.8718562   0.5373908  )
        59           Y   tau(  59) = (  -0.1771467   0.1743714   0.5373908  )
        60           Y   tau(  60) = (   0.1791506   0.8718562   0.5379568  )
[...]
       210           O   tau( 210) = (   0.0037081   0.8718562   2.8093128  )
       211           Cu  tau( 211) = (  -0.0002516   0.0006074   2.7935090  )
       212           Cu  tau( 212) = (  -0.0002516   0.3481345   2.7935090  )
       213           Cu  tau( 213) = (   0.3585509   0.3481345   2.7935090  )
       214           Cu  tau( 214) = (  -0.3580476   0.6980931   2.7935090  )
       215           Cu  tau( 215) = (   0.3577960   0.6971373   2.7929624  )
       216           Cu  tau( 216) = (   0.0005033   1.0465760   2.7929624  )
       217           Cu  tau( 217) = (  -0.3588035   0.3490903   2.7929624  )
       218           Cu  tau( 218) = (   0.0005033   0.6971373   2.7929624  )
       219           O   tau( 219) = (  -0.0001724   0.5225410   2.8105516  )
       220           O   tau( 220) = (   0.3584716   0.5225410   2.8105516  )
       221           O   tau( 221) = (  -0.0001724   1.2211724   2.8105516  )
[...]
   -23.1928 -23.1812 -23.1736 -23.1611 -23.1516 -23.1226 -23.1205 -23.1153
   -23.0903 -23.0885 -23.0832 -23.0759 -23.0437 -23.0236 -22.9932 -22.9157
   -19.2509 -19.1785 -19.1722 -19.1464 -19.1234 -19.0853 -19.0478 -19.0359
   -18.9820 -18.9741 -18.9541 -18.9529 -18.9458 -18.8772 -18.8715 -18.8470
   -18.8154 -18.8111 -18.8093 -18.7960 -18.7858 -18.7661 -18.7612 -18.7211
   -18.7125 -18.6933 -18.6398 -18.6320 -18.6277 -18.6020 -18.5926 -18.5857
   -18.5661 -18.5249 -18.4548 -18.4409 -18.4200 -18.4010 -18.3940 -18.3615
   -18.3210 -18.2607 -17.4709 -17.4423 -17.4357 -16.9938 -16.9914 -16.9682
   -15.8140 -15.6571 -15.6265 -15.5658 -15.5506 -15.5329 -15.4311 -15.4241
   -15.4229 -15.3759 -15.3539 -15.3320 -15.3169 -15.2857 -15.2842 -15.2716
   -15.2448 -15.2053 -15.1388 -15.1381 -15.1306 -15.1294 -15.1187 -15.1073
   -15.0986 -15.0746 -15.0649 -15.0562 -15.0461 -15.0270 -15.0040 -14.9924
   -14.9900 -14.9882 -14.9515 -14.9279 -14.9269 -14.9182 -14.9143 -14.9103
   -14.9071 -14.8919 -14.8871 -14.8845 -14.8753 -14.8689 -14.8687 -14.8517
   -14.8433 -14.8325 -14.8145 -14.8056 -14.7981 -14.7842 -14.7791 -14.7550
   -14.7500 -14.7480 -14.7393 -14.7282 -14.7249 -14.7160 -14.7147 -14.7066
   -14.7060 -14.6914 -14.6848 -14.6788 -14.6643 -14.6501 -14.6473 -14.6406
   -14.6402 -14.6308 -14.6188 -14.5895 -14.5813 -14.5738 -14.5545 -14.5397
   -14.5098 -14.4723 -14.4662 -14.4227 -14.4035 -14.3893 -14.3841 -14.3802
   -14.3641 -14.3510 -14.3345 -14.3294 -14.3264 -14.3257 -14.3132 -14.3127
   -14.3087 -14.3083 -14.3081 -14.2885 -14.2840 -14.2627 -14.2596 -14.2582
   -14.2546 -14.2294 -14.2267 -14.2255 -14.2200 -14.2188 -14.1957 -14.1585
   -14.1031 -14.0775 -14.0727 -14.0320 -14.0187 -13.9820 -13.8859 -13.8383
   -10.7286 -10.5831 -10.3827 -10.2825 -10.2801 -10.2484 -10.1946 -10.1774
   -10.1275 -10.0723 -10.0575 -10.0230  -9.9511  -9.9319  -9.8574  -9.8351
    -9.7382  -9.7040  -9.6388  -9.6378  -9.5771  -9.5435  -9.4389  -9.3139
    -9.0507  -9.0195  -8.9637  -8.7709  -8.7651  -8.7614  -8.7394  -8.7390
    -8.7341  -8.7317  -8.6818  -8.6688  -8.6195  -8.6106  -8.5959  -8.5848
    -8.5801  -8.5797  -8.5565  -8.5474  -8.5459  -8.5226  -8.5128  -8.5125
    -8.5024  -8.4887  -8.4775  -8.4712  -8.4673  -8.4665  -8.4571  -8.4494
    -8.4463  -8.4374  -8.4356  -8.4334  -8.4326  -8.4236  -8.4225  -8.4189
    -8.4154  -8.4139  -8.4057  -8.4001  -8.3980  -8.3964  -8.3884  -8.3764
    -8.3439  -8.3318  -8.2930  -8.2768  -8.2464  -8.2403  -8.2336  -8.2103
    -8.2002  -8.1690  -8.1483  -8.1191  -8.1185  -8.1174  -8.0940  -8.0849
    -8.0755  -8.0707  -8.0636  -8.0547  -8.0439  -8.0394  -7.9874  -7.9402
    -4.4639  -4.2826  -4.0455  -3.9996  -3.9846  -3.9607  -3.8895  -3.8654
    -3.8448  -3.8400  -3.7861  -3.6023  -3.5966  -3.5740  -3.5196  -3.3828
    -3.3815  -3.3424  -3.3403  -3.2944  -3.2483  -3.2309  -3.2181  -3.2119
    -3.1616  -3.1499  -3.1427  -3.1419  -3.1412  -3.1355  -3.0863  -3.0404
    -3.0295  -3.0124  -2.9997  -2.8798  -2.8387  -2.8377  -2.8102  -2.8018
    -2.7863  -2.7647  -2.7529  -2.7483  -2.7476  -2.7267  -2.6861  -2.6672
    -2.6610  -2.6469  -2.6234  -2.6098  -2.6070  -2.5950  -2.5902  -2.5765
    -2.5756  -2.5749  -2.5741  -2.5680  -2.5555  -2.5458  -2.5372  -2.5346
    -2.5293  -2.5245  -2.5231  -2.5134  -2.5056  -2.5046  -2.4965  -2.4917
    -2.4907  -2.4898  -2.4851  -2.4497  -2.4316  -2.4296  -2.4283  -2.4144
    -2.4105  -2.4040  -2.3924  -2.3808  -2.3790  -2.3742  -2.3661  -2.3579
    -2.3562  -2.3438  -2.3407  -2.3396  -2.3372  -2.3361  -2.3350  -2.3232
    -2.3209  -2.3156  -2.3080  -2.2967  -2.2884  -2.2841  -2.2743  -2.2670
    -2.2595  -2.2579  -2.2432  -2.2226  -2.2221  -2.2051  -2.1969  -2.1950
    -2.1792  -2.1339  -2.1254  -2.1245  -2.1212  -2.1012  -2.0663  -2.0211
    -2.0138  -2.0058  -1.9985  -1.9812  -1.9742  -1.9706  -1.9659  -1.9561
    -1.9427  -1.9347  -1.9177  -1.9150  -1.8922  -1.8592  -1.8417  -1.8251
    -1.7878  -1.7815  -1.7793  -1.7717  -1.7574  -1.6957  -1.6870  -1.6455
    -1.6404  -1.6094  -1.5885  -1.5802  -1.5427  -1.5377  -1.5304  -1.5214
    -1.5050  -1.5020  -1.4727  -1.4596  -1.4581  -1.4514  -1.4304  -1.4208
    -1.4068  -1.4067  -1.3972  -1.3957  -1.3933  -1.3813  -1.3690  -1.3636
[...]
     6.0429   6.0444   6.1188   6.1256   6.1380   6.1415   6.1432   6.1977
     6.2479   6.2599   6.2656   6.2979   6.3407   6.3664   6.3980   6.4892
     6.5400   6.5488   6.5639   6.5728   6.6025   6.6100   6.6167   6.6462
     6.6987   6.7143   6.7731   6.7775   6.8146   6.8286   6.8780   6.9043
     6.9439   7.0031   7.0724   7.1200   7.1600   7.1725   7.1896   7.3399
     7.3661   7.3741   7.4075   7.4095   7.4165   7.4251   7.4361   7.4369
     7.4475   7.4563   7.4801   7.5064   7.5659   7.5684   7.6025   7.6097
     7.6371   7.6590   7.6633   7.6860   7.7568   7.7569   7.7708   7.7890
     7.8232   7.8294   7.8438   7.8650   7.8771   7.8854   7.8876   7.8935
     7.8971   7.9111   7.9126   7.9205   7.9502   7.9651   7.9671   7.9899
     8.0121   8.0294   8.0930   8.1002   8.1200   8.1458   8.1523   8.1636
     8.1793   8.2141   8.2143   8.2216   8.2337   8.2398   8.2438   8.2652
     8.2866   8.2868   8.3080   8.3858   8.4068   8.4326   8.4431   8.4680
     8.4735   8.4786   8.4958   8.5004   8.5173   8.5281   8.5485   8.5957
     8.6131   8.6302

     the Fermi energy is     2.3955 ev

!    total energy              =  -14924.20365575 Ry
     Harris-Foulkes estimate   =  -14924.20365574 Ry
     estimated scf accuracy    <          3.3E-09 Ry

     The total energy is the sum of the following terms:

     one-electron contribution = -180814.64613927 Ry
     hartree contribution      =   91599.50907567 Ry
     xc contribution           =   -5117.02820888 Ry
     ewald contribution        =   79408.01153982 Ry
     smearing contrib. (-TS)   =      -0.04992310 Ry

     convergence has been achieved in  47 iterations

     negative rho (up, down):  6.351E-01 0.000E+00

     Forces acting on atoms (cartesian axes, Ry/au):

     atom    1 type  4   force =     0.00011638    0.00000000    0.00022479
     atom    2 type  4   force =    -0.00011638    0.00000000    0.00022479
     atom    3 type  3   force =     0.00008253   -0.00006056   -0.00016297
     atom    4 type  3   force =     0.00008253    0.00006056   -0.00016297
     atom    5 type  3   force =    -0.00008253    0.00006056   -0.00016297
     atom    6 type  3   force =    -0.00008253   -0.00006056   -0.00016297
     atom    7 type  3   force =    -0.00001292   -0.00001174   -0.00032501
     atom    8 type  3   force =     0.00001292    0.00001174   -0.00032501
     atom    9 type  3   force =    -0.00001292    0.00001174   -0.00032501
     atom   10 type  3   force =     0.00001292   -0.00001174   -0.00032501
     atom   11 type  4   force =    -0.00010217    0.00007070    0.00016155
     atom   12 type  4   force =     0.00010217    0.00007070    0.00016155
     atom   13 type  4   force =    -0.00010217   -0.00007070    0.00016155
     atom   14 type  4   force =     0.00010217   -0.00007070    0.00016155
     atom   15 type  4   force =    -0.00016683    0.00000000    0.00014903
     atom   16 type  4   force =     0.00016683    0.00000000    0.00014903
     atom   17 type  4   force =     0.00002622    0.00006191    0.00031810
     atom   18 type  4   force =    -0.00002622    0.00006191    0.00031810
     atom   19 type  4   force =    -0.00002622   -0.00006191    0.00031810
     atom   20 type  4   force =     0.00002622   -0.00006191    0.00031810
     atom   21 type  4   force =     0.00002281    0.00007793    0.00046844
     atom   22 type  4   force =     0.00002281   -0.00007793    0.00046844
     atom   23 type  4   force =    -0.00002281    0.00007793    0.00046844
     atom   24 type  4   force =    -0.00002281   -0.00007793    0.00046844
     atom   25 type  1   force =     0.00000000    0.00000000   -0.00007928
     atom   26 type  1   force =     0.00000000    0.00000000   -0.00019693
     atom   27 type  1   force =     0.00000000    0.00000000   -0.00019693
     atom   28 type  1   force =    -0.00017906    0.00000000   -0.00007784
     atom   29 type  1   force =     0.00017906    0.00000000   -0.00007784
     atom   30 type  1   force =     0.00000000    0.00010918   -0.00032805
     atom   31 type  1   force =     0.00000000   -0.00010918   -0.00032805
     atom   32 type  1   force =     0.00000000    0.00000000   -0.00022742
     atom   33 type  3   force =    -0.00005401   -0.00001248   -0.00003939
     atom   34 type  3   force =    -0.00005401    0.00001248   -0.00003939
     atom   35 type  3   force =     0.00005401    0.00001248   -0.00003939
     atom   36 type  3   force =     0.00005401   -0.00001248   -0.00003939
     atom   37 type  3   force =     0.00003093    0.00001905   -0.00016535
     atom   38 type  3   force =     0.00003093   -0.00001905   -0.00016535
     atom   39 type  3   force =    -0.00003093    0.00001905   -0.00016535
     atom   40 type  3   force =    -0.00003093   -0.00001905   -0.00016535
     atom   41 type  4   force =    -0.00025026    0.00000000    0.00029800
     atom   42 type  4   force =     0.00025026    0.00000000    0.00029800
     atom   43 type  4   force =     0.00000000   -0.00004561    0.00041895
     atom   44 type  4   force =     0.00000000    0.00004561    0.00041895
     atom   45 type  4   force =     0.00007753    0.00000000    0.00034465
     atom   46 type  4   force =    -0.00007753    0.00000000    0.00034465
     atom   47 type  4   force =    -0.00002335   -0.00003211    0.00050259
     atom   48 type  4   force =     0.00002335   -0.00003211    0.00050259
     atom   49 type  4   force =     0.00002335    0.00003211    0.00050259
     atom   50 type  4   force =    -0.00002335    0.00003211    0.00050259
     atom   51 type  4   force =     0.00000000    0.00000449    0.00023812
     atom   52 type  4   force =     0.00000000   -0.00000449    0.00023812
     atom   53 type  4   force =     0.00005826    0.00001220    0.00050294
     atom   54 type  4   force =    -0.00005826   -0.00001220    0.00050294
     atom   55 type  4   force =     0.00005826   -0.00001220    0.00050294
     atom   56 type  4   force =    -0.00005826    0.00001220    0.00050294
     atom   57 type  2   force =     0.00000000    0.00000000   -0.00139817
     atom   58 type  5   force =     0.00046679    0.00000000   -0.00231559
     atom   59 type  5   force =    -0.00046679    0.00000000   -0.00231559
     atom   60 type  5   force =     0.00000000    0.00000000   -0.00162029
[...]
     atom  210 type  4   force =    -0.00010189    0.00000000    0.00031371
     atom  211 type  3   force =     0.00009604   -0.00006882   -0.00056520
     atom  212 type  3   force =     0.00009604    0.00006882   -0.00056520
     atom  213 type  3   force =    -0.00009604    0.00006882   -0.00056520
     atom  214 type  3   force =    -0.00009604   -0.00006882   -0.00056520
     atom  215 type  3   force =     0.00000054   -0.00003050   -0.00047361
     atom  216 type  3   force =    -0.00000054    0.00003050   -0.00047361
     atom  217 type  3   force =     0.00000054    0.00003050   -0.00047361
     atom  218 type  3   force =    -0.00000054   -0.00003050   -0.00047361
     atom  219 type  4   force =    -0.00009770    0.00005918    0.00037731
     atom  220 type  4   force =     0.00009770    0.00005918    0.00037731
     atom  221 type  4   force =    -0.00009770   -0.00005918    0.00037731
     atom  222 type  4   force =     0.00009770   -0.00005918    0.00037731
     atom  223 type  4   force =    -0.00015678    0.00000000    0.00034646
     atom  224 type  4   force =     0.00015678    0.00000000    0.00034646

     Total force =     0.253934     Total SCF correction =     0.000241

     Computing stress (Cartesian axis) and pressure

     negative rho (up, down):  6.351E-01 0.000E+00
          total   stress  (Ry/bohr**3)                   (kbar)     P=       -6.46
  -0.00007599   0.00000000   0.00000000          -11.18        0.00        0.00
   0.00000000  -0.00003752   0.00000000            0.00       -5.52        0.00
   0.00000000   0.00000000  -0.00001814            0.00        0.00       -2.67

     General routines

     Parallel routines

   This run was terminated on:  23: 1:33  18May2021

   JOB DONE.
[1621393293.890679] [holy7c06401:109728:0]          mpool.c:43   UCX  WARN  object 0x400c300 was not returned to mpool ucp_requests
[1621393293.887024] [holy7c06408:197854:0]          mpool.c:43   UCX  WARN  object 0x33bf280 was not returned to mpool ucp_requests
[1621393293.895914] [holy7c06606:26012:0]          mpool.c:43   UCX  WARN  object 0x29f6bc0 was not returned to mpool ucp_requests
[1621393293.896927] [holy7c06401:109734:0]          mpool.c:43   UCX  WARN  object 0x3e87b40 was not returned to mpool ucp_requests
[1621393293.894684] [holy7c06601:263282:0]          mpool.c:43   UCX  WARN  object 0x3074d40 was not returned to mpool ucp_requests
[1621393293.901343] [holy7c06606:26020:0]          mpool.c:43   UCX  WARN  object 0x37e2a80 was not returned to mpool ucp_requests
[1621393293.891066] [holy7c06408:197862:0]          mpool.c:43   UCX  WARN  object 0x5a3bd40 was not returned to mpool ucp_requests
[1621393293.902730] [holy7c06606:26010:0]          mpool.c:43   UCX  WARN  object 0x348d940 was not returned to mpool ucp_requests
[1621393293.891976] [holy7c06408:197860:0]          mpool.c:43   UCX  WARN  object 0x4bd10c0 was not returned to mpool ucp_requests
[1621393293.891997] [holy7c06408:197860:0]          mpool.c:43   UCX  WARN  object 0x2867d40 was not returned to mpool ucp_requests
[1621393293.908459] [holy7c06606:26018:0]          mpool.c:43   UCX  WARN  object 0x46085c0 was not returned to mpool ucp_requests
[1621393293.888861] [holy7c06408:197861:0]          mpool.c:43   UCX  WARN  object 0x3bd63c0 was not returned to mpool ucp_requests
[1621393293.891170] [holy7c06408:197859:0]          mpool.c:43   UCX  WARN  object 0x58b2dc0 was not returned to mpool ucp_requests
[1621393293.903885] [holy7c06606:26009:0]          mpool.c:43   UCX  WARN  object 0x3a89980 was not returned to mpool ucp_requests
[1621393293.897204] [holy7c06408:197853:0]          mpool.c:43   UCX  WARN  object 0x4fa0c40 was not returned to mpool ucp_requests
[1621393293.897229] [holy7c06408:197853:0]          mpool.c:43   UCX  WARN  object 0x2c36e80 was not returned to mpool ucp_requests
[1621393293.908142] [holy7c06606:26011:0]          mpool.c:43   UCX  WARN  object 0x2b020c0 was not returned to mpool ucp_requests
[1621393293.897304] [holy7c06601:263274:0]          mpool.c:43   UCX  WARN  object 0x3d20340 was not returned to mpool ucp_requests
[1621393293.900527] [holy7c06601:263285:0]          mpool.c:43   UCX  WARN  object 0x3e731c0 was not returned to mpool ucp_requests
[1621393293.906481] [holy7c06601:263284:0]          mpool.c:43   UCX  WARN  object 0x51e74c0 was not returned to mpool ucp_requests
[1621393293.900322] [holy7c06601:263276:0]          mpool.c:43   UCX  WARN  object 0x32f8900 was not returned to mpool ucp_requests
[1621393293.900352] [holy7c06601:263276:0]          mpool.c:43   UCX  WARN  object 0x32f9e00 was not returned to mpool ucp_requests
[1621393293.901956] [holy7c06601:263277:0]          mpool.c:43   UCX  WARN  object 0x47fccc0 was not returned to mpool ucp_requests
[1621393293.903140] [holy7c06601:263283:0]          mpool.c:43   UCX  WARN  object 0x398f840 was not returned to mpool ucp_requests
[1621393293.904945] [holy7c06601:263275:0]          mpool.c:43   UCX  WARN  object 0x407b040 was not returned to mpool ucp_requests
[1621393293.910957] [holy7c06401:109727:0]          mpool.c:43   UCX  WARN  object 0x44a2ac0 was not returned to mpool ucp_requests
[1621393293.913211] [holy7c06401:109729:0]          mpool.c:43   UCX  WARN  object 0x4222a80 was not returned to mpool ucp_requests
[1621393293.912489] [holy7c06401:109735:0]          mpool.c:43   UCX  WARN  object 0x43e4000 was not returned to mpool ucp_requests
[1621393293.919123] [holy7c06606:26017:0]          mpool.c:43   UCX  WARN  object 0x5ed1400 was not returned to mpool ucp_requests
[1621393293.922894] [holy7c06606:26019:0]          mpool.c:43   UCX  WARN  object 0x6067280 was not returned to mpool ucp_requests
[1621393293.960398] [holy7c08102:103943:0]          mpool.c:43   UCX  WARN  object 0x47ca100 was not returned to mpool ucp_requests
[1621393293.978323] [holy7c08102:103944:0]          mpool.c:43   UCX  WARN  object 0x2ddb940 was not returned to mpool ucp_requests
[1621393293.981539] [holy7c08102:103942:0]          mpool.c:43   UCX  WARN  object 0x43b0fc0 was not returned to mpool ucp_requests
[1621393293.980606] [holy7c08102:103945:0]          mpool.c:43   UCX  WARN  object 0x2b48040 was not returned to mpool ucp_requests