     Program PWSCF v.6.5 starts on 17May2021 at 22:29:41

     R & G space division:  proc/nbgrp/npool/nimage =      80
     Reading input from YBCO_Y_cleave_2.0_sep.pwi
Warning: card &IONS ignored
Warning: card     ION_DYNAMICS = 'BFGS' ignored
Warning: card / ignored
Warning: card &CELL ignored
Warning: card     CELL_DYNAMICS = 'BFGS' ignored
Warning: card     PRESS_CONV_THR = 5 ignored
Warning: card / ignored

     Current dimensions of program PWSCF are:
     Max number of different atomic species (ntypx) = 10
     Max number of k-points (npk) =  40000
     Max angular momentum in pseudopotentials (lmaxx) =  3
     Message from routine volume:
     axis vectors are left-handed

     Message from routine setup:
     using ibrav=0 with symmetry is DISCOURAGED, use correct ibrav instead

     bravais-lattice index     =            0
     lattice parameter (alat)  =      20.5021  a.u.
     unit-cell volume          =   36123.4618 (a.u.)^3
     number of atoms/cell      =          224
     number of atomic types    =            5
     number of electrons       =      1830.00
     number of Kohn-Sham states=         1098
     kinetic-energy cutoff     =      60.0000  Ry
     charge density cutoff     =     720.0000  Ry
     convergence threshold     =      1.0E-08
     mixing beta               =       0.5000
     number of iterations used =           10  local-TF  mixing
     Exchange-correlation= SLA PW PBE PBE
                           (   1   4   3   4   0   0   0)

     celldm(1)=  20.502120  celldm(2)=   0.000000  celldm(3)=   0.000000
     celldm(4)=   0.000000  celldm(5)=   0.000000  celldm(6)=   0.000000

     crystal axes: (cart. coord. in units of alat)
               a(1) = (  -0.716599   0.697485   0.000000 )
               a(2) = (   0.716599   0.697485   0.000000 )
               a(3) = (   0.000000   0.000000   4.193260 )

     reciprocal axes: (cart. coord. in units 2 pi/alat)
               b(1) = ( -0.697740  0.716861  0.000000 )
               b(2) = (  0.697740  0.716861  0.000000 )
               b(3) = (  0.000000  0.000000  0.238478 )

     PseudoPot. # 1 for Ba read from file:
     ./pseudo/Ba.pbe-nsp-van.UPF
     MD5 check sum: 2b9c31dd849566dd297d80989662b7a0
     Pseudo is Ultrasoft + core correction, Zval = 10.0
     Generated by new atomic code, or converted to UPF format
     Using radial grid of  907 points,  6 beta functions with:
                l(1) =   0
                l(2) =   0
                l(3) =   1
                l(4) =   1
                l(5) =   2
                l(6) =   2
     Q(r) pseudized with  6 coefficients,  rinner =    1.200   1.200   1.200
                                                       1.200   1.200

     PseudoPot. # 2 for Ca read from file:
     ./pseudo/Ca.pbe-nsp-van.UPF
     MD5 check sum: 6471098428ff4fa451746d08035ff179
     Pseudo is Ultrasoft + core correction, Zval = 10.0
     Generated by new atomic code, or converted to UPF format
     Using radial grid of  845 points,  6 beta functions with:
                l(1) =   0
                l(2) =   0
                l(3) =   1
                l(4) =   1
                l(5) =   2
                l(6) =   2
     Q(r) pseudized with  6 coefficients,  rinner =    1.200   1.200   1.200
                                                       1.200   1.200

     PseudoPot. # 3 for Cu read from file:
     ./pseudo/Cu.pbe-n-van_ak.UPF
     MD5 check sum: 34e3282627ffb533726feb647e090d62
     Pseudo is Ultrasoft + core correction, Zval = 11.0
     Generated by new atomic code, or converted to UPF format
     Using radial grid of  867 points,  6 beta functions with:
                l(1) =   0
                l(2) =   0
                l(3) =   1
                l(4) =   1
                l(5) =   2
                l(6) =   2
     Q(r) pseudized with  8 coefficients,  rinner =    1.400   1.400   1.400
                                                       1.400   1.400

     PseudoPot. # 4 for O  read from file:
     ./pseudo/O.pbe-van_ak.UPF
     MD5 check sum: 783ce7fe4c79b6a4916957118fed0856
     Pseudo is Ultrasoft, Zval =  6.0
     Generated by new atomic code, or converted to UPF format
     Using radial grid of  737 points,  4 beta functions with:
                l(1) =   0
                l(2) =   0
                l(3) =   1
                l(4) =   1
     Q(r) pseudized with  8 coefficients,  rinner =    0.800   0.800   0.800

     PseudoPot. # 5 for Y  read from file:
     ./pseudo/Y.pbe-nsp-van.UPF
     MD5 check sum: 4412fed3ab108fed87a1b7d6a69a4a38
     Pseudo is Ultrasoft + core correction, Zval = 11.0
     Generated by new atomic code, or converted to UPF format
     Using radial grid of  885 points,  6 beta functions with:
                l(1) =   0
                l(2) =   0
                l(3) =   1
                l(4) =   1
                l(5) =   2
                l(6) =   2
     Q(r) pseudized with  6 coefficients,  rinner =    1.200   1.200   1.200
                                                       1.200   1.200

     atomic species   valence    mass     pseudopotential
        Ba            10.00   137.32700     Ba( 1.00)
        Ca            10.00    40.07800     Ca( 1.00)
        Cu            11.00    63.54600     Cu( 1.00)
        O              6.00    15.99900     O ( 1.00)
        Y             11.00    88.90584     Y ( 1.00)

      4 Sym. Ops. (no inversion) found ( 3 have fractional translation)

   Cartesian axes

     site n.     atom                  positions (alat units)
         1           O   tau(   1) = (   0.3545921   0.8718562  -0.0077406  )
         2           O   tau(   2) = (   0.0037072   0.8718562  -0.0077406  )
         3           Cu  tau(   3) = (  -0.0002581   0.0006065   0.0080789  )
         4           Cu  tau(   4) = (  -0.0002581   0.3481364   0.0080789  )
         5           Cu  tau(   5) = (   0.3585574   0.3481364   0.0080789  )
         6           Cu  tau(   6) = (  -0.3580421   0.6980913   0.0080789  )
         7           Cu  tau(   7) = (   0.3577988   0.6971373   0.0086255  )
         8           Cu  tau(   8) = (   0.0005005   1.0465760   0.0086255  )
         9           Cu  tau(   9) = (  -0.3588016   0.3490903   0.0086255  )
        10           Cu  tau(  10) = (   0.0005005   0.6971373   0.0086255  )
        11           O   tau(  11) = (  -0.0001733   0.5225410  -0.0089757  )
        12           O   tau(  12) = (   0.3584726   0.5225410  -0.0089757  )
        13           O   tau(  13) = (  -0.0001733   1.2211724  -0.0089757  )
        14           O   tau(  14) = (  -0.3581278   0.5236867  -0.0089757  )
        15           O   tau(  15) = (  -0.3544557   0.8718562  -0.0105593  )
        16           O   tau(  16) = (  -0.0038445   0.1743714  -0.0105593  )
        17           O   tau(  17) = (   0.3588818   0.3486599   0.1817056  )
        18           O   tau(  18) = (  -0.0005825   0.3486599   0.1817056  )
        19           O   tau(  19) = (  -0.0005825   0.0000830   0.1817056  )
        20           O   tau(  20) = (  -0.3577167   0.6975677   0.1817056  )
        21           O   tau(  21) = (   0.3584283   0.6967843   0.1825784  )
        22           O   tau(  22) = (  -0.3581712   0.3494443   0.1825784  )
        23           O   tau(  23) = (  -0.0001290   0.6967843   0.1825784  )
        24           O   tau(  24) = (  -0.0001290   1.0469291   0.1825784  )
        25           Ba  tau(  25) = (   0.1791506   0.8718562   0.1908537  )
        26           Ba  tau(  26) = (   0.5374498   0.5231143   0.1919901  )
        27           Ba  tau(  27) = (  -0.1791506   0.5231143   0.1919901  )
        28           Ba  tau(  28) = (  -0.1793773   0.8718562   0.1931958  )
        29           Ba  tau(  29) = (  -0.1789238   0.1743714   0.1931958  )
        30           Ba  tau(  30) = (   0.1791506   0.5222101   0.1929368  )
        31           Ba  tau(  31) = (  -0.5374498   0.5240176   0.1929368  )
        32           Ba  tau(  32) = (   0.1791506   0.1743714   0.1992469  )
        33           Cu  tau(  33) = (  -0.3583426   0.3488452   0.3777458  )
        34           Cu  tau(  34) = (   0.3582559   0.6973834   0.3777458  )
        35           Cu  tau(  35) = (   0.0000433   0.6973834   0.3777458  )
        36           Cu  tau(  36) = (   0.0000433   1.0463299   0.3777458  )
        37           Cu  tau(  37) = (  -0.3586541   0.6975060   0.3775126  )
        38           Cu  tau(  38) = (   0.3579444   0.3487217   0.3775126  )
        39           Cu  tau(  39) = (   0.0003549   0.0000212   0.3775126  )
        40           Cu  tau(  40) = (   0.0003549   0.3487217   0.3775126  )
        41           O   tau(  41) = (  -0.0047976   0.1743714   0.3996864  )
        42           O   tau(  42) = (  -0.3535026   0.8718562   0.3996864  )
        43           O   tau(  43) = (  -0.5374498   0.6924605   0.3956991  )
        44           O   tau(  44) = (   0.1791506   0.3537672   0.3956991  )
        45           O   tau(  45) = (   0.3586385   0.8718562   0.4046840  )
        46           O   tau(  46) = (  -0.0003392   0.8718562   0.4046840  )
        47           O   tau(  47) = (  -0.0004857   0.5230571   0.4066611  )
        48           O   tau(  48) = (   0.3587850   0.5230571   0.4066611  )
        49           O   tau(  49) = (  -0.3578135   0.5231714   0.4066611  )
        50           O   tau(  50) = (  -0.0004857   1.2206562   0.4066611  )
        51           O   tau(  51) = (   0.1791506   1.0461604   0.4028931  )
        52           O   tau(  52) = (   0.1791506   0.6975521   0.4028931  )
        53           O   tau(  53) = (  -0.1792261   0.6967170   0.4025963  )
        54           O   tau(  54) = (  -0.1790731   0.3495106   0.4025963  )
        55           O   tau(  55) = (  -0.1792261   1.0469964   0.4025963  )
        56           O   tau(  56) = (   0.5375263   0.6967170   0.4025963  )
        57           Ca  tau(  57) = (   0.1791506   0.1743714   0.5358617  )
        58           Y   tau(  58) = (  -0.1811525   0.8718562   0.5373908  )
        59           Y   tau(  59) = (  -0.1771467   0.1743714   0.5373908  )
        60           Y   tau(  60) = (   0.1791506   0.8718562   0.5379568  )
[...]
       210           O   tau( 210) = (   0.0037081   0.8718562   2.3484517  )
       211           Cu  tau( 211) = (  -0.0002516   0.0006074   2.3326478  )
       212           Cu  tau( 212) = (  -0.0002516   0.3481345   2.3326478  )
       213           Cu  tau( 213) = (   0.3585509   0.3481345   2.3326478  )
       214           Cu  tau( 214) = (  -0.3580476   0.6980931   2.3326478  )
       215           Cu  tau( 215) = (   0.3577960   0.6971373   2.3321012  )
       216           Cu  tau( 216) = (   0.0005033   1.0465760   2.3321012  )
       217           Cu  tau( 217) = (  -0.3588035   0.3490903   2.3321012  )
       218           Cu  tau( 218) = (   0.0005033   0.6971373   2.3321012  )
       219           O   tau( 219) = (  -0.0001724   0.5225410   2.3496905  )
       220           O   tau( 220) = (   0.3584716   0.5225410   2.3496905  )
       221           O   tau( 221) = (  -0.0001724   1.2211724   2.3496905  )
[...]
   -22.9688 -22.9073 -22.8810 -22.8415 -22.8119 -22.7142 -22.6823 -22.6093
   -22.5854 -22.5634 -22.5519 -22.5439 -22.4609 -22.4588 -22.4558 -22.4537
   -22.4246 -22.4143 -22.3816 -22.3482 -22.3276 -22.3190 -22.2719 -22.2612
   -22.2522 -22.2156 -22.1837 -22.1693 -22.1670 -22.1614 -22.1220 -22.1076
   -21.3520 -21.2998 -21.2921 -21.2807 -21.2576 -21.2526 -21.2443 -21.2235
   -21.1988 -21.1836 -21.1642 -21.1528 -21.1306 -21.1144 -21.1057 -21.0912
   -21.0849 -21.0761 -21.0713 -21.0549 -21.0439 -19.7913 -19.7724 -19.7538
   -18.5716 -18.4987 -18.4931 -18.4675 -18.4437 -18.4050 -18.3673 -18.3564
   -18.3020 -18.2947 -18.2744 -18.2727 -18.2658 -18.1918 -18.1664 -18.1308
   -18.1056 -18.0868 -18.0821 -18.0128 -17.9599 -16.7893 -16.7609 -16.7544
   -16.1073 -16.0097 -15.9587 -15.8540 -15.6888 -15.6331 -15.6099 -15.5125
   -15.5055 -15.4991 -15.4295 -15.3959 -15.3623 -15.2778 -15.2660 -15.1366
   -15.1231 -14.9486 -14.8786 -14.7534 -14.6548 -14.6113 -14.5986 -14.5780
   -14.5500 -14.5340 -14.4747 -14.4638 -14.4553 -14.4526 -14.4292 -14.4231
   -14.4120 -14.3939 -14.3738 -14.3708 -14.3637 -14.3621 -14.3548 -14.3412
   -14.3391 -14.3213 -14.3179 -14.3041 -14.3038 -14.2879 -14.2503 -14.2460
   -14.2214 -14.2195 -14.2191 -14.2032 -14.2009 -14.1709 -14.1549 -14.1357
   -14.1005 -14.0782 -14.0615 -14.0530 -14.0355 -14.0340 -14.0328 -14.0190
   -14.0146 -13.9879 -13.9854 -13.9823 -13.9769 -13.9726 -13.9684 -13.9487
   -13.9451 -13.9124 -13.9036 -13.9021 -13.8597 -13.8495 -13.7937 -13.7603
   -13.7562 -13.7497 -13.7263 -13.7260 -13.7208 -13.6950 -13.6739 -13.6688
   -13.6526 -13.6519 -13.6259 -13.6223 -13.6162 -13.6040 -13.6037 -13.6022
   -13.6000 -13.5991 -13.5916 -13.5670 -13.5661 -13.5627 -13.5595 -13.5524
   -13.5503 -13.5411 -13.5291 -13.5290 -13.5167 -13.5154 -13.4778 -13.4476
   -13.4401 -13.3935 -13.3911 -13.3830 -13.2968 -13.2225 -13.2071 -13.1359
    -8.6334  -8.4459  -8.3892  -8.3849  -8.3658  -8.3523  -8.3293  -8.2938
    -8.2860  -8.2521  -8.2181  -8.1538  -8.1461  -8.1348  -8.1268  -8.1091
    -8.1035  -8.0999  -8.0677  -8.0631  -8.0335  -8.0059  -8.0053  -7.9490
    -7.9201  -7.9017  -7.8864  -7.8621  -7.8519  -7.8492  -7.8441  -7.8408
    -7.8403  -7.8374  -7.8292  -7.8102  -7.8067  -7.8065  -7.7976  -7.7945
    -7.7917  -7.7878  -7.7847  -7.7759  -7.7707  -7.7636  -7.7593  -7.7522
    -7.7410  -7.7345  -7.7308  -7.7177  -7.6905  -7.6900  -7.6520  -7.6449
    -7.6151  -7.5898  -7.5822  -7.5787  -7.5552  -7.5418  -7.5387  -7.5334
    -7.5324  -7.5177  -7.5177  -7.5152  -7.5121  -7.5120  -7.4924  -7.4867
    -7.4725  -7.4693  -7.4584  -7.4324  -7.4303  -7.4266  -7.4233  -7.4165
    -7.4139  -7.4065  -7.3845  -7.3492  -7.3125  -7.3076  -7.3046  -7.2708
    -7.2520  -7.2273  -7.2245  -7.1773  -7.1678  -7.1592  -7.1421  -7.1250
    -4.4818  -4.1015  -4.0323  -3.8894  -3.7891  -3.3977  -3.3708  -3.3419
    -3.3220  -3.3200  -3.2886  -3.2426  -3.0834  -3.0638  -2.9634  -2.9550
    -2.9222  -2.9008  -2.8922  -2.8382  -2.8203  -2.7715  -2.7388  -2.7374
    -2.7270  -2.7209  -2.7075  -2.6820  -2.6714  -2.6646  -2.6338  -2.6267
    -2.6160  -2.5679  -2.5532  -2.5446  -2.5247  -2.4697  -2.4568  -2.4514
    -2.4146  -2.4083  -2.4063  -2.3834  -2.3521  -2.2704  -2.2700  -2.2177
    -2.1751  -2.1673  -2.1640  -2.1445  -2.1394  -2.1222  -2.1187  -2.1162
    -2.0780  -2.0681  -2.0644  -2.0406  -2.0128  -1.9990  -1.9874  -1.9799
    -1.9332  -1.9295  -1.9271  -1.9248  -1.9110  -1.8959  -1.8903  -1.8870
    -1.8826  -1.8749  -1.8711  -1.8638  -1.8606  -1.8501  -1.8451  -1.8349
    -1.8247  -1.8243  -1.8149  -1.8136  -1.8125  -1.7999  -1.7884  -1.7869
    -1.7716  -1.7681  -1.7598  -1.7567  -1.7442  -1.7353  -1.7279  -1.7257
    -1.7120  -1.7019  -1.6877  -1.6834  -1.6817  -1.6794  -1.6730  -1.6705
    -1.6565  -1.6475  -1.6422  -1.6234  -1.6205  -1.6181  -1.6130  -1.6094
    -1.6009  -1.5981  -1.5884  -1.5826  -1.5608  -1.5564  -1.5449  -1.5387
    -1.5282  -1.5280  -1.5066  -1.5043  -1.4939  -1.4923  -1.4782  -1.4496
    -1.4446  -1.4425  -1.4178  -1.3662  -1.3579  -1.3554  -1.2845  -1.2579
    -1.2187  -1.2060  -1.1786  -1.1624  -1.1384  -1.1110  -1.1097  -1.0919
    -1.0764  -1.0648  -1.0487  -1.0476  -1.0150  -1.0147  -0.9976  -0.9619
    -0.9471  -0.9073  -0.9013  -0.8994  -0.8513  -0.8330  -0.8279  -0.8258
    -0.8187  -0.8080  -0.7936  -0.7829  -0.7804  -0.7656  -0.7516  -0.7462
[...]
     5.9475   6.0045   6.1928   6.2951   6.3733   6.4327   6.4438   6.4552
     6.4659   6.5280   6.5486   6.5903   6.6223   6.6368   6.6919   6.6984
     6.7568   6.7662   6.7748   6.7757   6.7788   6.7816   6.7884   6.7894
     6.8391   6.8429   6.8923   6.8980   6.9208   6.9216   6.9471   6.9587
     6.9772   7.0176   7.0477   7.0652   7.1748   7.2016   7.2210   7.2275
     7.2547   7.2925   7.4004   7.4428   7.4662   7.4879   7.5520   7.5696
     7.6153   7.7339   7.8604   8.0443   8.0529   8.0610   8.0618   8.0864
     8.0900   8.1110   8.1172   8.1183   8.1346   8.1347   8.1718   8.2050
     8.2471   8.2645   8.2680   8.2762   8.2884   8.3059   8.3479   8.3584
     8.4056   8.4346   8.4713   8.5396   8.5456   8.5463   8.5666   8.5691
     8.5793   8.6035   8.6086   8.6223   8.6276   8.6883   8.6949   8.7374
     8.7492   8.8515   8.8913   8.9142   8.9145   8.9276   8.9419   8.9757
     8.9824   9.0469   9.0487   9.0659   9.0751   9.0966   9.1065   9.1184
     9.1782   9.2420   9.2489   9.2612   9.2749   9.2917   9.3041   9.3128
     9.3209   9.3698

     the Fermi energy is     3.0546 ev

!    total energy              =  -14922.08692638 Ry
     Harris-Foulkes estimate   =  -14922.08692640 Ry
     estimated scf accuracy    <          2.0E-09 Ry

     The total energy is the sum of the following terms:

     one-electron contribution = -237986.41872636 Ry
     hartree contribution      =  120221.62206120 Ry
     xc contribution           =   -5114.73969817 Ry
     ewald contribution        =  107957.50520505 Ry
     smearing contrib. (-TS)   =      -0.05576811 Ry

     convergence has been achieved in  41 iterations

     negative rho (up, down):  6.293E-01 0.000E+00

     Forces acting on atoms (cartesian axes, Ry/au):

     atom    1 type  4   force =     0.00011655    0.00000000    0.00020574
     atom    2 type  4   force =    -0.00011655    0.00000000    0.00020574
     atom    3 type  3   force =     0.00008618   -0.00006570   -0.00014229
     atom    4 type  3   force =     0.00008618    0.00006570   -0.00014229
     atom    5 type  3   force =    -0.00008618    0.00006570   -0.00014229
     atom    6 type  3   force =    -0.00008618   -0.00006570   -0.00014229
     atom    7 type  3   force =    -0.00001072   -0.00001830   -0.00030319
     atom    8 type  3   force =     0.00001072    0.00001830   -0.00030319
     atom    9 type  3   force =    -0.00001072    0.00001830   -0.00030319
     atom   10 type  3   force =     0.00001072   -0.00001830   -0.00030319
     atom   11 type  4   force =    -0.00010514    0.00007040    0.00012511
     atom   12 type  4   force =     0.00010514    0.00007040    0.00012511
     atom   13 type  4   force =    -0.00010514   -0.00007040    0.00012511
     atom   14 type  4   force =     0.00010514   -0.00007040    0.00012511
     atom   15 type  4   force =    -0.00016905    0.00000000    0.00013038
     atom   16 type  4   force =     0.00016905    0.00000000    0.00013038
     atom   17 type  4   force =     0.00002878    0.00005136    0.00035777
     atom   18 type  4   force =    -0.00002878    0.00005136    0.00035777
     atom   19 type  4   force =    -0.00002878   -0.00005136    0.00035777
     atom   20 type  4   force =     0.00002878   -0.00005136    0.00035777
     atom   21 type  4   force =     0.00002649    0.00008321    0.00050100
     atom   22 type  4   force =     0.00002649   -0.00008321    0.00050100
     atom   23 type  4   force =    -0.00002649    0.00008321    0.00050100
     atom   24 type  4   force =    -0.00002649   -0.00008321    0.00050100
     atom   25 type  1   force =     0.00000000    0.00000000   -0.00000500
     atom   26 type  1   force =     0.00000000    0.00000000   -0.00010421
     atom   27 type  1   force =     0.00000000    0.00000000   -0.00010421
     atom   28 type  1   force =    -0.00018147    0.00000000    0.00000787
     atom   29 type  1   force =     0.00018147    0.00000000    0.00000787
     atom   30 type  1   force =     0.00000000    0.00010385   -0.00023636
     atom   31 type  1   force =     0.00000000   -0.00010385   -0.00023636
     atom   32 type  1   force =     0.00000000    0.00000000   -0.00012834
     atom   33 type  3   force =    -0.00003707   -0.00000213   -0.00015914
     atom   34 type  3   force =    -0.00003707    0.00000213   -0.00015914
     atom   35 type  3   force =     0.00003707    0.00000213   -0.00015914
     atom   36 type  3   force =     0.00003707   -0.00000213   -0.00015914
     atom   37 type  3   force =     0.00003321    0.00002412   -0.00023901
     atom   38 type  3   force =     0.00003321   -0.00002412   -0.00023901
     atom   39 type  3   force =    -0.00003321    0.00002412   -0.00023901
     atom   40 type  3   force =    -0.00003321   -0.00002412   -0.00023901
     atom   41 type  4   force =    -0.00016818    0.00000000   -0.00015648
     atom   42 type  4   force =     0.00016818    0.00000000   -0.00015648
     atom   43 type  4   force =     0.00000000   -0.00000448    0.00017878
     atom   44 type  4   force =     0.00000000    0.00000448    0.00017878
     atom   45 type  4   force =     0.00006137    0.00000000   -0.00010217
     atom   46 type  4   force =    -0.00006137    0.00000000   -0.00010217
     atom   47 type  4   force =    -0.00002488   -0.00000447   -0.00002012
     atom   48 type  4   force =     0.00002488   -0.00000447   -0.00002012
     atom   49 type  4   force =     0.00002488    0.00000447   -0.00002012
     atom   50 type  4   force =    -0.00002488    0.00000447   -0.00002012
     atom   51 type  4   force =     0.00000000   -0.00001975    0.00012014
     atom   52 type  4   force =     0.00000000    0.00001975    0.00012014
     atom   53 type  4   force =     0.00008592    0.00000949    0.00028399
     atom   54 type  4   force =    -0.00008592   -0.00000949    0.00028399
     atom   55 type  4   force =     0.00008592   -0.00000949    0.00028399
     atom   56 type  4   force =    -0.00008592    0.00000949    0.00028399
     atom   57 type  2   force =     0.00000000    0.00000000   -0.00035748
     atom   58 type  5   force =     0.00033390    0.00000000   -0.00072246
     atom   59 type  5   force =    -0.00033390    0.00000000   -0.00072246
     atom   60 type  5   force =     0.00000000    0.00000000   -0.00022718
[...]
     atom  210 type  4   force =    -0.00022323    0.00000000    0.00372808
     atom  211 type  3   force =     0.00016070   -0.00004344   -0.00199790
     atom  212 type  3   force =     0.00016070    0.00004344   -0.00199790
     atom  213 type  3   force =    -0.00016070    0.00004344   -0.00199790
     atom  214 type  3   force =    -0.00016070   -0.00004344   -0.00199790
     atom  215 type  3   force =     0.00004648   -0.00013261   -0.00198675
     atom  216 type  3   force =    -0.00004648    0.00013261   -0.00198675
     atom  217 type  3   force =     0.00004648    0.00013261   -0.00198675
     atom  218 type  3   force =    -0.00004648   -0.00013261   -0.00198675
     atom  219 type  4   force =    -0.00008199    0.00076104    0.00352821
     atom  220 type  4   force =     0.00008199    0.00076104    0.00352821
     atom  221 type  4   force =    -0.00008199   -0.00076104    0.00352821
     atom  222 type  4   force =     0.00008199   -0.00076104    0.00352821
     atom  223 type  4   force =    -0.00030893    0.00000000    0.00290863
     atom  224 type  4   force =     0.00030893    0.00000000    0.00290863

     Total force =     0.418725     Total SCF correction =     0.000164

     Computing stress (Cartesian axis) and pressure

     negative rho (up, down):  6.293E-01 0.000E+00
          total   stress  (Ry/bohr**3)                   (kbar)     P=      -10.57
  -0.00001712   0.00000000   0.00000000           -2.52        0.00        0.00
   0.00000000  -0.00000377   0.00000000            0.00       -0.55        0.00
   0.00000000   0.00000000  -0.00019476            0.00        0.00      -28.65

     General routines

     Parallel routines

   This run was terminated on:  23:57:30  17May2021

   JOB DONE.
[1621310251.089559] [holy7c06609:146212:0]          mpool.c:43   UCX  WARN  object 0x2db6a00 was not returned to mpool ucp_requests
[1621310251.096247] [holy7c06203:215141:0]          mpool.c:43   UCX  WARN  object 0x3b49680 was not returned to mpool ucp_requests
[1621310251.107301] [holy7c06607:266304:0]          mpool.c:43   UCX  WARN  object 0x4024f40 was not returned to mpool ucp_requests
[1621310251.101089] [holy7c06203:215133:0]          mpool.c:43   UCX  WARN  object 0x2907c40 was not returned to mpool ucp_requests
[1621310251.097548] [holy7c06203:215135:0]          mpool.c:43   UCX  WARN  object 0x2e60b80 was not returned to mpool ucp_requests
[1621310251.090147] [holy7c06203:215140:0]          mpool.c:43   UCX  WARN  object 0x6770480 was not returned to mpool ucp_requests
[1621310251.099086] [holy7c06203:215142:0]          mpool.c:43   UCX  WARN  object 0x3e43080 was not returned to mpool ucp_requests
[1621310251.103360] [holy7c06203:215143:0]          mpool.c:43   UCX  WARN  object 0x480d680 was not returned to mpool ucp_requests
[1621310251.104284] [holy7c06203:215134:0]          mpool.c:43   UCX  WARN  object 0x64eca40 was not returned to mpool ucp_requests
[1621310251.095698] [holy7c06609:146214:0]          mpool.c:43   UCX  WARN  object 0x29ada40 was not returned to mpool ucp_requests
[1621310251.102134] [holy7c06609:146220:0]          mpool.c:43   UCX  WARN  object 0x6760940 was not returned to mpool ucp_requests
[1621310251.107947] [holy7c06609:146222:0]          mpool.c:43   UCX  WARN  object 0x3e95ac0 was not returned to mpool ucp_requests
[1621310251.109179] [holy7c06609:146213:0]          mpool.c:43   UCX  WARN  object 0x5702ec0 was not returned to mpool ucp_requests
[1621310251.110624] [holy7c08101:74559:0]          mpool.c:43   UCX  WARN  object 0x46a48c0 was not returned to mpool ucp_requests
[1621310251.108608] [holy7c08101:74557:0]          mpool.c:43   UCX  WARN  object 0x32fd440 was not returned to mpool ucp_requests
[1621310251.114313] [holy7c06609:146223:0]          mpool.c:43   UCX  WARN  object 0x2c87b40 was not returned to mpool ucp_requests
[1621310251.114070] [holy7c06609:146221:0]          mpool.c:43   UCX  WARN  object 0x3a8eb80 was not returned to mpool ucp_requests
[1621310251.114090] [holy7c06609:146221:0]          mpool.c:43   UCX  WARN  object 0x3a8f980 was not returned to mpool ucp_requests
[1621310251.115138] [holy7c06609:146215:0]          mpool.c:43   UCX  WARN  object 0x2c052c0 was not returned to mpool ucp_requests
[1621310251.109609] [holy7c06607:266305:0]          mpool.c:43   UCX  WARN  object 0x60d9b00 was not returned to mpool ucp_requests
[1621310251.110531] [holy7c08101:74558:0]          mpool.c:43   UCX  WARN  object 0x32d8100 was not returned to mpool ucp_requests
[1621310251.118147] [holy7c06607:266307:0]          mpool.c:43   UCX  WARN  object 0x4411840 was not returned to mpool ucp_requests
[1621310251.122702] [holy7c06607:266315:0]          mpool.c:43   UCX  WARN  object 0x36f1c80 was not returned to mpool ucp_requests
[1621310251.119379] [holy7c08101:74560:0]          mpool.c:43   UCX  WARN  object 0x35b21c0 was not returned to mpool ucp_requests
[1621310251.119529] [holy7c06607:266306:0]          mpool.c:43   UCX  WARN  object 0x306c580 was not returned to mpool ucp_requests
[1621310251.122320] [holy7c06607:266312:0]          mpool.c:43   UCX  WARN  object 0x30bf4c0 was not returned to mpool ucp_requests
[1621310251.118528] [holy7c06607:266298:0]          mpool.c:43   UCX  WARN  object 0x45c6a40 was not returned to mpool ucp_requests
[1621310251.122624] [holy7c06607:266297:0]          mpool.c:43   UCX  WARN  object 0x63b9500 was not returned to mpool ucp_requests
[1621310251.122652] [holy7c06607:266297:0]          mpool.c:43   UCX  WARN  object 0x4267f40 was not returned to mpool ucp_requests
[1621310251.128733] [holy7c06607:266313:0]          mpool.c:43   UCX  WARN  object 0x3250540 was not returned to mpool ucp_requests
[1621310251.130817] [holy7c06607:266314:0]          mpool.c:43   UCX  WARN  object 0x432ea40 was not returned to mpool ucp_requests
[1621310251.128627] [holy7c06607:266296:0]          mpool.c:43   UCX  WARN  object 0x3198680 was not returned to mpool ucp_requests
[1621310251.147286] [holy7c06607:266299:0]          mpool.c:43   UCX  WARN  object 0x55368c0 was not returned to mpool ucp_requests