     Program PWSCF v.6.5 starts on 17May2021 at 18: 0:22

     R & G space division:  proc/nbgrp/npool/nimage =      80
     Reading input from YBCO_CuO_cleave_1.5_sep.pwi
Warning: card &IONS ignored
Warning: card     ION_DYNAMICS = 'BFGS' ignored
Warning: card / ignored
Warning: card &CELL ignored
Warning: card     CELL_DYNAMICS = 'BFGS' ignored
Warning: card     PRESS_CONV_THR = 5 ignored
Warning: card / ignored

     Current dimensions of program PWSCF are:
     Max number of different atomic species (ntypx) = 10
     Max number of k-points (npk) =  40000
     Max angular momentum in pseudopotentials (lmaxx) =  3
     Message from routine volume:
     axis vectors are left-handed

     Message from routine setup:
     using ibrav=0 with symmetry is DISCOURAGED, use correct ibrav instead

     bravais-lattice index     =            0
     lattice parameter (alat)  =      20.5021  a.u.
     unit-cell volume          =   35726.4460 (a.u.)^3
     number of atoms/cell      =          224
     number of atomic types    =            5
     number of electrons       =      1830.00
     number of Kohn-Sham states=         1098
     kinetic-energy cutoff     =      60.0000  Ry
     charge density cutoff     =     720.0000  Ry
     convergence threshold     =      1.0E-08
     mixing beta               =       0.5000
     number of iterations used =           10  local-TF  mixing
     Exchange-correlation= SLA PW PBE PBE
                           (   1   4   3   4   0   0   0)

     celldm(1)=  20.502120  celldm(2)=   0.000000  celldm(3)=   0.000000
     celldm(4)=   0.000000  celldm(5)=   0.000000  celldm(6)=   0.000000

     crystal axes: (cart. coord. in units of alat)
               a(1) = (  -0.716599   0.697485   0.000000 )
               a(2) = (   0.716599   0.697485   0.000000 )
               a(3) = (   0.000000   0.000000   4.147173 )

     reciprocal axes: (cart. coord. in units 2 pi/alat)
               b(1) = ( -0.697740  0.716861  0.000000 )
               b(2) = (  0.697740  0.716861  0.000000 )
               b(3) = (  0.000000  0.000000  0.241128 )

     PseudoPot. # 1 for Ba read from file:
     ./pseudo/Ba.pbe-nsp-van.UPF
     MD5 check sum: 2b9c31dd849566dd297d80989662b7a0
     Pseudo is Ultrasoft + core correction, Zval = 10.0
     Generated by new atomic code, or converted to UPF format
     Using radial grid of  907 points,  6 beta functions with:
                l(1) =   0
                l(2) =   0
                l(3) =   1
                l(4) =   1
                l(5) =   2
                l(6) =   2
     Q(r) pseudized with  6 coefficients,  rinner =    1.200   1.200   1.200
                                                       1.200   1.200

     PseudoPot. # 2 for Ca read from file:
     ./pseudo/Ca.pbe-nsp-van.UPF
     MD5 check sum: 6471098428ff4fa451746d08035ff179
     Pseudo is Ultrasoft + core correction, Zval = 10.0
     Generated by new atomic code, or converted to UPF format
     Using radial grid of  845 points,  6 beta functions with:
                l(1) =   0
                l(2) =   0
                l(3) =   1
                l(4) =   1
                l(5) =   2
                l(6) =   2
     Q(r) pseudized with  6 coefficients,  rinner =    1.200   1.200   1.200
                                                       1.200   1.200

     PseudoPot. # 3 for Cu read from file:
     ./pseudo/Cu.pbe-n-van_ak.UPF
     MD5 check sum: 34e3282627ffb533726feb647e090d62
     Pseudo is Ultrasoft + core correction, Zval = 11.0
     Generated by new atomic code, or converted to UPF format
     Using radial grid of  867 points,  6 beta functions with:
                l(1) =   0
                l(2) =   0
                l(3) =   1
                l(4) =   1
                l(5) =   2
                l(6) =   2
     Q(r) pseudized with  8 coefficients,  rinner =    1.400   1.400   1.400
                                                       1.400   1.400

     PseudoPot. # 4 for O  read from file:
     ./pseudo/O.pbe-van_ak.UPF
     MD5 check sum: 783ce7fe4c79b6a4916957118fed0856
     Pseudo is Ultrasoft, Zval =  6.0
     Generated by new atomic code, or converted to UPF format
     Using radial grid of  737 points,  4 beta functions with:
                l(1) =   0
                l(2) =   0
                l(3) =   1
                l(4) =   1
     Q(r) pseudized with  8 coefficients,  rinner =    0.800   0.800   0.800

     PseudoPot. # 5 for Y  read from file:
     ./pseudo/Y.pbe-nsp-van.UPF
     MD5 check sum: 4412fed3ab108fed87a1b7d6a69a4a38
     Pseudo is Ultrasoft + core correction, Zval = 11.0
     Generated by new atomic code, or converted to UPF format
     Using radial grid of  885 points,  6 beta functions with:
                l(1) =   0
                l(2) =   0
                l(3) =   1
                l(4) =   1
                l(5) =   2
                l(6) =   2
     Q(r) pseudized with  6 coefficients,  rinner =    1.200   1.200   1.200
                                                       1.200   1.200

     atomic species   valence    mass     pseudopotential
        Ba            10.00   137.32700     Ba( 1.00)
        Ca            10.00    40.07800     Ca( 1.00)
        Cu            11.00    63.54600     Cu( 1.00)
        O              6.00    15.99900     O ( 1.00)
        Y             11.00    88.90584     Y ( 1.00)

      4 Sym. Ops. (no inversion) found ( 3 have fractional translation)

   Cartesian axes

     site n.     atom                  positions (alat units)
         1           O   tau(   1) = (   0.3545921   0.8718562  -0.0077406  )
         2           O   tau(   2) = (   0.0037072   0.8718562  -0.0077406  )
         3           Cu  tau(   3) = (  -0.0002581   0.0006065   0.0080789  )
         4           Cu  tau(   4) = (  -0.0002581   0.3481364   0.0080789  )
         5           Cu  tau(   5) = (   0.3585574   0.3481364   0.0080789  )
         6           Cu  tau(   6) = (  -0.3580421   0.6980913   0.0080789  )
         7           Cu  tau(   7) = (   0.3577988   0.6971373   0.0086255  )
         8           Cu  tau(   8) = (   0.0005005   1.0465760   0.0086255  )
         9           Cu  tau(   9) = (  -0.3588016   0.3490903   0.0086255  )
        10           Cu  tau(  10) = (   0.0005005   0.6971373   0.0086255  )
        11           O   tau(  11) = (  -0.0001733   0.5225410  -0.0089757  )
        12           O   tau(  12) = (   0.3584726   0.5225410  -0.0089757  )
        13           O   tau(  13) = (  -0.0001733   1.2211724  -0.0089757  )
        14           O   tau(  14) = (  -0.3581278   0.5236867  -0.0089757  )
        15           O   tau(  15) = (  -0.3544557   0.8718562  -0.0105593  )
        16           O   tau(  16) = (  -0.0038445   0.1743714  -0.0105593  )
        17           O   tau(  17) = (   0.3588818   0.3486599   0.1817056  )
        18           O   tau(  18) = (  -0.0005825   0.3486599   0.1817056  )
        19           O   tau(  19) = (  -0.0005825   0.0000830   0.1817056  )
        20           O   tau(  20) = (  -0.3577167   0.6975677   0.1817056  )
        21           O   tau(  21) = (   0.3584283   0.6967843   0.1825784  )
        22           O   tau(  22) = (  -0.3581712   0.3494443   0.1825784  )
        23           O   tau(  23) = (  -0.0001290   0.6967843   0.1825784  )
        24           O   tau(  24) = (  -0.0001290   1.0469291   0.1825784  )
        25           Ba  tau(  25) = (   0.1791506   0.8718562   0.1908537  )
        26           Ba  tau(  26) = (   0.5374498   0.5231143   0.1919901  )
        27           Ba  tau(  27) = (  -0.1791506   0.5231143   0.1919901  )
        28           Ba  tau(  28) = (  -0.1793773   0.8718562   0.1931958  )
        29           Ba  tau(  29) = (  -0.1789238   0.1743714   0.1931958  )
        30           Ba  tau(  30) = (   0.1791506   0.5222101   0.1929368  )
        31           Ba  tau(  31) = (  -0.5374498   0.5240176   0.1929368  )
        32           Ba  tau(  32) = (   0.1791506   0.1743714   0.1992469  )
        33           Cu  tau(  33) = (  -0.3583426   0.3488452   0.3777458  )
        34           Cu  tau(  34) = (   0.3582559   0.6973834   0.3777458  )
        35           Cu  tau(  35) = (   0.0000433   0.6973834   0.3777458  )
        36           Cu  tau(  36) = (   0.0000433   1.0463299   0.3777458  )
        37           Cu  tau(  37) = (  -0.3586541   0.6975060   0.3775126  )
        38           Cu  tau(  38) = (   0.3579444   0.3487217   0.3775126  )
        39           Cu  tau(  39) = (   0.0003549   0.0000212   0.3775126  )
        40           Cu  tau(  40) = (   0.0003549   0.3487217   0.3775126  )
        41           O   tau(  41) = (  -0.0047976   0.1743714   0.3996864  )
        42           O   tau(  42) = (  -0.3535026   0.8718562   0.3996864  )
        43           O   tau(  43) = (  -0.5374498   0.6924605   0.3956991  )
        44           O   tau(  44) = (   0.1791506   0.3537672   0.3956991  )
        45           O   tau(  45) = (   0.3586385   0.8718562   0.4046840  )
        46           O   tau(  46) = (  -0.0003392   0.8718562   0.4046840  )
        47           O   tau(  47) = (  -0.0004857   0.5230571   0.4066611  )
        48           O   tau(  48) = (   0.3587850   0.5230571   0.4066611  )
        49           O   tau(  49) = (  -0.3578135   0.5231714   0.4066611  )
        50           O   tau(  50) = (  -0.0004857   1.2206562   0.4066611  )
        51           O   tau(  51) = (   0.1791506   1.0461604   0.4028931  )
        52           O   tau(  52) = (   0.1791506   0.6975521   0.4028931  )
        53           O   tau(  53) = (  -0.1792261   0.6967170   0.4025963  )
        54           O   tau(  54) = (  -0.1790731   0.3495106   0.4025963  )
        55           O   tau(  55) = (  -0.1792261   1.0469964   0.4025963  )
        56           O   tau(  56) = (   0.5375263   0.6967170   0.4025963  )
        57           Ca  tau(  57) = (   0.1791506   0.1743714   0.5358617  )
        58           Y   tau(  58) = (  -0.1811525   0.8718562   0.5373908  )
        59           Y   tau(  59) = (  -0.1771467   0.1743714   0.5373908  )
        60           Y   tau(  60) = (   0.1791506   0.8718562   0.5379568  )
[...]
       210           O   tau( 210) = (   0.0037081   0.8718562   2.3023655  )
       211           Cu  tau( 211) = (  -0.0002516   0.0006074   2.2865617  )
       212           Cu  tau( 212) = (  -0.0002516   0.3481345   2.2865617  )
       213           Cu  tau( 213) = (   0.3585509   0.3481345   2.2865617  )
       214           Cu  tau( 214) = (  -0.3580476   0.6980931   2.2865617  )
       215           Cu  tau( 215) = (   0.3577960   0.6971373   2.2860151  )
       216           Cu  tau( 216) = (   0.0005033   1.0465760   2.2860151  )
       217           Cu  tau( 217) = (  -0.3588035   0.3490903   2.2860151  )
       218           Cu  tau( 218) = (   0.0005033   0.6971373   2.2860151  )
       219           O   tau( 219) = (  -0.0001724   0.5225410   2.3036043  )
       220           O   tau( 220) = (   0.3584716   0.5225410   2.3036043  )
       221           O   tau( 221) = (  -0.0001724   1.2211724   2.3036043  )
[...]
   -22.5495 -22.5281 -22.5235 -22.5223 -22.5194 -22.5121 -22.4829 -22.4512
   -22.4055 -22.3969 -22.3707 -22.3618 -22.3401 -22.3355 -22.2550 -22.0591
   -18.7227 -18.6504 -18.6485 -18.6446 -18.6202 -18.5930 -18.5774 -18.5719
   -18.5571 -18.5542 -18.5275 -18.5165 -18.5059 -18.4832 -18.4535 -18.4462
   -18.4460 -18.4415 -18.4271 -18.4224 -18.4177 -18.3765 -18.3714 -18.3543
   -18.3518 -18.3414 -18.3386 -18.3156 -18.2825 -18.2751 -18.2553 -18.2436
   -18.2384 -18.2344 -18.2074 -18.1864 -18.1648 -18.1646 -18.1635 -18.1114
   -18.0880 -18.0351 -16.9413 -16.9144 -16.9086 -16.8617 -16.8318 -16.8295
   -15.2798 -15.2278 -15.0923 -15.0402 -15.0210 -14.9746 -14.8875 -14.8438
   -14.7612 -14.7456 -14.7105 -14.7006 -14.6983 -14.6722 -14.6689 -14.6358
   -14.6039 -14.5966 -14.5729 -14.5610 -14.5512 -14.5402 -14.5294 -14.5221
   -14.5175 -14.5064 -14.4940 -14.4918 -14.4732 -14.4714 -14.4519 -14.4468
   -14.4233 -14.4108 -14.3981 -14.3826 -14.3597 -14.3561 -14.3487 -14.3402
   -14.3388 -14.3350 -14.3206 -14.3141 -14.3135 -14.3119 -14.3098 -14.2951
   -14.2815 -14.2678 -14.2661 -14.2468 -14.2466 -14.2270 -14.2101 -14.2094
   -14.1986 -14.1888 -14.1849 -14.1844 -14.1770 -14.1741 -14.1694 -14.1674
   -14.1517 -14.1461 -14.1323 -14.1192 -14.1144 -14.1084 -14.0943 -14.0887
   -14.0776 -14.0719 -14.0698 -14.0494 -14.0484 -14.0466 -14.0425 -14.0290
   -14.0074 -14.0032 -13.9995 -13.9868 -13.9788 -13.9258 -13.9256 -13.9231
   -13.7811 -13.7764 -13.7674 -13.7616 -13.7600 -13.7594 -13.7446 -13.7444
   -13.7277 -13.7097 -13.7062 -13.7061 -13.6948 -13.6910 -13.6737 -13.6670
   -13.6621 -13.6572 -13.6506 -13.5861 -13.5578 -13.5202 -13.5090 -13.4899
   -12.6507 -12.6360 -12.5648 -12.5641 -12.5031 -12.5028 -12.4661 -12.3887
    -8.4980  -8.4873  -8.3149  -8.2181  -8.2124  -8.2088  -8.2070  -8.2016
    -8.1978  -8.0754  -8.0578  -8.0535  -8.0473  -8.0155  -8.0098  -7.9967
    -7.9849  -7.9723  -7.9612  -7.9610  -7.9509  -7.9489  -7.9385  -7.9367
    -7.9336  -7.9228  -7.9194  -7.9161  -7.9105  -7.9072  -7.9048  -7.9047
    -7.8967  -7.8938  -7.8931  -7.8923  -7.8916  -7.8856  -7.8849  -7.8828
    -7.8798  -7.8736  -7.8715  -7.8685  -7.8618  -7.8589  -7.8488  -7.8407
    -7.8387  -7.8308  -7.7916  -7.7910  -7.7824  -7.7509  -7.7467  -7.7463
    -7.7442  -7.7244  -7.7218  -7.7129  -7.6877  -7.6837  -7.6816  -7.6767
    -7.6732  -7.6476  -7.6368  -7.6113  -7.5956  -7.5846  -7.5789  -7.5532
    -7.5516  -7.5495  -7.5414  -7.5323  -7.5303  -7.5294  -7.5229  -7.5214
    -7.5120  -7.4799  -7.4787  -7.4636  -7.4572  -7.4301  -7.4255  -7.3789
    -7.3301  -7.3145  -7.2959  -7.2768  -7.2476  -7.2237  -7.0674  -7.0636
    -3.9335  -3.8750  -3.5151  -3.4613  -3.4541  -3.4385  -3.4078  -3.3754
    -3.3541  -3.3290  -3.0973  -3.0724  -3.0450  -3.0114  -2.9868  -2.9544
    -2.8275  -2.8132  -2.7879  -2.7735  -2.7518  -2.7313  -2.7242  -2.6974
    -2.6811  -2.6777  -2.6616  -2.6483  -2.6295  -2.5462  -2.5339  -2.5220
    -2.4636  -2.4383  -2.3302  -2.3240  -2.2949  -2.2650  -2.2569  -2.2559
    -2.2458  -2.2432  -2.2432  -2.2403  -2.2235  -2.2230  -2.1656  -2.1605
    -2.1540  -2.1216  -2.0958  -2.0882  -2.0438  -2.0356  -2.0320  -2.0303
    -2.0278  -2.0156  -1.9905  -1.9836  -1.9799  -1.9755  -1.9710  -1.9690
    -1.9626  -1.9504  -1.9463  -1.9419  -1.9308  -1.9263  -1.9180  -1.9115
    -1.9040  -1.8936  -1.8824  -1.8729  -1.8686  -1.8639  -1.8608  -1.8604
    -1.8325  -1.8281  -1.8266  -1.8211  -1.8059  -1.7898  -1.7893  -1.7848
    -1.7827  -1.7790  -1.7774  -1.7765  -1.7721  -1.7650  -1.7571  -1.7567
    -1.7543  -1.7400  -1.7311  -1.7278  -1.7123  -1.7091  -1.7053  -1.6942
    -1.6837  -1.6746  -1.6708  -1.6644  -1.6570  -1.6472  -1.6424  -1.6263
    -1.6242  -1.6218  -1.6098  -1.6037  -1.5958  -1.5916  -1.5770  -1.5737
    -1.5712  -1.5653  -1.5585  -1.5520  -1.5444  -1.5247  -1.5054  -1.5019
    -1.4943  -1.4781  -1.4665  -1.3940  -1.2504  -1.2131  -1.1873  -1.1868
    -1.1596  -1.1277  -1.0794  -0.9837  -0.9801  -0.9571  -0.9564  -0.9322
    -0.9069  -0.8882  -0.8878  -0.8758  -0.8657  -0.8543  -0.8513  -0.8480
    -0.8405  -0.8371  -0.8308  -0.8218  -0.8194  -0.8091  -0.8065  -0.7997
    -0.7819  -0.7666  -0.7534  -0.7451  -0.7385  -0.7347  -0.7295  -0.7291
[...]
     7.1023   7.1262   7.1377   7.1630   7.2147   7.2452   7.3049   7.3280
     7.3806   7.4145   7.4797   7.4829   7.8420   7.8961   7.9052   7.9221
     7.9422   7.9434   7.9573   7.9577   7.9609   7.9753   7.9774   7.9863
     7.9888   8.0051   8.0212   8.0280   8.0398   8.0608   8.0906   8.0951
     8.1113   8.1304   8.1534   8.1638   8.1836   8.2257   8.2766   8.3154
     8.3389   8.3555   8.3703   8.3938   8.4182   8.4233   8.4237   8.4399
     8.4544   8.4557   8.4651   8.4691   8.5350   8.5851   8.5980   8.6566
     8.7148   8.7380   8.7496   8.7726   8.7733   8.7827   8.7971   8.8125
     8.8380   8.8583   8.8678   8.9140   8.9312   8.9795   8.9844   8.9873
     9.0186   9.0373   9.0804   9.0867   9.1391   9.1497   9.1823   9.1865
     9.1901   9.1952   9.2066   9.2149   9.2292   9.2323   9.2528   9.2615
     9.2677   9.2754   9.2887   9.3012   9.3115   9.3237   9.3238   9.3351
     9.3576   9.3797   9.3892   9.3950   9.4118   9.4135   9.4295   9.4358
     9.4463   9.4549   9.4624   9.4708   9.4876   9.5006   9.5233   9.5335
     9.5611   9.5664

     the Fermi energy is     2.9476 ev

!    total energy              =  -14924.01823137 Ry
     Harris-Foulkes estimate   =  -14924.01823134 Ry
     estimated scf accuracy    <          2.2E-09 Ry

     The total energy is the sum of the following terms:

     one-electron contribution = -227342.96781523 Ry
     hartree contribution      =  114908.01828965 Ry
     xc contribution           =   -5117.02588545 Ry
     ewald contribution        =  102628.02328275 Ry
     smearing contrib. (-TS)   =      -0.06610309 Ry

     convergence has been achieved in  40 iterations

     negative rho (up, down):  6.349E-01 0.000E+00

     Forces acting on atoms (cartesian axes, Ry/au):

     atom    1 type  4   force =     0.00010224    0.00000000   -0.00021826
     atom    2 type  4   force =    -0.00010224    0.00000000   -0.00021826
     atom    3 type  3   force =     0.00008420   -0.00005251    0.00004540
     atom    4 type  3   force =     0.00008420    0.00005251    0.00004540
     atom    5 type  3   force =    -0.00008420    0.00005251    0.00004540
     atom    6 type  3   force =    -0.00008420   -0.00005251    0.00004540
     atom    7 type  3   force =    -0.00000855   -0.00000056   -0.00013899
     atom    8 type  3   force =     0.00000855    0.00000056   -0.00013899
     atom    9 type  3   force =    -0.00000855    0.00000056   -0.00013899
     atom   10 type  3   force =     0.00000855   -0.00000056   -0.00013899
     atom   11 type  4   force =    -0.00011051    0.00005263   -0.00024898
     atom   12 type  4   force =     0.00011051    0.00005263   -0.00024898
     atom   13 type  4   force =    -0.00011051   -0.00005263   -0.00024898
     atom   14 type  4   force =     0.00011051   -0.00005263   -0.00024898
     atom   15 type  4   force =    -0.00015506    0.00000000   -0.00030250
     atom   16 type  4   force =     0.00015506    0.00000000   -0.00030250
     atom   17 type  4   force =     0.00001483    0.00005498    0.00053457
     atom   18 type  4   force =    -0.00001483    0.00005498    0.00053457
     atom   19 type  4   force =    -0.00001483   -0.00005498    0.00053457
     atom   20 type  4   force =     0.00001483   -0.00005498    0.00053457
     atom   21 type  4   force =     0.00003618    0.00005261    0.00072167
     atom   22 type  4   force =     0.00003618   -0.00005261    0.00072167
     atom   23 type  4   force =    -0.00003618    0.00005261    0.00072167
     atom   24 type  4   force =    -0.00003618   -0.00005261    0.00072167
     atom   25 type  1   force =     0.00000000    0.00000000   -0.00016037
     atom   26 type  1   force =     0.00000000    0.00000000   -0.00028033
     atom   27 type  1   force =     0.00000000    0.00000000   -0.00028033
     atom   28 type  1   force =    -0.00016085    0.00000000   -0.00015535
     atom   29 type  1   force =     0.00016085    0.00000000   -0.00015535
     atom   30 type  1   force =     0.00000000    0.00011955   -0.00040126
     atom   31 type  1   force =     0.00000000   -0.00011955   -0.00040126
     atom   32 type  1   force =     0.00000000    0.00000000   -0.00029765
     atom   33 type  3   force =    -0.00003884   -0.00000904   -0.00046149
     atom   34 type  3   force =    -0.00003884    0.00000904   -0.00046149
     atom   35 type  3   force =     0.00003884    0.00000904   -0.00046149
     atom   36 type  3   force =     0.00003884   -0.00000904   -0.00046149
     atom   37 type  3   force =     0.00001563   -0.00002672   -0.00048228
     atom   38 type  3   force =     0.00001563    0.00002672   -0.00048228
     atom   39 type  3   force =    -0.00001563   -0.00002672   -0.00048228
     atom   40 type  3   force =    -0.00001563    0.00002672   -0.00048228
     atom   41 type  4   force =    -0.00036881    0.00000000    0.00115201
     atom   42 type  4   force =     0.00036881    0.00000000    0.00115201
     atom   43 type  4   force =     0.00000000   -0.00009530    0.00114378
     atom   44 type  4   force =     0.00000000    0.00009530    0.00114378
     atom   45 type  4   force =     0.00006932    0.00000000    0.00133825
     atom   46 type  4   force =    -0.00006932    0.00000000    0.00133825
     atom   47 type  4   force =    -0.00001717   -0.00008839    0.00139152
     atom   48 type  4   force =     0.00001717   -0.00008839    0.00139152
     atom   49 type  4   force =     0.00001717    0.00008839    0.00139152
     atom   50 type  4   force =    -0.00001717    0.00008839    0.00139152
     atom   51 type  4   force =     0.00000000   -0.00002405    0.00113816
     atom   52 type  4   force =     0.00000000    0.00002405    0.00113816
     atom   53 type  4   force =     0.00003533    0.00003372    0.00133700
     atom   54 type  4   force =    -0.00003533   -0.00003372    0.00133700
     atom   55 type  4   force =     0.00003533   -0.00003372    0.00133700
     atom   56 type  4   force =    -0.00003533    0.00003372    0.00133700
     atom   57 type  2   force =     0.00000000    0.00000000   -0.00274229
     atom   58 type  5   force =     0.00050118    0.00000000   -0.00467830
     atom   59 type  5   force =    -0.00050118    0.00000000   -0.00467830
     atom   60 type  5   force =     0.00000000    0.00000000   -0.00399411
[...]
     atom  210 type  4   force =    -0.00008168    0.00000000   -0.00021258
     atom  211 type  3   force =     0.00008571   -0.00005604    0.00067858
     atom  212 type  3   force =     0.00008571    0.00005604    0.00067858
     atom  213 type  3   force =    -0.00008571    0.00005604    0.00067858
     atom  214 type  3   force =    -0.00008571   -0.00005604    0.00067858
     atom  215 type  3   force =    -0.00000360   -0.00002106    0.00088439
     atom  216 type  3   force =     0.00000360    0.00002106    0.00088439
     atom  217 type  3   force =    -0.00000360    0.00002106    0.00088439
     atom  218 type  3   force =     0.00000360   -0.00002106    0.00088439
     atom  219 type  4   force =    -0.00010549    0.00018019   -0.00017159
     atom  220 type  4   force =     0.00010549    0.00018019   -0.00017159
     atom  221 type  4   force =    -0.00010549   -0.00018019   -0.00017159
     atom  222 type  4   force =     0.00010549   -0.00018019   -0.00017159
     atom  223 type  4   force =    -0.00012908    0.00000000   -0.00011411
     atom  224 type  4   force =     0.00012908    0.00000000   -0.00011411

     Total force =     0.135533     Total SCF correction =     0.000171

     Computing stress (Cartesian axis) and pressure

     negative rho (up, down):  6.349E-01 0.000E+00
          total   stress  (Ry/bohr**3)                   (kbar)     P=       -7.13
  -0.00000413   0.00000000   0.00000000           -0.61        0.00        0.00
  -0.00000000  -0.00009154   0.00000000           -0.00      -13.47        0.00
   0.00000000   0.00000000  -0.00004981            0.00        0.00       -7.33

     General routines

     Parallel routines

   This run was terminated on:  19:19:24  17May2021

   JOB DONE.
[1621293564.750338] [holy7c08611:52575:0]          mpool.c:43   UCX  WARN  object 0x3531d80 was not returned to mpool ucp_requests
[1621293564.753552] [holy7c10110:168150:0]          mpool.c:43   UCX  WARN  object 0x37dc280 was not returned to mpool ucp_requests
[1621293564.758197] [holy7c10109:223708:0]          mpool.c:43   UCX  WARN  object 0x604c0c0 was not returned to mpool ucp_requests
[1621293564.756563] [holy7c08610:28087:0]          mpool.c:43   UCX  WARN  object 0x44ddb00 was not returned to mpool ucp_requests
[1621293564.756125] [holy7c08610:28094:0]          mpool.c:43   UCX  WARN  object 0x3eb5740 was not returned to mpool ucp_requests
[1621293564.756651] [holy7c08610:28089:0]          mpool.c:43   UCX  WARN  object 0x361df80 was not returned to mpool ucp_requests
[1621293564.760130] [holy7c08610:28088:0]          mpool.c:43   UCX  WARN  object 0x3b20740 was not returned to mpool ucp_requests
[1621293564.768974] [holy7c08610:28096:0]          mpool.c:43   UCX  WARN  object 0x62d8fc0 was not returned to mpool ucp_requests
[1621293564.769006] [holy7c08610:28096:0]          mpool.c:43   UCX  WARN  object 0x40da940 was not returned to mpool ucp_requests
[1621293564.769129] [holy7c08610:28095:0]          mpool.c:43   UCX  WARN  object 0x4786f40 was not returned to mpool ucp_requests
[1621293564.769056] [holy7c08610:28097:0]          mpool.c:43   UCX  WARN  object 0x35c6100 was not returned to mpool ucp_requests
[1621293564.756855] [holy7c08611:52580:0]          mpool.c:43   UCX  WARN  object 0x2fbf0c0 was not returned to mpool ucp_requests
[1621293564.757639] [holy7c08611:52572:0]          mpool.c:43   UCX  WARN  object 0x2b06040 was not returned to mpool ucp_requests
[1621293564.755311] [holy7c08611:52574:0]          mpool.c:43   UCX  WARN  object 0x45f1bc0 was not returned to mpool ucp_requests
[1621293564.759930] [holy7c08611:52573:0]          mpool.c:43   UCX  WARN  object 0x444fe80 was not returned to mpool ucp_requests
[1621293564.766048] [holy7c08611:52583:0]          mpool.c:43   UCX  WARN  object 0x33d8b40 was not returned to mpool ucp_requests
[1621293564.766072] [holy7c08611:52583:0]          mpool.c:43   UCX  WARN  object 0x33df7c0 was not returned to mpool ucp_requests
[1621293564.766529] [holy7c08611:52581:0]          mpool.c:43   UCX  WARN  object 0x2d2af80 was not returned to mpool ucp_requests
[1621293564.772922] [holy7c08611:52582:0]          mpool.c:43   UCX  WARN  object 0x349c2c0 was not returned to mpool ucp_requests
[1621293564.759920] [holy7c10110:168152:0]          mpool.c:43   UCX  WARN  object 0x31d1580 was not returned to mpool ucp_requests
[1621293564.757633] [holy7c10110:168160:0]          mpool.c:43   UCX  WARN  object 0x3b4ed40 was not returned to mpool ucp_requests
[1621293564.767904] [holy7c10110:168158:0]          mpool.c:43   UCX  WARN  object 0x348d180 was not returned to mpool ucp_requests
[1621293564.766882] [holy7c10110:168151:0]          mpool.c:43   UCX  WARN  object 0x42b00c0 was not returned to mpool ucp_requests
[1621293564.764752] [holy7c10110:168153:0]          mpool.c:43   UCX  WARN  object 0x2d98380 was not returned to mpool ucp_requests
[1621293564.765983] [holy7c10110:168159:0]          mpool.c:43   UCX  WARN  object 0x3f94340 was not returned to mpool ucp_requests
[1621293564.771278] [holy7c10110:168161:0]          mpool.c:43   UCX  WARN  object 0x4128e80 was not returned to mpool ucp_requests
[1621293564.758126] [holy7c10109:223707:0]          mpool.c:43   UCX  WARN  object 0x40968c0 was not returned to mpool ucp_requests
[1621293564.760167] [holy7c10109:223714:0]          mpool.c:43   UCX  WARN  object 0x3588240 was not returned to mpool ucp_requests
[1621293564.767332] [holy7c10109:223705:0]          mpool.c:43   UCX  WARN  object 0x306e3c0 was not returned to mpool ucp_requests
[1621293564.764213] [holy7c10109:223706:0]          mpool.c:43   UCX  WARN  object 0x44db600 was not returned to mpool ucp_requests
[1621293564.764239] [holy7c10109:223706:0]          mpool.c:43   UCX  WARN  object 0x44dfa40 was not returned to mpool ucp_requests
[1621293564.768043] [holy7c10109:223713:0]          mpool.c:43   UCX  WARN  object 0x470f180 was not returned to mpool ucp_requests
[1621293564.768214] [holy7c10109:223716:0]          mpool.c:43   UCX  WARN  object 0x317c940 was not returned to mpool ucp_requests
[1621293564.772200] [holy7c10109:223715:0]          mpool.c:43   UCX  WARN  object 0x2b74980 was not returned to mpool ucp_requests