     Program PWSCF v.6.5 starts on 21May2021 at 21:18:14

     R & G space division:  proc/nbgrp/npool/nimage =      20
     Reading input from CBCO_CuO_cleave_0.5_sep.pwi
Warning: card &IONS ignored
Warning: card     ION_DYNAMICS = 'BFGS' ignored
Warning: card / ignored
Warning: card &CELL ignored
Warning: card     CELL_DYNAMICS = 'BFGS' ignored
Warning: card     PRESS_CONV_THR = 5 ignored
Warning: card / ignored

     Current dimensions of program PWSCF are:
     Max number of different atomic species (ntypx) = 10
     Max number of k-points (npk) =  40000
     Max angular momentum in pseudopotentials (lmaxx) =  3

     Message from routine setup:
     using ibrav=0 with symmetry is DISCOURAGED, use correct ibrav instead

     bravais-lattice index     =            0
     lattice parameter (alat)  =       7.4270  a.u.
     unit-cell volume          =    4351.6708 (a.u.)^3
     number of atoms/cell      =           28
     number of atomic types    =            4
     number of electrons       =       227.00
     number of Kohn-Sham states=          137
     kinetic-energy cutoff     =      60.0000  Ry
     charge density cutoff     =     720.0000  Ry
     convergence threshold     =      1.0E-08
     mixing beta               =       0.5000
     number of iterations used =           10  local-TF  mixing
     Exchange-correlation= SLA PW PBE PBE
                           (   1   4   3   4   0   0   0)

     celldm(1)=   7.427040  celldm(2)=   0.000000  celldm(3)=   0.000000
     celldm(4)=   0.000000  celldm(5)=   0.000000  celldm(6)=   0.000000

     crystal axes: (cart. coord. in units of alat)
               a(1) = (   1.000000   0.000000   0.000000 )
               a(2) = (   0.000000   0.947081   0.000000 )
               a(3) = (   0.000000   0.000000  11.215576 )

     reciprocal axes: (cart. coord. in units 2 pi/alat)
               b(1) = (  1.000000  0.000000  0.000000 )
               b(2) = (  0.000000  1.055876  0.000000 )
               b(3) = (  0.000000  0.000000  0.089162 )

     PseudoPot. # 1 for Ba read from file:
     ./pseudo/Ba.pbe-nsp-van.UPF
     MD5 check sum: 2b9c31dd849566dd297d80989662b7a0
     Pseudo is Ultrasoft + core correction, Zval = 10.0
     Generated by new atomic code, or converted to UPF format
     Using radial grid of  907 points,  6 beta functions with:
                l(1) =   0
                l(2) =   0
                l(3) =   1
                l(4) =   1
                l(5) =   2
                l(6) =   2
     Q(r) pseudized with  6 coefficients,  rinner =    1.200   1.200   1.200
                                                       1.200   1.200

     PseudoPot. # 2 for Ca read from file:
     ./pseudo/Ca.pbe-nsp-van.UPF
     MD5 check sum: 6471098428ff4fa451746d08035ff179
     Pseudo is Ultrasoft + core correction, Zval = 10.0
     Generated by new atomic code, or converted to UPF format
     Using radial grid of  845 points,  6 beta functions with:
                l(1) =   0
                l(2) =   0
                l(3) =   1
                l(4) =   1
                l(5) =   2
                l(6) =   2
     Q(r) pseudized with  6 coefficients,  rinner =    1.200   1.200   1.200
                                                       1.200   1.200

     PseudoPot. # 3 for Cu read from file:
     ./pseudo/Cu.pbe-n-van_ak.UPF
     MD5 check sum: 34e3282627ffb533726feb647e090d62
     Pseudo is Ultrasoft + core correction, Zval = 11.0
     Generated by new atomic code, or converted to UPF format
     Using radial grid of  867 points,  6 beta functions with:
                l(1) =   0
                l(2) =   0
                l(3) =   1
                l(4) =   1
                l(5) =   2
                l(6) =   2
     Q(r) pseudized with  8 coefficients,  rinner =    1.400   1.400   1.400
                                                       1.400   1.400

     PseudoPot. # 4 for O  read from file:
     ./pseudo/O.pbe-van_ak.UPF
     MD5 check sum: 783ce7fe4c79b6a4916957118fed0856
     Pseudo is Ultrasoft, Zval =  6.0
     Generated by new atomic code, or converted to UPF format
     Using radial grid of  737 points,  4 beta functions with:
                l(1) =   0
                l(2) =   0
                l(3) =   1
                l(4) =   1
     Q(r) pseudized with  8 coefficients,  rinner =    0.800   0.800   0.800

     atomic species   valence    mass     pseudopotential
        Ba            10.00   137.32700     Ba( 1.00)
        Ca            10.00    40.07800     Ca( 1.00)
        Cu            11.00    63.54600     Cu( 1.00)
        O              6.00    15.99900     O ( 1.00)

      4 Sym. Ops. (no inversion) found

   Cartesian axes

     site n.     atom                  positions (alat units)
         1           O   tau(   1) = (   0.0000000   0.4735409  -0.0469745  )
         2           Cu  tau(   2) = (   0.0000000   0.0000000   0.0264565  )
         3           O   tau(   3) = (   0.0000000   0.0000000   0.5030914  )
         4           Ba  tau(   4) = (   0.5000000   0.4735409   0.5690292  )
         5           Cu  tau(   5) = (   0.0000000   0.0000000   1.0374254  )
         6           O   tau(   6) = (   0.5000000   0.0000000   1.0768099  )
         7           O   tau(   7) = (   0.0000000   0.4735409   1.1116985  )
         8           Ca  tau(   8) = (   0.5000000   0.4735409   1.4976260  )
         9           O   tau(   9) = (   0.0000000   0.4735409   1.8667529  )
        10           O   tau(  10) = (   0.5000000   0.0000000   1.9044124  )
        11           Cu  tau(  11) = (   0.0000000   0.0000000   1.9512546  )
        12           Ba  tau(  12) = (   0.5000000   0.4735409   2.4295764  )
        13           O   tau(  13) = (   0.0000000   0.0000000   2.5115362  )
        14           O   tau(  14) = (   0.0000000   0.4735409   2.9918528  )
        15           Cu  tau(  15) = (   0.0000000   0.0000000   2.9919088  )
        16           O   tau(  16) = (   0.0000000   0.0000000   3.5994880  )
        17           Ba  tau(  17) = (   0.5000000   0.4735409   3.6814401  )
        18           Cu  tau(  18) = (   0.0000000   0.0000000   4.1597441  )
        19           O   tau(  19) = (   0.5000000   0.0000000   4.2065863  )
        20           O   tau(  20) = (   0.0000000   0.4735409   4.2442406  )
        21           Ca  tau(  21) = (   0.5000000   0.4735409   4.6133777  )
        22           O   tau(  22) = (   0.0000000   0.4735409   4.9993027  )
        23           O   tau(  23) = (   0.5000000   0.0000000   5.0341913  )
        24           Cu  tau(  24) = (   0.0000000   0.0000000   5.0735784  )
        25           Ba  tau(  25) = (   0.5000000   0.4735409   5.5419720  )
        26           O   tau(  26) = (   0.0000000   0.0000000   5.6078996  )
        27           Cu  tau(  27) = (   0.0000000   0.0000000   6.0845396  )
        28           O   tau(  28) = (   0.0000000   0.4735409   6.1579579  )

     number of k points=    25  Gaussian smearing, width (Ry)=  0.0100
                       cart. coord. in units 2pi/alat
        k(    1) = (   0.0000000   0.0000000   0.0000000), wk =   0.0312500
        k(    2) = (   0.0000000   0.1319845   0.0000000), wk =   0.0625000
        k(    3) = (   0.0000000   0.2639689   0.0000000), wk =   0.0625000
        k(    4) = (   0.0000000   0.3959534   0.0000000), wk =   0.0625000
        k(    5) = (   0.0000000  -0.5279378   0.0000000), wk =   0.0312500
        k(    6) = (   0.1250000   0.0000000   0.0000000), wk =   0.0625000
        k(    7) = (   0.1250000   0.1319845   0.0000000), wk =   0.1250000
        k(    8) = (   0.1250000   0.2639689   0.0000000), wk =   0.1250000
        k(    9) = (   0.1250000   0.3959534   0.0000000), wk =   0.1250000
        k(   10) = (   0.1250000  -0.5279378   0.0000000), wk =   0.0625000
        k(   11) = (   0.2500000   0.0000000   0.0000000), wk =   0.0625000
        k(   12) = (   0.2500000   0.1319845   0.0000000), wk =   0.1250000
        k(   13) = (   0.2500000   0.2639689   0.0000000), wk =   0.1250000
        k(   14) = (   0.2500000   0.3959534   0.0000000), wk =   0.1250000
        k(   15) = (   0.2500000  -0.5279378   0.0000000), wk =   0.0625000
        k(   16) = (   0.3750000   0.0000000   0.0000000), wk =   0.0625000
        k(   17) = (   0.3750000   0.1319845   0.0000000), wk =   0.1250000
        k(   18) = (   0.3750000   0.2639689   0.0000000), wk =   0.1250000
        k(   19) = (   0.3750000   0.3959534   0.0000000), wk =   0.1250000
        k(   20) = (   0.3750000  -0.5279378   0.0000000), wk =   0.0625000
        k(   21) = (  -0.5000000   0.0000000   0.0000000), wk =   0.0312500
        k(   22) = (  -0.5000000   0.1319845   0.0000000), wk =   0.0625000
        k(   23) = (  -0.5000000   0.2639689   0.0000000), wk =   0.0625000
        k(   24) = (  -0.5000000   0.3959534   0.0000000), wk =   0.0625000
        k(   25) = (  -0.5000000  -0.5279378   0.0000000), wk =   0.0312500

     Initial potential from superposition of free atoms

     starting charge  226.84630, renormalised to  227.00000

     negative rho (up, down):  3.437E-03 0.000E+00
     Starting wfcs are  195 randomized atomic wfcs

     Self-consistent Calculation

     iteration #  1     ecut=    60.00 Ry     beta= 0.50
     Davidson diagonalization with overlap
     ethr =  1.00E-02,  avg # of iterations =  2.0

     negative rho (up, down):  4.984E-04 0.000E+00

     total energy              =   -1840.87505045 Ry
     Harris-Foulkes estimate   =   -1845.32792281 Ry
     estimated scf accuracy    <      19.04923712 Ry

[...]

     iteration # 20     ecut=    60.00 Ry     beta= 0.50
     Davidson diagonalization with overlap
     c_bands:  1 eigenvalues not converged
     c_bands:  1 eigenvalues not converged
     ethr =  4.88E-07,  avg # of iterations =  7.4

[...]

     iteration # 24     ecut=    60.00 Ry     beta= 0.50
     Davidson diagonalization with overlap
     c_bands:  1 eigenvalues not converged
     ethr =  2.02E-08,  avg # of iterations =  4.8

[...]

     total energy              =   -1842.86025207 Ry
     Harris-Foulkes estimate   =   -1842.86025207 Ry
     estimated scf accuracy    <       0.00000002 Ry

     iteration # 33     ecut=    60.00 Ry     beta= 0.50
     Davidson diagonalization with overlap
     ethr =  8.37E-12,  avg # of iterations =  1.0

[...]

     End of self-consistent calculation

          k = 0.0000 0.0000 0.0000 ( 34267 PWs)   bands (ev):

   -35.5954 -35.5791 -22.7764 -22.7747 -22.5548 -22.4619 -17.0983 -17.0836
   -16.6471 -16.6356 -16.6315 -16.6186 -15.3028 -15.2918 -14.6612 -14.6560
   -14.6365 -14.5760 -14.5631 -14.1656 -14.1639 -13.9768 -13.9694 -13.8374
   -13.8162 -13.7730 -13.0214  -7.9081  -7.9060  -7.8701  -7.8684  -7.7170
    -7.6772  -7.6755  -7.6704  -7.6099  -7.4636  -7.4400  -7.2817  -2.3132
    -2.3124  -1.9047  -1.8201  -1.8175  -1.7900  -1.7792  -1.6666  -1.6555
    -1.5495  -1.5305  -1.4921  -1.4824  -1.2041  -1.2019  -0.8754  -0.6250
    -0.4423  -0.4410  -0.3615  -0.3604  -0.3598  -0.3131  -0.2793  -0.2686
    -0.2680  -0.2520  -0.2485  -0.2473  -0.2461  -0.2335  -0.1682  -0.1423
    -0.0213  -0.0204   0.0881   0.1048   0.1118   0.1139   0.1154   0.1172
     0.1226   0.1430   0.1836   0.1865   0.2683   0.2911   0.3200   0.3371
     0.6869   0.7499   0.8206   0.8977   0.8992   0.9530   0.9909   1.1879
     1.1925   1.3546   1.3626   1.3833   1.3931   1.5056   1.5137   1.5273
     1.5364   1.5507   1.5576   1.8193   1.8332   1.9309   2.0505   2.0547
     2.1692   2.2033   2.2627   2.3289   2.3301   2.5494   2.5590   5.2260
     5.2351   5.6237   6.2011   6.3788   6.7709   6.7798   7.0895   7.1695
     7.9860   8.1029   8.2578   8.3140   8.5380   8.6353   8.6980   9.0900
     9.2524

[...]

          k = 0.3750-0.5279 0.0000 ( 34192 PWs)   bands (ev):

[...]

          k =-0.5000 0.0000 0.0000 ( 34130 PWs)   bands (ev):

[...]

          k =-0.5000-0.5279 0.0000 ( 34236 PWs)   bands (ev):

   -35.5758 -35.5595 -22.5036 -22.5018 -22.2905 -22.2135 -17.0220 -17.0126
   -17.0079 -16.9957 -16.6353 -16.6199 -14.5966 -14.5962 -14.4368 -14.4318
   -14.2640 -14.2507 -14.1177 -14.0988 -14.0961 -14.0743 -14.0391 -14.0368
   -13.9427 -13.9171 -13.1535  -8.7365  -8.7346  -8.5228  -8.4684  -8.4668
    -8.3322  -8.1981  -8.0616  -8.0021  -7.9999  -7.8087  -7.6871  -4.0856
    -4.0701  -3.7764  -3.7277  -3.4328  -3.1453  -3.1434  -2.7200  -2.7185
    -2.5852  -2.5660  -2.2810  -2.2701  -2.2693  -2.2562  -1.9585  -1.9166
    -1.8787  -1.4349  -1.3375  -1.3249  -1.1634  -1.1539  -1.0996  -1.0156
    -1.0079  -0.9665  -0.9648  -0.9171  -0.8965  -0.8294  -0.7901  -0.5749
    -0.3134  -0.3118  -0.2088   0.2432   0.3448   0.4847   0.8269   0.9087
     1.1395   1.3535   1.3590   1.3669   1.3709   1.4063   1.4148   1.4690
     1.5829   1.6310   1.6419   1.6420   1.6592   1.6809   1.8705   1.8875
     1.9097   1.9169   2.0580   2.0619   2.0761   2.1096   2.1924   2.2029
     2.2240   2.3450   2.3554   2.3574   2.4267   2.4356   2.4384   2.5488
     2.5712   2.5990   3.6036   4.7055   4.7151   4.7698   4.7733   5.7090
     5.9878   5.9892   7.0758   7.1359   8.6716   8.9236   9.0481   9.0661
     9.0701   9.1170   9.5102   9.5750   9.6044   9.7462   9.8768   9.9866
    10.0374

     the Fermi energy is     2.5835 ev

!    total energy              =   -1842.86025206 Ry
     Harris-Foulkes estimate   =   -1842.86025207 Ry
     estimated scf accuracy    <          5.1E-09 Ry

     The total energy is the sum of the following terms:

     one-electron contribution =  -29883.79465683 Ry
     hartree contribution      =   15095.32749005 Ry
     xc contribution           =    -621.68296896 Ry
     ewald contribution        =   13567.29932296 Ry
     smearing contrib. (-TS)   =      -0.00943928 Ry

     convergence has been achieved in  33 iterations

     negative rho (up, down):  1.531E-03 0.000E+00

     Forces acting on atoms (cartesian axes, Ry/au):

     atom    1 type  4   force =     0.00000000    0.00000000   -0.00021992
     atom    2 type  3   force =     0.00000000    0.00000000    0.00036157
     atom    3 type  4   force =     0.00000000    0.00000000   -0.00080020
     atom    4 type  1   force =     0.00000000    0.00000000   -0.00037205
     atom    5 type  3   force =     0.00000000    0.00000000    0.00052518
     atom    6 type  4   force =     0.00000000    0.00000000    0.00046767
     atom    7 type  4   force =     0.00000000    0.00000000    0.00075662
     atom    8 type  2   force =     0.00000000    0.00000000   -0.00173562
     atom    9 type  4   force =     0.00000000    0.00000000    0.00178504
     atom   10 type  4   force =     0.00000000    0.00000000    0.00161137
     atom   11 type  3   force =     0.00000000    0.00000000    0.00115602
     atom   12 type  1   force =     0.00000000    0.00000000    0.00635899
     atom   13 type  4   force =     0.00000000    0.00000000   -0.00733301
     atom   14 type  4   force =     0.00000000    0.00000000    0.01862702
     atom   15 type  3   force =     0.00000000    0.00000000    0.03355340
     atom   16 type  4   force =     0.00000000    0.00000000   -0.02968125
     atom   17 type  1   force =     0.00000000    0.00000000   -0.01547807
     atom   18 type  3   force =     0.00000000    0.00000000   -0.01168736
     atom   19 type  4   force =     0.00000000    0.00000000    0.00130597
     atom   20 type  4   force =     0.00000000    0.00000000   -0.00013574
     atom   21 type  2   force =     0.00000000    0.00000000    0.00137231
     atom   22 type  4   force =     0.00000000    0.00000000   -0.00081511
     atom   23 type  4   force =     0.00000000    0.00000000   -0.00011900
     atom   24 type  3   force =     0.00000000    0.00000000   -0.00049360
     atom   25 type  1   force =     0.00000000    0.00000000    0.00034581
     atom   26 type  4   force =     0.00000000    0.00000000    0.00062783
     atom   27 type  3   force =     0.00000000    0.00000000   -0.00009674
     atom   28 type  4   force =     0.00000000    0.00000000    0.00011288

     Total force =     0.053304     Total SCF correction =     0.000298

     Computing stress (Cartesian axis) and pressure

     negative rho (up, down):  1.531E-03 0.000E+00
          total   stress  (Ry/bohr**3)                   (kbar)     P=       -5.59
   0.00000440   0.00000000   0.00000000            0.65        0.00        0.00
   0.00000000  -0.00004417   0.00000000            0.00       -6.50        0.00
   0.00000000   0.00000000  -0.00007413            0.00        0.00      -10.91

     General routines

     Parallel routines

   This run was terminated on:  21:28: 7  21May2021

   JOB DONE.
[1621646887.965230] [holy7c04405:168567:0]          mpool.c:43   UCX  WARN  object 0x450f980 was not returned to mpool ucp_requests
[1621646887.971714] [holy7c04201:95307:0]          mpool.c:43   UCX  WARN  object 0x3a628c0 was not returned to mpool ucp_requests
[1621646887.973127] [holy7c04205:149614:0]          mpool.c:43   UCX  WARN  object 0x2cd86c0 was not returned to mpool ucp_requests
[1621646887.973151] [holy7c04205:149614:0]          mpool.c:43   UCX  WARN  object 0x2cd8880 was not returned to mpool ucp_requests
[1621646887.971743] [holy7c04405:168568:0]          mpool.c:43   UCX  WARN  object 0x3115980 was not returned to mpool ucp_requests
[1621646887.971759] [holy7c04405:168568:0]          mpool.c:43   UCX  WARN  object 0x3115d00 was not returned to mpool ucp_requests
[1621646887.973175] [holy7c04405:168566:0]          mpool.c:43   UCX  WARN  object 0x36df140 was not returned to mpool ucp_requests
[1621646887.973189] [holy7c04405:168566:0]          mpool.c:43   UCX  WARN  object 0x36df840 was not returned to mpool ucp_requests
[1621646887.971613] [holy7c04104:156362:0]          mpool.c:43   UCX  WARN  object 0x2b72a00 was not returned to mpool ucp_requests
[1621646887.974492] [holy7c04201:95306:0]          mpool.c:43   UCX  WARN  object 0x2de06c0 was not returned to mpool ucp_requests