     Program PWSCF v.6.5 starts on 21May2021 at 21:31:55

     R & G space division:  proc/nbgrp/npool/nimage =      20
     Reading input from CBCO_Y_cleave_0.5_sep.pwi
Warning: card &IONS ignored
Warning: card     ION_DYNAMICS = 'BFGS' ignored
Warning: card / ignored
Warning: card &CELL ignored
Warning: card     CELL_DYNAMICS = 'BFGS' ignored
Warning: card     PRESS_CONV_THR = 5 ignored
Warning: card / ignored

     Current dimensions of program PWSCF are:
     Max number of different atomic species (ntypx) = 10
     Max number of k-points (npk) =  40000
     Max angular momentum in pseudopotentials (lmaxx) =  3

     Message from routine setup:
     using ibrav=0 with symmetry is DISCOURAGED, use correct ibrav instead

     bravais-lattice index     =            0
     lattice parameter (alat)  =       7.4270  a.u.
     unit-cell volume          =    4351.6708 (a.u.)^3
     number of atoms/cell      =           28
     number of atomic types    =            4
     number of electrons       =       227.00
     number of Kohn-Sham states=          137
     kinetic-energy cutoff     =      60.0000  Ry
     charge density cutoff     =     720.0000  Ry
     convergence threshold     =      1.0E-08
     mixing beta               =       0.5000
     number of iterations used =           10  local-TF  mixing
     Exchange-correlation= SLA PW PBE PBE
                           (   1   4   3   4   0   0   0)

     celldm(1)=   7.427040  celldm(2)=   0.000000  celldm(3)=   0.000000
     celldm(4)=   0.000000  celldm(5)=   0.000000  celldm(6)=   0.000000

     crystal axes: (cart. coord. in units of alat)
               a(1) = (   1.000000   0.000000   0.000000 )
               a(2) = (   0.000000   0.947081   0.000000 )
               a(3) = (   0.000000   0.000000  11.215576 )

     reciprocal axes: (cart. coord. in units 2 pi/alat)
               b(1) = (  1.000000  0.000000  0.000000 )
               b(2) = (  0.000000  1.055876  0.000000 )
               b(3) = (  0.000000  0.000000  0.089162 )

     PseudoPot. # 1 for Ba read from file:
     ./pseudo/Ba.pbe-nsp-van.UPF
     MD5 check sum: 2b9c31dd849566dd297d80989662b7a0
     Pseudo is Ultrasoft + core correction, Zval = 10.0
     Generated by new atomic code, or converted to UPF format
     Using radial grid of  907 points,  6 beta functions with:
                l(1) =   0
                l(2) =   0
                l(3) =   1
                l(4) =   1
                l(5) =   2
                l(6) =   2
     Q(r) pseudized with  6 coefficients,  rinner =    1.200   1.200   1.200
                                                       1.200   1.200

     PseudoPot. # 2 for Ca read from file:
     ./pseudo/Ca.pbe-nsp-van.UPF
     MD5 check sum: 6471098428ff4fa451746d08035ff179
     Pseudo is Ultrasoft + core correction, Zval = 10.0
     Generated by new atomic code, or converted to UPF format
     Using radial grid of  845 points,  6 beta functions with:
                l(1) =   0
                l(2) =   0
                l(3) =   1
                l(4) =   1
                l(5) =   2
                l(6) =   2
     Q(r) pseudized with  6 coefficients,  rinner =    1.200   1.200   1.200
                                                       1.200   1.200

     PseudoPot. # 3 for Cu read from file:
     ./pseudo/Cu.pbe-n-van_ak.UPF
     MD5 check sum: 34e3282627ffb533726feb647e090d62
     Pseudo is Ultrasoft + core correction, Zval = 11.0
     Generated by new atomic code, or converted to UPF format
     Using radial grid of  867 points,  6 beta functions with:
                l(1) =   0
                l(2) =   0
                l(3) =   1
                l(4) =   1
                l(5) =   2
                l(6) =   2
     Q(r) pseudized with  8 coefficients,  rinner =    1.400   1.400   1.400
                                                       1.400   1.400

     PseudoPot. # 4 for O  read from file:
     ./pseudo/O.pbe-van_ak.UPF
     MD5 check sum: 783ce7fe4c79b6a4916957118fed0856
     Pseudo is Ultrasoft, Zval =  6.0
     Generated by new atomic code, or converted to UPF format
     Using radial grid of  737 points,  4 beta functions with:
                l(1) =   0
                l(2) =   0
                l(3) =   1
                l(4) =   1
     Q(r) pseudized with  8 coefficients,  rinner =    0.800   0.800   0.800

     atomic species   valence    mass     pseudopotential
        Ba            10.00   137.32700     Ba( 1.00)
        Ca            10.00    40.07800     Ca( 1.00)
        Cu            11.00    63.54600     Cu( 1.00)
        O              6.00    15.99900     O ( 1.00)

      4 Sym. Ops. (no inversion) found

   Cartesian axes

     site n.     atom                  positions (alat units)
         1           O   tau(   1) = (   0.0000000   0.4735409  -0.0469745  )
         2           Cu  tau(   2) = (   0.0000000   0.0000000   0.0264565  )
         3           O   tau(   3) = (   0.0000000   0.0000000   0.5030914  )
         4           Ba  tau(   4) = (   0.5000000   0.4735409   0.5690292  )
         5           Cu  tau(   5) = (   0.0000000   0.0000000   1.0374254  )
         6           O   tau(   6) = (   0.5000000   0.0000000   1.0768099  )
         7           O   tau(   7) = (   0.0000000   0.4735409   1.1116985  )
         8           Ca  tau(   8) = (   0.5000000   0.4735409   1.4976260  )
         9           O   tau(   9) = (   0.0000000   0.4735409   1.8667529  )
        10           O   tau(  10) = (   0.5000000   0.0000000   1.9044124  )
        11           Cu  tau(  11) = (   0.0000000   0.0000000   1.9512546  )
        12           Ba  tau(  12) = (   0.5000000   0.4735409   2.4295764  )
        13           O   tau(  13) = (   0.0000000   0.0000000   2.5115362  )
        14           O   tau(  14) = (   0.0000000   0.4735409   2.9918528  )
        15           Cu  tau(  15) = (   0.0000000   0.0000000   2.9919088  )
        16           O   tau(  16) = (   0.0000000   0.0000000   3.4722686  )
        17           Ba  tau(  17) = (   0.5000000   0.4735409   3.5542208  )
        18           Cu  tau(  18) = (   0.0000000   0.0000000   4.0325248  )
        19           O   tau(  19) = (   0.5000000   0.0000000   4.0793669  )
        20           O   tau(  20) = (   0.0000000   0.4735409   4.1170213  )
        21           Ca  tau(  21) = (   0.5000000   0.4735409   4.4861584  )
        22           O   tau(  22) = (   0.0000000   0.4735409   4.9993027  )
        23           O   tau(  23) = (   0.5000000   0.0000000   5.0341913  )
        24           Cu  tau(  24) = (   0.0000000   0.0000000   5.0735784  )
        25           Ba  tau(  25) = (   0.5000000   0.4735409   5.5419720  )
        26           O   tau(  26) = (   0.0000000   0.0000000   5.6078996  )
        27           Cu  tau(  27) = (   0.0000000   0.0000000   6.0845396  )
        28           O   tau(  28) = (   0.0000000   0.4735409   6.1579579  )

     number of k points=    25  Gaussian smearing, width (Ry)=  0.0100
                       cart. coord. in units 2pi/alat
        k(    1) = (   0.0000000   0.0000000   0.0000000), wk =   0.0312500
        k(    2) = (   0.0000000   0.1319845   0.0000000), wk =   0.0625000
        k(    3) = (   0.0000000   0.2639689   0.0000000), wk =   0.0625000
        k(    4) = (   0.0000000   0.3959534   0.0000000), wk =   0.0625000
        k(    5) = (   0.0000000  -0.5279378   0.0000000), wk =   0.0312500
        k(    6) = (   0.1250000   0.0000000   0.0000000), wk =   0.0625000
        k(    7) = (   0.1250000   0.1319845   0.0000000), wk =   0.1250000
        k(    8) = (   0.1250000   0.2639689   0.0000000), wk =   0.1250000
        k(    9) = (   0.1250000   0.3959534   0.0000000), wk =   0.1250000
        k(   10) = (   0.1250000  -0.5279378   0.0000000), wk =   0.0625000
        k(   11) = (   0.2500000   0.0000000   0.0000000), wk =   0.0625000
        k(   12) = (   0.2500000   0.1319845   0.0000000), wk =   0.1250000
        k(   13) = (   0.2500000   0.2639689   0.0000000), wk =   0.1250000
        k(   14) = (   0.2500000   0.3959534   0.0000000), wk =   0.1250000
        k(   15) = (   0.2500000  -0.5279378   0.0000000), wk =   0.0625000
        k(   16) = (   0.3750000   0.0000000   0.0000000), wk =   0.0625000
        k(   17) = (   0.3750000   0.1319845   0.0000000), wk =   0.1250000
        k(   18) = (   0.3750000   0.2639689   0.0000000), wk =   0.1250000
        k(   19) = (   0.3750000   0.3959534   0.0000000), wk =   0.1250000
        k(   20) = (   0.3750000  -0.5279378   0.0000000), wk =   0.0625000
        k(   21) = (  -0.5000000   0.0000000   0.0000000), wk =   0.0312500
        k(   22) = (  -0.5000000   0.1319845   0.0000000), wk =   0.0625000
        k(   23) = (  -0.5000000   0.2639689   0.0000000), wk =   0.0625000
        k(   24) = (  -0.5000000   0.3959534   0.0000000), wk =   0.0625000
        k(   25) = (  -0.5000000  -0.5279378   0.0000000), wk =   0.0312500

     Initial potential from superposition of free atoms

     starting charge  226.84630, renormalised to  227.00000

     negative rho (up, down):  3.441E-03 0.000E+00
     Starting wfcs are  195 randomized atomic wfcs

     Self-consistent Calculation

     iteration #  1     ecut=    60.00 Ry     beta= 0.50
     Davidson diagonalization with overlap
     ethr =  1.00E-02,  avg # of iterations =  2.0

     negative rho (up, down):  5.009E-04 0.000E+00

     total energy              =   -1840.99894836 Ry
     Harris-Foulkes estimate   =   -1845.31950882 Ry
     estimated scf accuracy    <      17.97045784 Ry

[...]

     iteration # 10     ecut=    60.00 Ry     beta= 0.50
     Davidson diagonalization with overlap
     c_bands:  1 eigenvalues not converged
     c_bands:  1 eigenvalues not converged
     ethr =  4.61E-05,  avg # of iterations =  6.0

[...]

     iteration # 21     ecut=    60.00 Ry     beta= 0.50
     Davidson diagonalization with overlap
     c_bands:  1 eigenvalues not converged
     c_bands:  1 eigenvalues not converged
     c_bands:  1 eigenvalues not converged
     ethr =  1.34E-07,  avg # of iterations =  8.7

[...]

     total energy              =   -1842.86578964 Ry
     Harris-Foulkes estimate   =   -1842.86578964 Ry
     estimated scf accuracy    <       0.00000001 Ry

     iteration # 33     ecut=    60.00 Ry     beta= 0.50
     Davidson diagonalization with overlap
     ethr =  4.89E-12,  avg # of iterations =  1.8

[...]

     End of self-consistent calculation

          k = 0.0000 0.0000 0.0000 ( 34267 PWs)   bands (ev):

   -36.6663 -35.5200 -22.7249 -22.6588 -22.5612 -22.4626 -17.8138 -17.6862
   -17.6772 -17.0245 -16.5712 -16.5598 -15.2352 -15.1872 -14.9317 -14.7800
   -14.6051 -14.5868 -14.5057 -14.1151 -14.1148 -14.0190 -13.9157 -13.7571
   -13.7200 -13.6803 -13.5664  -7.8562  -7.8187  -7.7621  -7.7621  -7.7492
    -7.6433  -7.6257  -7.6019  -7.5675  -7.5061  -7.4373  -7.3412  -2.2636
    -2.2558  -2.1962  -1.8750  -1.7636  -1.7244  -1.7001  -1.6093  -1.6018
    -1.4723  -1.4168  -1.3658  -1.3429  -1.1544  -1.1539  -1.0065  -0.9774
    -0.7783  -0.5347  -0.5192  -0.3922  -0.3845  -0.3103  -0.2829  -0.2425
    -0.1983  -0.1860  -0.1846  -0.1790  -0.1726  -0.1613  -0.1418  -0.1081
    -0.0875  -0.0203   0.0291   0.0430   0.1640   0.1651   0.1654   0.1987
     0.2090   0.2398   0.2401   0.2460   0.3034   0.3376   0.3760   0.3904
     0.4823   0.8503   0.8680   0.9482   0.9622   1.0237   1.0496   1.2488
     1.2786   1.3340   1.3749   1.4179   1.4431   1.4693   1.5599   1.5918
     1.5921   1.6030   1.6288   1.8158   1.9006   2.0137   2.1026   2.1857
     2.2063   2.2390   2.2559   2.3389   2.3516   2.5893   2.6026   5.2043
     5.2829   5.5597   6.0337   6.4369   6.8291   6.8479   7.1373   7.3360
     8.0118   8.0813   8.2316   8.3693   8.5543   8.6088   8.6550   8.7764
     8.9340

[...]

          k = 0.3750-0.5279 0.0000 ( 34192 PWs)   bands (ev):

[...]

          k =-0.5000 0.0000 0.0000 ( 34130 PWs)   bands (ev):

[...]

          k =-0.5000-0.5279 0.0000 ( 34236 PWs)   bands (ev):

   -36.6501 -35.5003 -22.4520 -22.3852 -22.2986 -22.2005 -17.9136 -17.8722
   -17.5929 -16.9463 -16.9371 -16.5607 -14.5473 -14.5419 -14.4145 -14.3723
   -14.2675 -14.2484 -14.1999 -14.1998 -14.0345 -14.0288 -13.9877 -13.9876
   -13.9756 -13.8665 -13.7901  -8.6849  -8.6292  -8.5215  -8.4219  -8.4169
    -8.3651  -8.2400  -8.0198  -7.9507  -7.8993  -7.8422  -7.6698  -4.0236
    -3.9604  -3.7587  -3.6977  -3.5298  -3.0950  -3.0935  -2.6684  -2.6188
    -2.5789  -2.5020  -2.2442  -2.2203  -2.2070  -2.1875  -2.1543  -1.9544
    -1.8775  -1.6459  -1.2830  -1.2603  -1.1759  -1.1049  -1.0756  -0.9604
    -0.9564  -0.9162  -0.9135  -0.9133  -0.8950  -0.8705  -0.8164  -0.7333
    -0.4841  -0.2635  -0.2592   0.3041   0.4024   0.4525   0.8294   0.9607
     1.1361   1.2743   1.4121   1.4291   1.4423   1.4456   1.4505   1.4685
     1.5048   1.6045   1.6231   1.6639   1.7013   1.7326   1.8895   1.9149
     1.9531   1.9942   2.0139   2.0531   2.1207   2.1259   2.1384   2.1899
     2.2253   2.2710   2.4050   2.4065   2.4499   2.4960   2.6065   2.6145
     2.6171   2.6998   4.2710   4.7306   4.7820   4.8324   4.8482   5.5190
     6.0384   6.0429   6.4387   7.1874   8.6911   8.7667   8.9983   9.0800
     9.0940   9.1625   9.1715   9.2994   9.4344   9.6369   9.6556   9.8610
    10.0522

     the Fermi energy is     2.6336 ev

!    total energy              =   -1842.86578963 Ry
     Harris-Foulkes estimate   =   -1842.86578964 Ry
     estimated scf accuracy    <          4.8E-09 Ry

     The total energy is the sum of the following terms:

     one-electron contribution =  -30459.09024139 Ry
     hartree contribution      =   15382.83268858 Ry
     xc contribution           =    -621.68863733 Ry
     ewald contribution        =   13855.08869034 Ry
     smearing contrib. (-TS)   =      -0.00828984 Ry

     convergence has been achieved in  33 iterations

     negative rho (up, down):  1.506E-03 0.000E+00

     Forces acting on atoms (cartesian axes, Ry/au):

     atom    1 type  4   force =     0.00000000    0.00000000   -0.00016440
     atom    2 type  3   force =     0.00000000    0.00000000    0.00028877
     atom    3 type  4   force =     0.00000000    0.00000000   -0.00077539
     atom    4 type  1   force =     0.00000000    0.00000000   -0.00028753
     atom    5 type  3   force =     0.00000000    0.00000000    0.00047517
     atom    6 type  4   force =     0.00000000    0.00000000   -0.00002209
     atom    7 type  4   force =     0.00000000    0.00000000    0.00033275
     atom    8 type  2   force =     0.00000000    0.00000000   -0.00058577
     atom    9 type  4   force =     0.00000000    0.00000000    0.00021382
     atom   10 type  4   force =     0.00000000    0.00000000    0.00020006
     atom   11 type  3   force =     0.00000000    0.00000000    0.00023447
     atom   12 type  1   force =     0.00000000    0.00000000    0.00019691
     atom   13 type  4   force =     0.00000000    0.00000000    0.00170388
     atom   14 type  4   force =     0.00000000    0.00000000    0.00109052
     atom   15 type  3   force =     0.00000000    0.00000000   -0.00161718
     atom   16 type  4   force =     0.00000000    0.00000000    0.00005281
     atom   17 type  1   force =     0.00000000    0.00000000   -0.00609441
     atom   18 type  3   force =     0.00000000    0.00000000    0.00083982
     atom   19 type  4   force =     0.00000000    0.00000000    0.02239767
     atom   20 type  4   force =     0.00000000    0.00000000    0.02540130
     atom   21 type  2   force =     0.00000000    0.00000000    0.01976692
     atom   22 type  4   force =     0.00000000    0.00000000   -0.02233474
     atom   23 type  4   force =     0.00000000    0.00000000   -0.01919832
     atom   24 type  3   force =     0.00000000    0.00000000   -0.01010562
     atom   25 type  1   force =     0.00000000    0.00000000   -0.01229018
     atom   26 type  4   force =     0.00000000    0.00000000    0.00054747
     atom   27 type  3   force =     0.00000000    0.00000000   -0.00036836
     atom   28 type  4   force =     0.00000000    0.00000000    0.00010164

     Total force =     0.052008     Total SCF correction =     0.000367

     Computing stress (Cartesian axis) and pressure

     negative rho (up, down):  1.506E-03 0.000E+00
          total   stress  (Ry/bohr**3)                   (kbar)     P=       -5.37
  -0.00001108   0.00000000   0.00000000           -1.63        0.00        0.00
   0.00000000  -0.00000163   0.00000000            0.00       -0.24        0.00
   0.00000000   0.00000000  -0.00009676            0.00        0.00      -14.23

     General routines

     Parallel routines

   This run was terminated on:  21:43:47  21May2021

   JOB DONE.
[1621647827.150364] [holy7c06108:16784:0]          mpool.c:43   UCX  WARN  object 0x3547ec0 was not returned to mpool ucp_requests
[1621647827.156950] [holy7c06601:40815:0]          mpool.c:43   UCX  WARN  object 0x478bc40 was not returned to mpool ucp_requests
[1621647827.156971] [holy7c06601:40815:0]          mpool.c:43   UCX  WARN  object 0x478bfc0 was not returned to mpool ucp_requests
[1621647827.153358] [holy7c06412:39877:0]          mpool.c:43   UCX  WARN  object 0x3d26c40 was not returned to mpool ucp_requests
[1621647827.159372] [holy7c06501:259711:0]          mpool.c:43   UCX  WARN  object 0x2ee2580 was not returned to mpool ucp_requests
[1621647827.159390] [holy7c06501:259711:0]          mpool.c:43   UCX  WARN  object 0x2ee2900 was not returned to mpool ucp_requests
[1621647827.159287] [holy7c06501:259712:0]          mpool.c:43   UCX  WARN  object 0x2a1ad40 was not returned to mpool ucp_requests
[1621647827.168399] [holy7c04311:275828:0]          mpool.c:43   UCX  WARN  object 0x3d38280 was not returned to mpool ucp_requests
[1621647827.168428] [holy7c04311:275828:0]          mpool.c:43   UCX  WARN  object 0x3d38980 was not returned to mpool ucp_requests
[1621647827.184594] [holy7c06302:225187:0]          mpool.c:43   UCX  WARN  object 0x3e881c0 was not returned to mpool ucp_requests
[1621647827.184614] [holy7c06302:225187:0]          mpool.c:43   UCX  WARN  object 0x3e88700 was not returned to mpool ucp_requests