     Program PWSCF v.6.5 starts on 21May2021 at 21:19:27

     R & G space division:  proc/nbgrp/npool/nimage =      20
     Reading input from CBCO_CuO_cleave_2.5_sep.pwi
Warning: card &IONS ignored
Warning: card     ION_DYNAMICS = 'BFGS' ignored
Warning: card / ignored
Warning: card &CELL ignored
Warning: card     CELL_DYNAMICS = 'BFGS' ignored
Warning: card     PRESS_CONV_THR = 5 ignored
Warning: card / ignored

     Current dimensions of program PWSCF are:
     Max number of different atomic species (ntypx) = 10
     Max number of k-points (npk) =  40000
     Max angular momentum in pseudopotentials (lmaxx) =  3

     Message from routine setup:
     using ibrav=0 with symmetry is DISCOURAGED, use correct ibrav instead

     bravais-lattice index     =            0
     lattice parameter (alat)  =       7.4270  a.u.
     unit-cell volume          =    4549.1164 (a.u.)^3
     number of atoms/cell      =           28
     number of atomic types    =            4
     number of electrons       =       227.00
     number of Kohn-Sham states=          137
     kinetic-energy cutoff     =      60.0000  Ry
     charge density cutoff     =     720.0000  Ry
     convergence threshold     =      1.0E-08
     mixing beta               =       0.5000
     number of iterations used =           10  local-TF  mixing
     Exchange-correlation= SLA PW PBE PBE
                           (   1   4   3   4   0   0   0)

     celldm(1)=   7.427040  celldm(2)=   0.000000  celldm(3)=   0.000000
     celldm(4)=   0.000000  celldm(5)=   0.000000  celldm(6)=   0.000000

     crystal axes: (cart. coord. in units of alat)
               a(1) = (   1.000000   0.000000   0.000000 )
               a(2) = (   0.000000   0.947081   0.000000 )
               a(3) = (   0.000000   0.000000  11.724453 )

     reciprocal axes: (cart. coord. in units 2 pi/alat)
               b(1) = (  1.000000  0.000000  0.000000 )
               b(2) = (  0.000000  1.055876  0.000000 )
               b(3) = (  0.000000  0.000000  0.085292 )

     PseudoPot. # 1 for Ba read from file:
     ./pseudo/Ba.pbe-nsp-van.UPF
     MD5 check sum: 2b9c31dd849566dd297d80989662b7a0
     Pseudo is Ultrasoft + core correction, Zval = 10.0
     Generated by new atomic code, or converted to UPF format
     Using radial grid of  907 points,  6 beta functions with:
                l(1) =   0
                l(2) =   0
                l(3) =   1
                l(4) =   1
                l(5) =   2
                l(6) =   2
     Q(r) pseudized with  6 coefficients,  rinner =    1.200   1.200   1.200
                                                       1.200   1.200

     PseudoPot. # 2 for Ca read from file:
     ./pseudo/Ca.pbe-nsp-van.UPF
     MD5 check sum: 6471098428ff4fa451746d08035ff179
     Pseudo is Ultrasoft + core correction, Zval = 10.0
     Generated by new atomic code, or converted to UPF format
     Using radial grid of  845 points,  6 beta functions with:
                l(1) =   0
                l(2) =   0
                l(3) =   1
                l(4) =   1
                l(5) =   2
                l(6) =   2
     Q(r) pseudized with  6 coefficients,  rinner =    1.200   1.200   1.200
                                                       1.200   1.200

     PseudoPot. # 3 for Cu read from file:
     ./pseudo/Cu.pbe-n-van_ak.UPF
     MD5 check sum: 34e3282627ffb533726feb647e090d62
     Pseudo is Ultrasoft + core correction, Zval = 11.0
     Generated by new atomic code, or converted to UPF format
     Using radial grid of  867 points,  6 beta functions with:
                l(1) =   0
                l(2) =   0
                l(3) =   1
                l(4) =   1
                l(5) =   2
                l(6) =   2
     Q(r) pseudized with  8 coefficients,  rinner =    1.400   1.400   1.400
                                                       1.400   1.400

     PseudoPot. # 4 for O  read from file:
     ./pseudo/O.pbe-van_ak.UPF
     MD5 check sum: 783ce7fe4c79b6a4916957118fed0856
     Pseudo is Ultrasoft, Zval =  6.0
     Generated by new atomic code, or converted to UPF format
     Using radial grid of  737 points,  4 beta functions with:
                l(1) =   0
                l(2) =   0
                l(3) =   1
                l(4) =   1
     Q(r) pseudized with  8 coefficients,  rinner =    0.800   0.800   0.800

     atomic species   valence    mass     pseudopotential
        Ba            10.00   137.32700     Ba( 1.00)
        Ca            10.00    40.07800     Ca( 1.00)
        Cu            11.00    63.54600     Cu( 1.00)
        O              6.00    15.99900     O ( 1.00)

      4 Sym. Ops. (no inversion) found

   Cartesian axes

     site n.     atom                  positions (alat units)
         1           O   tau(   1) = (   0.0000000   0.4735409  -0.0469745  )
         2           Cu  tau(   2) = (   0.0000000   0.0000000   0.0264565  )
         3           O   tau(   3) = (   0.0000000   0.0000000   0.5030914  )
         4           Ba  tau(   4) = (   0.5000000   0.4735409   0.5690292  )
         5           Cu  tau(   5) = (   0.0000000   0.0000000   1.0374254  )
         6           O   tau(   6) = (   0.5000000   0.0000000   1.0768099  )
         7           O   tau(   7) = (   0.0000000   0.4735409   1.1116985  )
         8           Ca  tau(   8) = (   0.5000000   0.4735409   1.4976260  )
         9           O   tau(   9) = (   0.0000000   0.4735409   1.8667529  )
        10           O   tau(  10) = (   0.5000000   0.0000000   1.9044124  )
        11           Cu  tau(  11) = (   0.0000000   0.0000000   1.9512546  )
        12           Ba  tau(  12) = (   0.5000000   0.4735409   2.4295764  )
        13           O   tau(  13) = (   0.0000000   0.0000000   2.5115362  )
        14           O   tau(  14) = (   0.0000000   0.4735409   2.9918528  )
        15           Cu  tau(  15) = (   0.0000000   0.0000000   2.9919088  )
        16           O   tau(  16) = (   0.0000000   0.0000000   4.1083653  )
        17           Ba  tau(  17) = (   0.5000000   0.4735409   4.1903175  )
        18           Cu  tau(  18) = (   0.0000000   0.0000000   4.6686215  )
        19           O   tau(  19) = (   0.5000000   0.0000000   4.7154636  )
        20           O   tau(  20) = (   0.0000000   0.4735409   4.7531180  )
        21           Ca  tau(  21) = (   0.5000000   0.4735409   5.1222551  )
        22           O   tau(  22) = (   0.0000000   0.4735409   5.5081800  )
        23           O   tau(  23) = (   0.5000000   0.0000000   5.5430687  )
        24           Cu  tau(  24) = (   0.0000000   0.0000000   5.5824558  )
        25           Ba  tau(  25) = (   0.5000000   0.4735409   6.0508494  )
        26           O   tau(  26) = (   0.0000000   0.0000000   6.1167770  )
        27           Cu  tau(  27) = (   0.0000000   0.0000000   6.5934170  )
        28           O   tau(  28) = (   0.0000000   0.4735409   6.6668352  )

     number of k points=    25  Gaussian smearing, width (Ry)=  0.0100
                       cart. coord. in units 2pi/alat
        k(    1) = (   0.0000000   0.0000000   0.0000000), wk =   0.0312500
        k(    2) = (   0.0000000   0.1319845   0.0000000), wk =   0.0625000
        k(    3) = (   0.0000000   0.2639689   0.0000000), wk =   0.0625000
        k(    4) = (   0.0000000   0.3959534   0.0000000), wk =   0.0625000
        k(    5) = (   0.0000000  -0.5279378   0.0000000), wk =   0.0312500
        k(    6) = (   0.1250000   0.0000000   0.0000000), wk =   0.0625000
        k(    7) = (   0.1250000   0.1319845   0.0000000), wk =   0.1250000
        k(    8) = (   0.1250000   0.2639689   0.0000000), wk =   0.1250000
        k(    9) = (   0.1250000   0.3959534   0.0000000), wk =   0.1250000
        k(   10) = (   0.1250000  -0.5279378   0.0000000), wk =   0.0625000
        k(   11) = (   0.2500000   0.0000000   0.0000000), wk =   0.0625000
        k(   12) = (   0.2500000   0.1319845   0.0000000), wk =   0.1250000
        k(   13) = (   0.2500000   0.2639689   0.0000000), wk =   0.1250000
        k(   14) = (   0.2500000   0.3959534   0.0000000), wk =   0.1250000
        k(   15) = (   0.2500000  -0.5279378   0.0000000), wk =   0.0625000
        k(   16) = (   0.3750000   0.0000000   0.0000000), wk =   0.0625000
        k(   17) = (   0.3750000   0.1319845   0.0000000), wk =   0.1250000
        k(   18) = (   0.3750000   0.2639689   0.0000000), wk =   0.1250000
        k(   19) = (   0.3750000   0.3959534   0.0000000), wk =   0.1250000
        k(   20) = (   0.3750000  -0.5279378   0.0000000), wk =   0.0625000
        k(   21) = (  -0.5000000   0.0000000   0.0000000), wk =   0.0312500
        k(   22) = (  -0.5000000   0.1319845   0.0000000), wk =   0.0625000
        k(   23) = (  -0.5000000   0.2639689   0.0000000), wk =   0.0625000
        k(   24) = (  -0.5000000   0.3959534   0.0000000), wk =   0.0625000
        k(   25) = (  -0.5000000  -0.5279378   0.0000000), wk =   0.0312500

     Initial potential from superposition of free atoms

     starting charge  226.84630, renormalised to  227.00000

     negative rho (up, down):  3.508E-03 0.000E+00
     Starting wfcs are  195 randomized atomic wfcs

     Self-consistent Calculation

     iteration #  1     ecut=    60.00 Ry     beta= 0.50
     Davidson diagonalization with overlap
     ethr =  1.00E-02,  avg # of iterations =  2.0

     negative rho (up, down):  5.042E-04 0.000E+00

     total energy              =   -1840.73016099 Ry
     Harris-Foulkes estimate   =   -1845.35794866 Ry
     estimated scf accuracy    <      19.23476534 Ry

[...]

     iteration # 20     ecut=    60.00 Ry     beta= 0.50
     Davidson diagonalization with overlap
     c_bands:  1 eigenvalues not converged
     ethr =  1.19E-06,  avg # of iterations =  6.3

[...]

     iteration # 24     ecut=    60.00 Ry     beta= 0.50
     Davidson diagonalization with overlap
     c_bands:  1 eigenvalues not converged
     c_bands:  1 eigenvalues not converged
     ethr =  5.14E-08,  avg # of iterations =  5.4

[...]

     total energy              =   -1842.78761146 Ry
     Harris-Foulkes estimate   =   -1842.78761147 Ry
     estimated scf accuracy    <       0.00000007 Ry

     iteration # 34     ecut=    60.00 Ry     beta= 0.50
     Davidson diagonalization with overlap
     ethr =  1.57E-11,  avg # of iterations =  1.0

[...]

     End of self-consistent calculation

          k = 0.0000 0.0000 0.0000 ( 35809 PWs)   bands (ev):

   -35.9375 -35.9128 -23.0950 -23.0916 -22.9462 -22.9086 -17.4382 -17.4189
   -16.9891 -16.9788 -16.9659 -16.9520 -15.6353 -15.6259 -14.9807 -14.9756
   -14.9678 -14.9100 -14.8988 -14.4818 -14.4793 -14.3069 -14.2943 -14.2115
   -14.1714 -14.1552 -12.9966  -8.2275  -8.2244  -8.1884  -8.1853  -8.1438
    -8.0837  -8.0078  -7.9956  -7.9923  -7.8809  -7.8348  -7.6812  -2.6287
    -2.6286  -2.3052  -2.1572  -2.1536  -2.1297  -2.1254  -2.0003  -1.9834
    -1.8876  -1.8675  -1.8348  -1.8248  -1.5193  -1.5154  -1.1768  -0.7583
    -0.7563  -0.6798  -0.6786  -0.6737  -0.6499  -0.6280  -0.6077  -0.5911
    -0.5905  -0.5717  -0.5657  -0.5649  -0.5627  -0.5056  -0.4906  -0.3396
    -0.3360  -0.3156  -0.2400  -0.2218  -0.2114  -0.2047  -0.1995  -0.1968
    -0.1571  -0.1427  -0.1360  -0.1232  -0.0987  -0.0715  -0.0175   0.0310
     0.1861   0.4746   0.5601   0.5811   0.5842   0.6245   0.6626   0.8606
     0.8647   1.0215   1.0447   1.0556   1.0720   1.1531   1.1758   1.1970
     1.2058   1.2237   1.2286   1.4881   1.5170   1.5650   1.7244   1.7393
     1.7772   1.9141   2.0377   2.0467   2.1441   2.2326   2.2449   4.6919
     4.9182   4.9269   5.8192   5.9090   6.4306   6.4518   6.5227   6.7061
     7.3572   7.6667   7.8197   7.8916   8.1167   8.2273   8.2803   8.3729
     8.8001

[...]

          k = 0.3750-0.5279 0.0000 ( 35732 PWs)   bands (ev):

[...]

          k =-0.5000 0.0000 0.0000 ( 35702 PWs)   bands (ev):

[...]

          k =-0.5000-0.5279 0.0000 ( 35804 PWs)   bands (ev):

   -35.9178 -35.8931 -22.8222 -22.8187 -22.6811 -22.6681 -17.3630 -17.3557
   -17.3442 -17.3292 -16.9763 -16.9543 -14.9131 -14.9116 -14.7669 -14.7649
   -14.5977 -14.5872 -14.5736 -14.4470 -14.4447 -14.3714 -14.3558 -14.3509
   -14.2857 -14.2479 -13.1105  -9.0550  -9.0515  -8.9185  -8.7867  -8.7837
    -8.7077  -8.5822  -8.4915  -8.3213  -8.3173  -8.1671  -8.1653  -4.4167
    -4.3937  -4.1170  -4.0640  -3.7017  -3.4609  -3.4572  -3.0404  -3.0334
    -2.9266  -2.9132  -2.6072  -2.5900  -2.5862  -2.5853  -2.2829  -2.2682
    -2.2602  -1.7085  -1.6568  -1.6323  -1.4874  -1.4779  -1.3474  -1.3367
    -1.3291  -1.2821  -1.2791  -1.2711  -1.2628  -1.1933  -1.1389  -0.6285
    -0.6265  -0.6175  -0.5048  -0.0949   0.0551   0.1589   0.5258   0.6377
     0.8169   1.0329   1.0355   1.0377   1.0420   1.0719   1.0799   1.1457
     1.2981   1.3007   1.3010   1.3190   1.3425   1.5386   1.5679   1.5881
     1.6004   1.6735   1.6925   1.7244   1.7640   1.7650   1.8614   1.8694
     2.0380   2.0414   2.0845   2.0960   2.1039   2.1364   2.2217   2.2368
     2.2777   2.2875   2.6366   4.3680   4.3732   4.4413   4.4420   5.6703
     5.6733   5.7266   6.7312   6.7979   8.0378   8.1377   8.6915   8.7239
     8.7373   8.7911   9.0088   9.0788   9.1680   9.1899   9.5253   9.5400
     9.5746

     the Fermi energy is     2.2671 ev

!    total energy              =   -1842.78761145 Ry
     Harris-Foulkes estimate   =   -1842.78761146 Ry
     estimated scf accuracy    <          9.7E-09 Ry

     The total energy is the sum of the following terms:

     one-electron contribution =  -26180.01492631 Ry
     hartree contribution      =   13240.70434958 Ry
     xc contribution           =    -621.62077331 Ry
     ewald contribution        =   11718.15546941 Ry
     smearing contrib. (-TS)   =      -0.01173082 Ry

     convergence has been achieved in  34 iterations

     negative rho (up, down):  1.528E-03 0.000E+00

     Forces acting on atoms (cartesian axes, Ry/au):

     atom    1 type  4   force =     0.00000000    0.00000000   -0.00035365
     atom    2 type  3   force =     0.00000000    0.00000000    0.00049493
     atom    3 type  4   force =     0.00000000    0.00000000   -0.00072065
     atom    4 type  1   force =     0.00000000    0.00000000   -0.00052304
     atom    5 type  3   force =     0.00000000    0.00000000    0.00029842
     atom    6 type  4   force =     0.00000000    0.00000000    0.00093215
     atom    7 type  4   force =     0.00000000    0.00000000    0.00115019
     atom    8 type  2   force =     0.00000000    0.00000000   -0.00278275
     atom    9 type  4   force =     0.00000000    0.00000000    0.00486794
     atom   10 type  4   force =     0.00000000    0.00000000    0.00418330
     atom   11 type  3   force =     0.00000000    0.00000000    0.00129442
     atom   12 type  1   force =     0.00000000    0.00000000    0.00943406
     atom   13 type  4   force =     0.00000000    0.00000000   -0.01981393
     atom   14 type  4   force =     0.00000000    0.00000000    0.03744039
     atom   15 type  3   force =     0.00000000    0.00000000   -0.03354475
     atom   16 type  4   force =     0.00000000    0.00000000    0.02838179
     atom   17 type  1   force =     0.00000000    0.00000000   -0.00735525
     atom   18 type  3   force =     0.00000000    0.00000000   -0.02123027
     atom   19 type  4   force =     0.00000000    0.00000000   -0.00116995
     atom   20 type  4   force =     0.00000000    0.00000000   -0.00196615
     atom   21 type  2   force =     0.00000000    0.00000000    0.00259804
     atom   22 type  4   force =     0.00000000    0.00000000   -0.00176053
     atom   23 type  4   force =     0.00000000    0.00000000   -0.00019539
     atom   24 type  3   force =     0.00000000    0.00000000   -0.00017766
     atom   25 type  1   force =     0.00000000    0.00000000    0.00039034
     atom   26 type  4   force =     0.00000000    0.00000000    0.00026028
     atom   27 type  3   force =     0.00000000    0.00000000   -0.00006561
     atom   28 type  4   force =     0.00000000    0.00000000   -0.00006667

     Total force =     0.066245     Total SCF correction =     0.000455

     Computing stress (Cartesian axis) and pressure

     negative rho (up, down):  1.528E-03 0.000E+00
          total   stress  (Ry/bohr**3)                   (kbar)     P=       -5.51
   0.00000927   0.00000000   0.00000000            1.36        0.00        0.00
   0.00000000  -0.00008645   0.00000000            0.00      -12.72        0.00
   0.00000000   0.00000000  -0.00003508            0.00        0.00       -5.16

     General routines

     Parallel routines

   This run was terminated on:  21:32:40  21May2021

   JOB DONE.
[1621647160.935816] [holy7c10308:104565:0]          mpool.c:43   UCX  WARN  object 0x3103ec0 was not returned to mpool ucp_requests
[1621647160.937123] [holy7c10506:253693:0]          mpool.c:43   UCX  WARN  object 0x471c500 was not returned to mpool ucp_requests
[1621647160.936261] [holy7c08610:43445:0]          mpool.c:43   UCX  WARN  object 0x2a63c80 was not returned to mpool ucp_requests
[1621647160.937397] [holy7c10506:253694:0]          mpool.c:43   UCX  WARN  object 0x39b0d80 was not returned to mpool ucp_requests
[1621647160.938030] [holy7c08610:43444:0]          mpool.c:43   UCX  WARN  object 0x30ca580 was not returned to mpool ucp_requests
[1621647160.947122] [holy7c10301:49388:0]          mpool.c:43   UCX  WARN  object 0x3b58640 was not returned to mpool ucp_requests
[1621647160.947154] [holy7c10301:49388:0]          mpool.c:43   UCX  WARN  object 0x3b58d40 was not returned to mpool ucp_requests
[1621647160.959021] [holy7c10408:198985:0]          mpool.c:43   UCX  WARN  object 0x2bb2ac0 was not returned to mpool ucp_requests
[1621647160.959045] [holy7c10408:198985:0]          mpool.c:43   UCX  WARN  object 0x2bb2c80 was not returned to mpool ucp_requests