     Program PWSCF v.6.5 starts on 21May2021 at 21:21:49

     R & G space division:  proc/nbgrp/npool/nimage =      20
     Reading input from CBCO_CuO_cleave_2.0_sep.pwi
Warning: card &IONS ignored
Warning: card     ION_DYNAMICS = 'BFGS' ignored
Warning: card / ignored
Warning: card &CELL ignored
Warning: card     CELL_DYNAMICS = 'BFGS' ignored
Warning: card     PRESS_CONV_THR = 5 ignored
Warning: card / ignored

     Current dimensions of program PWSCF are:
     Max number of different atomic species (ntypx) = 10
     Max number of k-points (npk) =  40000
     Max angular momentum in pseudopotentials (lmaxx) =  3

     Message from routine setup:
     using ibrav=0 with symmetry is DISCOURAGED, use correct ibrav instead

     bravais-lattice index     =            0
     lattice parameter (alat)  =       7.4270  a.u.
     unit-cell volume          =    4499.7550 (a.u.)^3
     number of atoms/cell      =           28
     number of atomic types    =            4
     number of electrons       =       227.00
     number of Kohn-Sham states=          137
     kinetic-energy cutoff     =      60.0000  Ry
     charge density cutoff     =     720.0000  Ry
     convergence threshold     =      1.0E-08
     mixing beta               =       0.5000
     number of iterations used =           10  local-TF  mixing
     Exchange-correlation= SLA PW PBE PBE
                           (   1   4   3   4   0   0   0)

     celldm(1)=   7.427040  celldm(2)=   0.000000  celldm(3)=   0.000000
     celldm(4)=   0.000000  celldm(5)=   0.000000  celldm(6)=   0.000000

     crystal axes: (cart. coord. in units of alat)
               a(1) = (   1.000000   0.000000   0.000000 )
               a(2) = (   0.000000   0.947081   0.000000 )
               a(3) = (   0.000000   0.000000  11.597234 )

     reciprocal axes: (cart. coord. in units 2 pi/alat)
               b(1) = (  1.000000  0.000000  0.000000 )
               b(2) = (  0.000000  1.055876  0.000000 )
               b(3) = (  0.000000  0.000000  0.086227 )

     PseudoPot. # 1 for Ba read from file:
     ./pseudo/Ba.pbe-nsp-van.UPF
     MD5 check sum: 2b9c31dd849566dd297d80989662b7a0
     Pseudo is Ultrasoft + core correction, Zval = 10.0
     Generated by new atomic code, or converted to UPF format
     Using radial grid of  907 points,  6 beta functions with:
                l(1) =   0
                l(2) =   0
                l(3) =   1
                l(4) =   1
                l(5) =   2
                l(6) =   2
     Q(r) pseudized with  6 coefficients,  rinner =    1.200   1.200   1.200
                                                       1.200   1.200

     PseudoPot. # 2 for Ca read from file:
     ./pseudo/Ca.pbe-nsp-van.UPF
     MD5 check sum: 6471098428ff4fa451746d08035ff179
     Pseudo is Ultrasoft + core correction, Zval = 10.0
     Generated by new atomic code, or converted to UPF format
     Using radial grid of  845 points,  6 beta functions with:
                l(1) =   0
                l(2) =   0
                l(3) =   1
                l(4) =   1
                l(5) =   2
                l(6) =   2
     Q(r) pseudized with  6 coefficients,  rinner =    1.200   1.200   1.200
                                                       1.200   1.200

     PseudoPot. # 3 for Cu read from file:
     ./pseudo/Cu.pbe-n-van_ak.UPF
     MD5 check sum: 34e3282627ffb533726feb647e090d62
     Pseudo is Ultrasoft + core correction, Zval = 11.0
     Generated by new atomic code, or converted to UPF format
     Using radial grid of  867 points,  6 beta functions with:
                l(1) =   0
                l(2) =   0
                l(3) =   1
                l(4) =   1
                l(5) =   2
                l(6) =   2
     Q(r) pseudized with  8 coefficients,  rinner =    1.400   1.400   1.400
                                                       1.400   1.400

     PseudoPot. # 4 for O  read from file:
     ./pseudo/O.pbe-van_ak.UPF
     MD5 check sum: 783ce7fe4c79b6a4916957118fed0856
     Pseudo is Ultrasoft, Zval =  6.0
     Generated by new atomic code, or converted to UPF format
     Using radial grid of  737 points,  4 beta functions with:
                l(1) =   0
                l(2) =   0
                l(3) =   1
                l(4) =   1
     Q(r) pseudized with  8 coefficients,  rinner =    0.800   0.800   0.800

     atomic species   valence    mass     pseudopotential
        Ba            10.00   137.32700     Ba( 1.00)
        Ca            10.00    40.07800     Ca( 1.00)
        Cu            11.00    63.54600     Cu( 1.00)
        O              6.00    15.99900     O ( 1.00)

      4 Sym. Ops. (no inversion) found

   Cartesian axes

     site n.     atom                  positions (alat units)
         1           O   tau(   1) = (   0.0000000   0.4735409  -0.0469745  )
         2           Cu  tau(   2) = (   0.0000000   0.0000000   0.0264565  )
         3           O   tau(   3) = (   0.0000000   0.0000000   0.5030914  )
         4           Ba  tau(   4) = (   0.5000000   0.4735409   0.5690292  )
         5           Cu  tau(   5) = (   0.0000000   0.0000000   1.0374254  )
         6           O   tau(   6) = (   0.5000000   0.0000000   1.0768099  )
         7           O   tau(   7) = (   0.0000000   0.4735409   1.1116985  )
         8           Ca  tau(   8) = (   0.5000000   0.4735409   1.4976260  )
         9           O   tau(   9) = (   0.0000000   0.4735409   1.8667529  )
        10           O   tau(  10) = (   0.5000000   0.0000000   1.9044124  )
        11           Cu  tau(  11) = (   0.0000000   0.0000000   1.9512546  )
        12           Ba  tau(  12) = (   0.5000000   0.4735409   2.4295764  )
        13           O   tau(  13) = (   0.0000000   0.0000000   2.5115362  )
        14           O   tau(  14) = (   0.0000000   0.4735409   2.9918528  )
        15           Cu  tau(  15) = (   0.0000000   0.0000000   2.9919088  )
        16           O   tau(  16) = (   0.0000000   0.0000000   3.9811460  )
        17           Ba  tau(  17) = (   0.5000000   0.4735409   4.0630981  )
        18           Cu  tau(  18) = (   0.0000000   0.0000000   4.5414021  )
        19           O   tau(  19) = (   0.5000000   0.0000000   4.5882443  )
        20           O   tau(  20) = (   0.0000000   0.4735409   4.6258987  )
        21           Ca  tau(  21) = (   0.5000000   0.4735409   4.9950357  )
        22           O   tau(  22) = (   0.0000000   0.4735409   5.3809607  )
        23           O   tau(  23) = (   0.5000000   0.0000000   5.4158493  )
        24           Cu  tau(  24) = (   0.0000000   0.0000000   5.4552364  )
        25           Ba  tau(  25) = (   0.5000000   0.4735409   5.9236300  )
        26           O   tau(  26) = (   0.0000000   0.0000000   5.9895576  )
        27           Cu  tau(  27) = (   0.0000000   0.0000000   6.4661976  )
        28           O   tau(  28) = (   0.0000000   0.4735409   6.5396159  )

     number of k points=    25  Gaussian smearing, width (Ry)=  0.0100
                       cart. coord. in units 2pi/alat
        k(    1) = (   0.0000000   0.0000000   0.0000000), wk =   0.0312500
        k(    2) = (   0.0000000   0.1319845   0.0000000), wk =   0.0625000
        k(    3) = (   0.0000000   0.2639689   0.0000000), wk =   0.0625000
        k(    4) = (   0.0000000   0.3959534   0.0000000), wk =   0.0625000
        k(    5) = (   0.0000000  -0.5279378   0.0000000), wk =   0.0312500
        k(    6) = (   0.1250000   0.0000000   0.0000000), wk =   0.0625000
        k(    7) = (   0.1250000   0.1319845   0.0000000), wk =   0.1250000
        k(    8) = (   0.1250000   0.2639689   0.0000000), wk =   0.1250000
        k(    9) = (   0.1250000   0.3959534   0.0000000), wk =   0.1250000
        k(   10) = (   0.1250000  -0.5279378   0.0000000), wk =   0.0625000
        k(   11) = (   0.2500000   0.0000000   0.0000000), wk =   0.0625000
        k(   12) = (   0.2500000   0.1319845   0.0000000), wk =   0.1250000
        k(   13) = (   0.2500000   0.2639689   0.0000000), wk =   0.1250000
        k(   14) = (   0.2500000   0.3959534   0.0000000), wk =   0.1250000
        k(   15) = (   0.2500000  -0.5279378   0.0000000), wk =   0.0625000
        k(   16) = (   0.3750000   0.0000000   0.0000000), wk =   0.0625000
        k(   17) = (   0.3750000   0.1319845   0.0000000), wk =   0.1250000
        k(   18) = (   0.3750000   0.2639689   0.0000000), wk =   0.1250000
        k(   19) = (   0.3750000   0.3959534   0.0000000), wk =   0.1250000
        k(   20) = (   0.3750000  -0.5279378   0.0000000), wk =   0.0625000
        k(   21) = (  -0.5000000   0.0000000   0.0000000), wk =   0.0312500
        k(   22) = (  -0.5000000   0.1319845   0.0000000), wk =   0.0625000
        k(   23) = (  -0.5000000   0.2639689   0.0000000), wk =   0.0625000
        k(   24) = (  -0.5000000   0.3959534   0.0000000), wk =   0.0625000
        k(   25) = (  -0.5000000  -0.5279378   0.0000000), wk =   0.0312500

     Initial potential from superposition of free atoms

     starting charge  226.84630, renormalised to  227.00000

     negative rho (up, down):  3.449E-03 0.000E+00
     Starting wfcs are  195 randomized atomic wfcs

     Self-consistent Calculation

     iteration #  1     ecut=    60.00 Ry     beta= 0.50
     Davidson diagonalization with overlap
     ethr =  1.00E-02,  avg # of iterations =  2.0

     negative rho (up, down):  4.982E-04 0.000E+00

     total energy              =   -1840.73170208 Ry
     Harris-Foulkes estimate   =   -1845.34813062 Ry
     estimated scf accuracy    <      19.03483928 Ry

[...]

     iteration # 20     ecut=    60.00 Ry     beta= 0.50
     Davidson diagonalization with overlap
     c_bands:  1 eigenvalues not converged
     ethr =  1.17E-06,  avg # of iterations =  7.4

[...]

     iteration # 25     ecut=    60.00 Ry     beta= 0.50
     Davidson diagonalization with overlap
     c_bands:  1 eigenvalues not converged
     ethr =  3.04E-08,  avg # of iterations =  4.2

[...]

     total energy              =   -1842.79116808 Ry
     Harris-Foulkes estimate   =   -1842.79116808 Ry
     estimated scf accuracy    <       0.00000003 Ry

     iteration # 36     ecut=    60.00 Ry     beta= 0.50
     Davidson diagonalization with overlap
     ethr =  1.32E-11,  avg # of iterations =  1.0

[...]

     End of self-consistent calculation

          k = 0.0000 0.0000 0.0000 ( 35431 PWs)   bands (ev):

   -35.8605 -35.8355 -23.0187 -23.0153 -22.8677 -22.8102 -17.3613 -17.3414
   -16.9121 -16.9017 -16.8886 -16.8747 -15.5587 -15.5484 -14.9045 -14.8990
   -14.8904 -14.8334 -14.8214 -14.4057 -14.4031 -14.2303 -14.2175 -14.1320
   -14.0942 -14.0773 -12.9284  -8.1512  -8.1476  -8.1121  -8.1091  -8.0409
    -8.0058  -7.9290  -7.9194  -7.9161  -7.7846  -7.7562  -7.5860  -2.5526
    -2.5523  -2.2235  -2.0790  -2.0768  -2.0531  -2.0488  -1.9236  -1.9064
    -1.8108  -1.7901  -1.7578  -1.7472  -1.4433  -1.4393  -1.1005  -0.6822
    -0.6801  -0.6039  -0.6034  -0.5979  -0.5731  -0.5507  -0.5312  -0.5135
    -0.5132  -0.4950  -0.4888  -0.4866  -0.4865  -0.4310  -0.4143  -0.2634
    -0.2599  -0.2489  -0.1621  -0.1452  -0.1349  -0.1284  -0.1235  -0.1207
    -0.0815  -0.0672  -0.0596  -0.0480  -0.0209   0.0066   0.0592   0.1070
     0.2649   0.5509   0.6318   0.6573   0.6603   0.7010   0.7392   0.9371
     0.9414   1.0985   1.1213   1.1322   1.1486   1.2307   1.2530   1.2739
     1.2836   1.3015   1.3063   1.5653   1.5933   1.6430   1.8013   1.8155
     1.8557   1.9886   2.1116   2.1267   2.2193   2.3087   2.3215   4.8088
     4.9944   5.0067   5.9070   5.9992   6.5153   6.5301   6.6284   6.8017
     7.6846   7.7467   7.9316   7.9758   8.2853   8.3114   8.3639   8.4543
     8.8883

[...]

          k = 0.3750-0.5279 0.0000 ( 35336 PWs)   bands (ev):

[...]

          k =-0.5000 0.0000 0.0000 ( 35302 PWs)   bands (ev):

[...]

          k =-0.5000-0.5279 0.0000 ( 35396 PWs)   bands (ev):

   -35.8408 -35.8158 -22.7459 -22.7424 -22.6026 -22.5692 -17.2861 -17.2786
   -17.2668 -17.2519 -16.8994 -16.8768 -14.8368 -14.8355 -14.6896 -14.6886
   -14.5208 -14.5049 -14.4967 -14.3706 -14.3668 -14.2960 -14.2797 -14.2748
   -14.2086 -14.1702 -13.0426  -8.9788  -8.9752  -8.8397  -8.7104  -8.7074
    -8.6138  -8.5035  -8.3953  -8.2450  -8.2409  -8.0894  -8.0618  -4.3401
    -4.3171  -4.0402  -3.9863  -3.6258  -3.3849  -3.3811  -2.9640  -2.9575
    -2.8499  -2.8357  -2.5308  -2.5122  -2.5101  -2.5090  -2.2065  -2.1868
    -2.1819  -1.6318  -1.5805  -1.5558  -1.4108  -1.4015  -1.2706  -1.2644
    -1.2527  -1.2060  -1.2030  -1.1932  -1.1853  -1.1157  -1.0614  -0.5525
    -0.5503  -0.5464  -0.4261  -0.0172   0.1306   0.2365   0.6023   0.7130
     0.8937   1.1094   1.1127   1.1142   1.1182   1.1488   1.1569   1.2240
     1.3756   1.3772   1.3785   1.3961   1.4199   1.6156   1.6445   1.6646
     1.6767   1.7527   1.7716   1.7817   1.8400   1.8414   1.9379   1.9470
     2.1141   2.1176   2.1603   2.1725   2.1735   2.2085   2.2985   2.3197
     2.3518   2.3612   2.7353   4.4452   4.4499   4.5177   4.5184   5.7457
     5.7495   5.7750   6.8079   6.8741   8.1366   8.2554   8.7637   8.8005
     8.8139   8.8609   9.1030   9.1685   9.2662   9.2769   9.6027   9.6466
     9.7845

     the Fermi energy is     2.3432 ev

!    total energy              =   -1842.79116808 Ry
     Harris-Foulkes estimate   =   -1842.79116808 Ry
     estimated scf accuracy    <          1.7E-09 Ry

     The total energy is the sum of the following terms:

     one-electron contribution =  -27011.08791812 Ry
     hartree contribution      =   13656.88088097 Ry
     xc contribution           =    -621.61959936 Ry
     ewald contribution        =   12133.04714207 Ry
     smearing contrib. (-TS)   =      -0.01167364 Ry

     convergence has been achieved in  36 iterations

     negative rho (up, down):  1.492E-03 0.000E+00

     Forces acting on atoms (cartesian axes, Ry/au):

     atom    1 type  4   force =     0.00000000    0.00000000   -0.00036224
     atom    2 type  3   force =     0.00000000    0.00000000    0.00049190
     atom    3 type  4   force =     0.00000000    0.00000000   -0.00072975
     atom    4 type  1   force =     0.00000000    0.00000000   -0.00053080
     atom    5 type  3   force =     0.00000000    0.00000000    0.00044227
     atom    6 type  4   force =     0.00000000    0.00000000    0.00092510
     atom    7 type  4   force =     0.00000000    0.00000000    0.00114787
     atom    8 type  2   force =     0.00000000    0.00000000   -0.00276810
     atom    9 type  4   force =     0.00000000    0.00000000    0.00468246
     atom   10 type  4   force =     0.00000000    0.00000000    0.00404894
     atom   11 type  3   force =     0.00000000    0.00000000    0.00129661
     atom   12 type  1   force =     0.00000000    0.00000000    0.00930235
     atom   13 type  4   force =     0.00000000    0.00000000   -0.01931872
     atom   14 type  4   force =     0.00000000    0.00000000    0.03724426
     atom   15 type  3   force =     0.00000000    0.00000000   -0.03025373
     atom   16 type  4   force =     0.00000000    0.00000000    0.02699162
     atom   17 type  1   force =     0.00000000    0.00000000   -0.00979467
     atom   18 type  3   force =     0.00000000    0.00000000   -0.02129611
     atom   19 type  4   force =     0.00000000    0.00000000   -0.00076698
     atom   20 type  4   force =     0.00000000    0.00000000   -0.00167234
     atom   21 type  2   force =     0.00000000    0.00000000    0.00251353
     atom   22 type  4   force =     0.00000000    0.00000000   -0.00170528
     atom   23 type  4   force =     0.00000000    0.00000000   -0.00020545
     atom   24 type  3   force =     0.00000000    0.00000000   -0.00025364
     atom   25 type  1   force =     0.00000000    0.00000000    0.00038865
     atom   26 type  4   force =     0.00000000    0.00000000    0.00026118
     atom   27 type  3   force =     0.00000000    0.00000000   -0.00002610
     atom   28 type  4   force =     0.00000000    0.00000000   -0.00005282

     Total force =     0.064065     Total SCF correction =     0.000147

     Computing stress (Cartesian axis) and pressure

     negative rho (up, down):  1.492E-03 0.000E+00
          total   stress  (Ry/bohr**3)                   (kbar)     P=       -5.77
   0.00000808   0.00000000   0.00000000            1.19        0.00        0.00
   0.00000000  -0.00008505   0.00000000            0.00      -12.51        0.00
   0.00000000   0.00000000  -0.00004072            0.00        0.00       -5.99

     General routines

     Parallel routines

   This run was terminated on:  21:32:29  21May2021

   JOB DONE.
[1621647149.736669] [holy7c04210:182895:0]          mpool.c:43   UCX  WARN  object 0x4043d80 was not returned to mpool ucp_requests
[1621647149.745276] [holy7c08606:228570:0]          mpool.c:43   UCX  WARN  object 0x3e17f40 was not returned to mpool ucp_requests
[1621647149.737319] [holy7c04210:182897:0]          mpool.c:43   UCX  WARN  object 0x3b52800 was not returned to mpool ucp_requests
[1621647149.737337] [holy7c04210:182897:0]          mpool.c:43   UCX  WARN  object 0x3b529c0 was not returned to mpool ucp_requests
[1621647149.751456] [holy7c04101:192456:0]          mpool.c:43   UCX  WARN  object 0x46d28c0 was not returned to mpool ucp_requests
[1621647149.744196] [holy7c08606:228569:0]          mpool.c:43   UCX  WARN  object 0x2a33500 was not returned to mpool ucp_requests
[1621647149.741559] [holy7c04104:156673:0]          mpool.c:43   UCX  WARN  object 0x45e35c0 was not returned to mpool ucp_requests
[1621647149.741582] [holy7c04104:156673:0]          mpool.c:43   UCX  WARN  object 0x45e3b00 was not returned to mpool ucp_requests
[1621647149.754135] [holy7c04101:192457:0]          mpool.c:43   UCX  WARN  object 0x3df1740 was not returned to mpool ucp_requests