     Program PWSCF v.6.5 starts on 21May2021 at 23: 5:51

     R & G space division:  proc/nbgrp/npool/nimage =      20
     Reading input from CBCO_BaO_cleave_2.25_sep.pwi
Warning: card &IONS ignored
Warning: card     ION_DYNAMICS = 'BFGS' ignored
Warning: card / ignored
Warning: card &CELL ignored
Warning: card     CELL_DYNAMICS = 'BFGS' ignored
Warning: card     PRESS_CONV_THR = 5 ignored
Warning: card / ignored

     Current dimensions of program PWSCF are:
     Max number of different atomic species (ntypx) = 10
     Max number of k-points (npk) =  40000
     Max angular momentum in pseudopotentials (lmaxx) =  3

     Message from routine setup:
     using ibrav=0 with symmetry is DISCOURAGED, use correct ibrav instead

     bravais-lattice index     =            0
     lattice parameter (alat)  =       7.4270  a.u.
     unit-cell volume          =    4524.4357 (a.u.)^3
     number of atoms/cell      =           28
     number of atomic types    =            4
     number of electrons       =       227.00
     number of Kohn-Sham states=          137
     kinetic-energy cutoff     =      60.0000  Ry
     charge density cutoff     =     720.0000  Ry
     convergence threshold     =      1.0E-08
     mixing beta               =       0.5000
     number of iterations used =           10  local-TF  mixing
     Exchange-correlation= SLA PW PBE PBE
                           (   1   4   3   4   0   0   0)

     celldm(1)=   7.427040  celldm(2)=   0.000000  celldm(3)=   0.000000
     celldm(4)=   0.000000  celldm(5)=   0.000000  celldm(6)=   0.000000

     crystal axes: (cart. coord. in units of alat)
               a(1) = (   1.000000   0.000000   0.000000 )
               a(2) = (   0.000000   0.947081   0.000000 )
               a(3) = (   0.000000   0.000000  11.660844 )

     reciprocal axes: (cart. coord. in units 2 pi/alat)
               b(1) = (  1.000000  0.000000  0.000000 )
               b(2) = (  0.000000  1.055876  0.000000 )
               b(3) = (  0.000000  0.000000  0.085757 )

     PseudoPot. # 1 for Ba read from file:
     ./pseudo/Ba.pbe-nsp-van.UPF
     MD5 check sum: 2b9c31dd849566dd297d80989662b7a0
     Pseudo is Ultrasoft + core correction, Zval = 10.0
     Generated by new atomic code, or converted to UPF format
     Using radial grid of  907 points,  6 beta functions with:
                l(1) =   0
                l(2) =   0
                l(3) =   1
                l(4) =   1
                l(5) =   2
                l(6) =   2
     Q(r) pseudized with  6 coefficients,  rinner =    1.200   1.200   1.200
                                                       1.200   1.200

     PseudoPot. # 2 for Ca read from file:
     ./pseudo/Ca.pbe-nsp-van.UPF
     MD5 check sum: 6471098428ff4fa451746d08035ff179
     Pseudo is Ultrasoft + core correction, Zval = 10.0
     Generated by new atomic code, or converted to UPF format
     Using radial grid of  845 points,  6 beta functions with:
                l(1) =   0
                l(2) =   0
                l(3) =   1
                l(4) =   1
                l(5) =   2
                l(6) =   2
     Q(r) pseudized with  6 coefficients,  rinner =    1.200   1.200   1.200
                                                       1.200   1.200

     PseudoPot. # 3 for Cu read from file:
     ./pseudo/Cu.pbe-n-van_ak.UPF
     MD5 check sum: 34e3282627ffb533726feb647e090d62
     Pseudo is Ultrasoft + core correction, Zval = 11.0
     Generated by new atomic code, or converted to UPF format
     Using radial grid of  867 points,  6 beta functions with:
                l(1) =   0
                l(2) =   0
                l(3) =   1
                l(4) =   1
                l(5) =   2
                l(6) =   2
     Q(r) pseudized with  8 coefficients,  rinner =    1.400   1.400   1.400
                                                       1.400   1.400

     PseudoPot. # 4 for O  read from file:
     ./pseudo/O.pbe-van_ak.UPF
     MD5 check sum: 783ce7fe4c79b6a4916957118fed0856
     Pseudo is Ultrasoft, Zval =  6.0
     Generated by new atomic code, or converted to UPF format
     Using radial grid of  737 points,  4 beta functions with:
                l(1) =   0
                l(2) =   0
                l(3) =   1
                l(4) =   1
     Q(r) pseudized with  8 coefficients,  rinner =    0.800   0.800   0.800

     atomic species   valence    mass     pseudopotential
        Ba            10.00   137.32700     Ba( 1.00)
        Ca            10.00    40.07800     Ca( 1.00)
        Cu            11.00    63.54600     Cu( 1.00)
        O              6.00    15.99900     O ( 1.00)

      4 Sym. Ops. (no inversion) found

   Cartesian axes

     site n.     atom                  positions (alat units)
         1           O   tau(   1) = (   0.0000000   0.4735409  -0.0469745  )
         2           Cu  tau(   2) = (   0.0000000   0.0000000   0.0264565  )
         3           O   tau(   3) = (   0.0000000   0.0000000   0.5030914  )
         4           Ba  tau(   4) = (   0.5000000   0.4735409   0.5690292  )
         5           Cu  tau(   5) = (   0.0000000   0.0000000   1.0374254  )
         6           O   tau(   6) = (   0.5000000   0.0000000   1.0768099  )
         7           O   tau(   7) = (   0.0000000   0.4735409   1.1116985  )
         8           Ca  tau(   8) = (   0.5000000   0.4735409   1.4976260  )
         9           O   tau(   9) = (   0.0000000   0.4735409   1.8667529  )
        10           O   tau(  10) = (   0.5000000   0.0000000   1.9044124  )
        11           Cu  tau(  11) = (   0.0000000   0.0000000   1.9512546  )
        12           Ba  tau(  12) = (   0.5000000   0.4735409   2.4295764  )
        13           O   tau(  13) = (   0.0000000   0.0000000   2.5115362  )
        14           O   tau(  14) = (   0.0000000   0.4735409   2.9918528  )
        15           Cu  tau(  15) = (   0.0000000   0.0000000   2.9919088  )
        16           O   tau(  16) = (   0.0000000   0.0000000   3.4722686  )
        17           Ba  tau(  17) = (   0.5000000   0.4735409   3.5542208  )
        18           Cu  tau(  18) = (   0.0000000   0.0000000   4.6050118  )
        19           O   tau(  19) = (   0.5000000   0.0000000   4.6518539  )
        20           O   tau(  20) = (   0.0000000   0.4735409   4.6895083  )
        21           Ca  tau(  21) = (   0.5000000   0.4735409   5.0586454  )
        22           O   tau(  22) = (   0.0000000   0.4735409   5.4445704  )
        23           O   tau(  23) = (   0.5000000   0.0000000   5.4794590  )
        24           Cu  tau(  24) = (   0.0000000   0.0000000   5.5188461  )
        25           Ba  tau(  25) = (   0.5000000   0.4735409   5.9872397  )
        26           O   tau(  26) = (   0.0000000   0.0000000   6.0531673  )
        27           Cu  tau(  27) = (   0.0000000   0.0000000   6.5298073  )
        28           O   tau(  28) = (   0.0000000   0.4735409   6.6032256  )

     number of k points=    25  Gaussian smearing, width (Ry)=  0.0100
                       cart. coord. in units 2pi/alat
        k(    1) = (   0.0000000   0.0000000   0.0000000), wk =   0.0312500
        k(    2) = (   0.0000000   0.1319845   0.0000000), wk =   0.0625000
        k(    3) = (   0.0000000   0.2639689   0.0000000), wk =   0.0625000
        k(    4) = (   0.0000000   0.3959534   0.0000000), wk =   0.0625000
        k(    5) = (   0.0000000  -0.5279378   0.0000000), wk =   0.0312500
        k(    6) = (   0.1250000   0.0000000   0.0000000), wk =   0.0625000
        k(    7) = (   0.1250000   0.1319845   0.0000000), wk =   0.1250000
        k(    8) = (   0.1250000   0.2639689   0.0000000), wk =   0.1250000
        k(    9) = (   0.1250000   0.3959534   0.0000000), wk =   0.1250000
        k(   10) = (   0.1250000  -0.5279378   0.0000000), wk =   0.0625000
        k(   11) = (   0.2500000   0.0000000   0.0000000), wk =   0.0625000
        k(   12) = (   0.2500000   0.1319845   0.0000000), wk =   0.1250000
        k(   13) = (   0.2500000   0.2639689   0.0000000), wk =   0.1250000
        k(   14) = (   0.2500000   0.3959534   0.0000000), wk =   0.1250000
        k(   15) = (   0.2500000  -0.5279378   0.0000000), wk =   0.0625000
        k(   16) = (   0.3750000   0.0000000   0.0000000), wk =   0.0625000
        k(   17) = (   0.3750000   0.1319845   0.0000000), wk =   0.1250000
        k(   18) = (   0.3750000   0.2639689   0.0000000), wk =   0.1250000
        k(   19) = (   0.3750000   0.3959534   0.0000000), wk =   0.1250000
        k(   20) = (   0.3750000  -0.5279378   0.0000000), wk =   0.0625000
        k(   21) = (  -0.5000000   0.0000000   0.0000000), wk =   0.0312500
        k(   22) = (  -0.5000000   0.1319845   0.0000000), wk =   0.0625000
        k(   23) = (  -0.5000000   0.2639689   0.0000000), wk =   0.0625000
        k(   24) = (  -0.5000000   0.3959534   0.0000000), wk =   0.0625000
        k(   25) = (  -0.5000000  -0.5279378   0.0000000), wk =   0.0312500

     Initial potential from superposition of free atoms

     starting charge  226.84630, renormalised to  227.00000

     negative rho (up, down):  3.442E-03 0.000E+00
     Starting wfcs are  195 randomized atomic wfcs

     Self-consistent Calculation

     iteration #  1     ecut=    60.00 Ry     beta= 0.50
     Davidson diagonalization with overlap
     ethr =  1.00E-02,  avg # of iterations =  2.0

     negative rho (up, down):  4.953E-04 0.000E+00

     total energy              =   -1840.80873894 Ry
     Harris-Foulkes estimate   =   -1845.39936907 Ry
     estimated scf accuracy    <      19.25095925 Ry

[...]

     iteration # 12     ecut=    60.00 Ry     beta= 0.50
     Davidson diagonalization with overlap
     c_bands:  1 eigenvalues not converged
     ethr =  8.86E-06,  avg # of iterations =  9.5

[...]

     iteration # 27     ecut=    60.00 Ry     beta= 0.50
     Davidson diagonalization with overlap
     c_bands:  1 eigenvalues not converged
     ethr =  7.44E-09,  avg # of iterations =  3.0

[...]

     total energy              =   -1842.81629137 Ry
     Harris-Foulkes estimate   =   -1842.81629137 Ry
     estimated scf accuracy    <       0.00000001 Ry

     iteration # 35     ecut=    60.00 Ry     beta= 0.50
     Davidson diagonalization with overlap
     ethr =  5.20E-12,  avg # of iterations =  2.2

[...]

     End of self-consistent calculation

          k = 0.0000 0.0000 0.0000 ( 35607 PWs)   bands (ev):

   -35.7572 -35.5758 -24.3408 -22.9513 -22.9494 -22.7475 -17.2611 -17.0555
   -16.8083 -16.7969 -16.6416 -16.6226 -15.4699 -15.3334 -15.1710 -14.8327
   -14.8237 -14.7420 -14.5023 -14.3413 -14.3359 -14.1461 -14.1153 -14.0320
   -13.9969 -13.8875 -13.6373  -9.5951  -9.1766  -9.0982  -8.0831  -8.0790
    -8.0450  -8.0438  -7.9348  -7.8522  -7.8503  -7.7910  -7.6249  -2.4911
    -2.4894  -2.3451  -1.9908  -1.9839  -1.9404  -1.8341  -1.7918  -1.7117
    -1.6971  -1.6530  -1.5749  -1.3909  -1.3823  -1.3802  -1.3782  -1.1363
    -0.9489  -0.9399  -0.6201  -0.6182  -0.5409  -0.5359  -0.5103  -0.4603
    -0.4467  -0.4345  -0.4262  -0.4243  -0.4159  -0.3989  -0.3199  -0.3062
    -0.2765  -0.2636  -0.1986  -0.1968  -0.0629  -0.0616  -0.0608  -0.0571
    -0.0358   0.0108   0.0263   0.0452   0.1291   0.1583   0.2365   0.2481
     0.4808   0.4898   0.5601   0.7212   0.7220   0.7784   0.8079   1.0176
     1.0375   1.0702   1.1820   1.2185   1.2279   1.2443   1.3067   1.3252
     1.4072   1.4875   1.4958   1.6298   1.6552   1.8285   1.8546   1.8607
     1.8654   1.8767   2.0158   2.0307   2.0416   2.3662   2.3737   4.4829
     5.0395   5.0578   5.2001   5.8562   6.1997   6.5382   6.6023   6.6528
     7.1502   7.5589   7.8124   7.9608   8.1154   8.2648   8.3901   8.4891
     8.6203

[...]

          k = 0.3750-0.5279 0.0000 ( 35528 PWs)   bands (ev):

[...]

          k =-0.5000 0.0000 0.0000 ( 35494 PWs)   bands (ev):

[...]

          k =-0.5000-0.5279 0.0000 ( 35564 PWs)   bands (ev):

   -35.7375 -35.5561 -24.1250 -22.6785 -22.6765 -22.4850 -17.1832 -17.1740
   -17.0218 -16.9980 -16.7977 -16.5854 -14.7749 -14.7730 -14.6079 -14.5756
   -14.5392 -14.4324 -14.3477 -14.3083 -14.2675 -14.2182 -14.2145 -14.1060
   -14.1011 -14.0139 -13.6645 -10.2162  -9.7352  -9.4734  -8.9114  -8.9088
    -8.7066  -8.6433  -8.6421  -8.3597  -8.1770  -8.1730  -8.0148  -4.2535
    -4.2005  -3.9667  -3.8664  -3.5819  -3.3233  -3.3213  -2.8956  -2.8946
    -2.7420  -2.5256  -2.4531  -2.4478  -2.4462  -2.3842  -2.3258  -2.1377
    -2.0229  -1.9768  -1.6160  -1.5108  -1.5041  -1.3339  -1.3171  -1.1863
    -1.1642  -1.1441  -1.1425  -1.0630  -1.0065  -0.8860  -0.8707  -0.7324
    -0.7143  -0.4915  -0.4895   0.0321   0.1397   0.1784   0.3432   0.6594
     0.8650   0.9050   1.0976   1.1849   1.1905   1.1982   1.2320   1.2562
     1.2825   1.3767   1.4561   1.5305   1.5436   1.6098   1.6629   1.6912
     1.7339   1.7409   1.7914   1.8473   1.8516   1.9127   1.9415   1.9558
     2.0299   2.0532   2.0993   2.1798   2.1824   2.2349   2.2589   2.3749
     2.3833   2.6030   4.0061   4.5484   4.5552   4.6110   4.6243   4.7164
     5.8121   5.8127   6.6356   6.9057   6.9454   6.9542   7.9589   7.9834
     8.8730   8.8967   8.9167   8.9442   9.2684   9.3684   9.4901   9.5610
     9.6663

     the Fermi energy is     2.4074 ev

!    total energy              =   -1842.81629136 Ry
     Harris-Foulkes estimate   =   -1842.81629137 Ry
     estimated scf accuracy    <          9.9E-09 Ry

     The total energy is the sum of the following terms:

     one-electron contribution =  -26945.10639300 Ry
     hartree contribution      =   13623.82625914 Ry
     xc contribution           =    -621.54966058 Ry
     ewald contribution        =   12100.02080148 Ry
     smearing contrib. (-TS)   =      -0.00729840 Ry

     convergence has been achieved in  35 iterations

     negative rho (up, down):  1.515E-03 0.000E+00

     Forces acting on atoms (cartesian axes, Ry/au):

     atom    1 type  4   force =     0.00000000    0.00000000   -0.00017976
     atom    2 type  3   force =     0.00000000    0.00000000    0.00035650
     atom    3 type  4   force =     0.00000000    0.00000000   -0.00079877
     atom    4 type  1   force =     0.00000000    0.00000000   -0.00031873
     atom    5 type  3   force =     0.00000000    0.00000000    0.00064455
     atom    6 type  4   force =     0.00000000    0.00000000    0.00014389
     atom    7 type  4   force =     0.00000000    0.00000000    0.00047228
     atom    8 type  2   force =     0.00000000    0.00000000   -0.00107551
     atom    9 type  4   force =     0.00000000    0.00000000    0.00045411
     atom   10 type  4   force =     0.00000000    0.00000000    0.00068257
     atom   11 type  3   force =     0.00000000    0.00000000    0.00063181
     atom   12 type  1   force =     0.00000000    0.00000000   -0.00246670
     atom   13 type  4   force =     0.00000000    0.00000000    0.00688445
     atom   14 type  4   force =     0.00000000    0.00000000    0.01868505
     atom   15 type  3   force =     0.00000000    0.00000000   -0.02044127
     atom   16 type  4   force =     0.00000000    0.00000000    0.03189448
     atom   17 type  1   force =     0.00000000    0.00000000   -0.02490382
     atom   18 type  3   force =     0.00000000    0.00000000   -0.00956300
     atom   19 type  4   force =     0.00000000    0.00000000    0.01013054
     atom   20 type  4   force =     0.00000000    0.00000000    0.00277562
     atom   21 type  2   force =     0.00000000    0.00000000   -0.01778646
     atom   22 type  4   force =     0.00000000    0.00000000    0.00064065
     atom   23 type  4   force =     0.00000000    0.00000000    0.00220516
     atom   24 type  3   force =     0.00000000    0.00000000    0.00003111
     atom   25 type  1   force =     0.00000000    0.00000000    0.00019353
     atom   26 type  4   force =     0.00000000    0.00000000    0.00112186
     atom   27 type  3   force =     0.00000000    0.00000000   -0.00070556
     atom   28 type  4   force =     0.00000000    0.00000000    0.00029140

     Total force =     0.054653     Total SCF correction =     0.000421

     Computing stress (Cartesian axis) and pressure

     negative rho (up, down):  1.515E-03 0.000E+00
          total   stress  (Ry/bohr**3)                   (kbar)     P=       -8.56
  -0.00009565   0.00000000   0.00000000          -14.07        0.00        0.00
   0.00000000  -0.00004141   0.00000000            0.00       -6.09        0.00
   0.00000000   0.00000000  -0.00003746            0.00        0.00       -5.51

     General routines

     Parallel routines

   This run was terminated on:  23:16:14  21May2021

   JOB DONE.
[1621653375.021097] [holy7c04209:130198:0]          mpool.c:43   UCX  WARN  object 0x3d13ac0 was not returned to mpool ucp_requests
[1621653375.027727] [holy7c04201:104144:0]          mpool.c:43   UCX  WARN  object 0x3a5cec0 was not returned to mpool ucp_requests
[1621653375.027748] [holy7c04201:104144:0]          mpool.c:43   UCX  WARN  object 0x3a5d080 was not returned to mpool ucp_requests
[1621653375.026309] [holy7c04207:213959:0]          mpool.c:43   UCX  WARN  object 0x46bfa80 was not returned to mpool ucp_requests
[1621653375.026407] [holy7c04207:213959:0]          mpool.c:43   UCX  WARN  object 0x46bffc0 was not returned to mpool ucp_requests
[1621653375.028363] [holy7c04209:130197:0]          mpool.c:43   UCX  WARN  object 0x3b580c0 was not returned to mpool ucp_requests
[1621653375.027586] [holy7c04201:104145:0]          mpool.c:43   UCX  WARN  object 0x2df0b00 was not returned to mpool ucp_requests
[1621653375.026209] [holy7c04207:213957:0]          mpool.c:43   UCX  WARN  object 0x2d1cec0 was not returned to mpool ucp_requests
[1621653375.026558] [holy7c04205:158405:0]          mpool.c:43   UCX  WARN  object 0x35f8c40 was not returned to mpool ucp_requests
[1621653375.026583] [holy7c04205:158405:0]          mpool.c:43   UCX  WARN  object 0x35f8e00 was not returned to mpool ucp_requests