     Program PWSCF v.6.5 starts on 21May2021 at 21:26: 6

     R & G space division:  proc/nbgrp/npool/nimage =      20
     Reading input from CBCO_Y_cleave_5.0_sep.pwi
Warning: card &IONS ignored
Warning: card     ION_DYNAMICS = 'BFGS' ignored
Warning: card / ignored
Warning: card &CELL ignored
Warning: card     CELL_DYNAMICS = 'BFGS' ignored
Warning: card     PRESS_CONV_THR = 5 ignored
Warning: card / ignored

     Current dimensions of program PWSCF are:
     Max number of different atomic species (ntypx) = 10
     Max number of k-points (npk) =  40000
     Max angular momentum in pseudopotentials (lmaxx) =  3

     Message from routine setup:
     using ibrav=0 with symmetry is DISCOURAGED, use correct ibrav instead

     bravais-lattice index     =            0
     lattice parameter (alat)  =       7.4270  a.u.
     unit-cell volume          =    4795.9235 (a.u.)^3
     number of atoms/cell      =           28
     number of atomic types    =            4
     number of electrons       =       227.00
     number of Kohn-Sham states=          137
     kinetic-energy cutoff     =      60.0000  Ry
     charge density cutoff     =     720.0000  Ry
     convergence threshold     =      1.0E-08
     mixing beta               =       0.5000
     number of iterations used =           10  local-TF  mixing
     Exchange-correlation= SLA PW PBE PBE
                           (   1   4   3   4   0   0   0)

     celldm(1)=   7.427040  celldm(2)=   0.000000  celldm(3)=   0.000000
     celldm(4)=   0.000000  celldm(5)=   0.000000  celldm(6)=   0.000000

     crystal axes: (cart. coord. in units of alat)
               a(1) = (   1.000000   0.000000   0.000000 )
               a(2) = (   0.000000   0.947081   0.000000 )
               a(3) = (   0.000000   0.000000  12.360550 )

     reciprocal axes: (cart. coord. in units 2 pi/alat)
               b(1) = (  1.000000  0.000000  0.000000 )
               b(2) = (  0.000000  1.055876  0.000000 )
               b(3) = (  0.000000  0.000000  0.080903 )

     PseudoPot. # 1 for Ba read from file:
     ./pseudo/Ba.pbe-nsp-van.UPF
     MD5 check sum: 2b9c31dd849566dd297d80989662b7a0
     Pseudo is Ultrasoft + core correction, Zval = 10.0
     Generated by new atomic code, or converted to UPF format
     Using radial grid of  907 points,  6 beta functions with:
                l(1) =   0
                l(2) =   0
                l(3) =   1
                l(4) =   1
                l(5) =   2
                l(6) =   2
     Q(r) pseudized with  6 coefficients,  rinner =    1.200   1.200   1.200
                                                       1.200   1.200

     PseudoPot. # 2 for Ca read from file:
     ./pseudo/Ca.pbe-nsp-van.UPF
     MD5 check sum: 6471098428ff4fa451746d08035ff179
     Pseudo is Ultrasoft + core correction, Zval = 10.0
     Generated by new atomic code, or converted to UPF format
     Using radial grid of  845 points,  6 beta functions with:
                l(1) =   0
                l(2) =   0
                l(3) =   1
                l(4) =   1
                l(5) =   2
                l(6) =   2
     Q(r) pseudized with  6 coefficients,  rinner =    1.200   1.200   1.200
                                                       1.200   1.200

     PseudoPot. # 3 for Cu read from file:
     ./pseudo/Cu.pbe-n-van_ak.UPF
     MD5 check sum: 34e3282627ffb533726feb647e090d62
     Pseudo is Ultrasoft + core correction, Zval = 11.0
     Generated by new atomic code, or converted to UPF format
     Using radial grid of  867 points,  6 beta functions with:
                l(1) =   0
                l(2) =   0
                l(3) =   1
                l(4) =   1
                l(5) =   2
                l(6) =   2
     Q(r) pseudized with  8 coefficients,  rinner =    1.400   1.400   1.400
                                                       1.400   1.400

     PseudoPot. # 4 for O  read from file:
     ./pseudo/O.pbe-van_ak.UPF
     MD5 check sum: 783ce7fe4c79b6a4916957118fed0856
     Pseudo is Ultrasoft, Zval =  6.0
     Generated by new atomic code, or converted to UPF format
     Using radial grid of  737 points,  4 beta functions with:
                l(1) =   0
                l(2) =   0
                l(3) =   1
                l(4) =   1
     Q(r) pseudized with  8 coefficients,  rinner =    0.800   0.800   0.800

     atomic species   valence    mass     pseudopotential
        Ba            10.00   137.32700     Ba( 1.00)
        Ca            10.00    40.07800     Ca( 1.00)
        Cu            11.00    63.54600     Cu( 1.00)
        O              6.00    15.99900     O ( 1.00)

      4 Sym. Ops. (no inversion) found

   Cartesian axes

     site n.     atom                  positions (alat units)
         1           O   tau(   1) = (   0.0000000   0.4735409  -0.0469745  )
         2           Cu  tau(   2) = (   0.0000000   0.0000000   0.0264565  )
         3           O   tau(   3) = (   0.0000000   0.0000000   0.5030914  )
         4           Ba  tau(   4) = (   0.5000000   0.4735409   0.5690292  )
         5           Cu  tau(   5) = (   0.0000000   0.0000000   1.0374254  )
         6           O   tau(   6) = (   0.5000000   0.0000000   1.0768099  )
         7           O   tau(   7) = (   0.0000000   0.4735409   1.1116985  )
         8           Ca  tau(   8) = (   0.5000000   0.4735409   1.4976260  )
         9           O   tau(   9) = (   0.0000000   0.4735409   1.8667529  )
        10           O   tau(  10) = (   0.5000000   0.0000000   1.9044124  )
        11           Cu  tau(  11) = (   0.0000000   0.0000000   1.9512546  )
        12           Ba  tau(  12) = (   0.5000000   0.4735409   2.4295764  )
        13           O   tau(  13) = (   0.0000000   0.0000000   2.5115362  )
        14           O   tau(  14) = (   0.0000000   0.4735409   2.9918528  )
        15           Cu  tau(  15) = (   0.0000000   0.0000000   2.9919088  )
        16           O   tau(  16) = (   0.0000000   0.0000000   3.4722686  )
        17           Ba  tau(  17) = (   0.5000000   0.4735409   3.5542208  )
        18           Cu  tau(  18) = (   0.0000000   0.0000000   4.0325248  )
        19           O   tau(  19) = (   0.5000000   0.0000000   4.0793669  )
        20           O   tau(  20) = (   0.0000000   0.4735409   4.1170213  )
        21           Ca  tau(  21) = (   0.5000000   0.4735409   4.4861584  )
        22           O   tau(  22) = (   0.0000000   0.4735409   6.1442767  )
        23           O   tau(  23) = (   0.5000000   0.0000000   6.1791653  )
        24           Cu  tau(  24) = (   0.0000000   0.0000000   6.2185525  )
        25           Ba  tau(  25) = (   0.5000000   0.4735409   6.6869461  )
        26           O   tau(  26) = (   0.0000000   0.0000000   6.7528737  )
        27           Cu  tau(  27) = (   0.0000000   0.0000000   7.2295136  )
        28           O   tau(  28) = (   0.0000000   0.4735409   7.3029319  )

     number of k points=    25  Gaussian smearing, width (Ry)=  0.0100
                       cart. coord. in units 2pi/alat
        k(    1) = (   0.0000000   0.0000000   0.0000000), wk =   0.0312500
        k(    2) = (   0.0000000   0.1319845   0.0000000), wk =   0.0625000
        k(    3) = (   0.0000000   0.2639689   0.0000000), wk =   0.0625000
        k(    4) = (   0.0000000   0.3959534   0.0000000), wk =   0.0625000
        k(    5) = (   0.0000000  -0.5279378   0.0000000), wk =   0.0312500
        k(    6) = (   0.1250000   0.0000000   0.0000000), wk =   0.0625000
        k(    7) = (   0.1250000   0.1319845   0.0000000), wk =   0.1250000
        k(    8) = (   0.1250000   0.2639689   0.0000000), wk =   0.1250000
        k(    9) = (   0.1250000   0.3959534   0.0000000), wk =   0.1250000
        k(   10) = (   0.1250000  -0.5279378   0.0000000), wk =   0.0625000
        k(   11) = (   0.2500000   0.0000000   0.0000000), wk =   0.0625000
        k(   12) = (   0.2500000   0.1319845   0.0000000), wk =   0.1250000
        k(   13) = (   0.2500000   0.2639689   0.0000000), wk =   0.1250000
        k(   14) = (   0.2500000   0.3959534   0.0000000), wk =   0.1250000
        k(   15) = (   0.2500000  -0.5279378   0.0000000), wk =   0.0625000
        k(   16) = (   0.3750000   0.0000000   0.0000000), wk =   0.0625000
        k(   17) = (   0.3750000   0.1319845   0.0000000), wk =   0.1250000
        k(   18) = (   0.3750000   0.2639689   0.0000000), wk =   0.1250000
        k(   19) = (   0.3750000   0.3959534   0.0000000), wk =   0.1250000
        k(   20) = (   0.3750000  -0.5279378   0.0000000), wk =   0.0625000
        k(   21) = (  -0.5000000   0.0000000   0.0000000), wk =   0.0312500
        k(   22) = (  -0.5000000   0.1319845   0.0000000), wk =   0.0625000
        k(   23) = (  -0.5000000   0.2639689   0.0000000), wk =   0.0625000
        k(   24) = (  -0.5000000   0.3959534   0.0000000), wk =   0.0625000
        k(   25) = (  -0.5000000  -0.5279378   0.0000000), wk =   0.0312500

     Initial potential from superposition of free atoms

     starting charge  226.84630, renormalised to  227.00000

     negative rho (up, down):  3.412E-03 0.000E+00
     Starting wfcs are  195 randomized atomic wfcs

     Self-consistent Calculation

     iteration #  1     ecut=    60.00 Ry     beta= 0.50
     Davidson diagonalization with overlap
     ethr =  1.00E-02,  avg # of iterations =  2.0

     negative rho (up, down):  4.893E-04 0.000E+00

     total energy              =   -1840.98662912 Ry
     Harris-Foulkes estimate   =   -1845.32418205 Ry
     estimated scf accuracy    <      17.48703864 Ry

[...]

     iteration # 18     ecut=    60.00 Ry     beta= 0.50
     Davidson diagonalization with overlap
     c_bands:  1 eigenvalues not converged
     ethr =  1.19E-05,  avg # of iterations =  5.2

[...]

     iteration # 20     ecut=    60.00 Ry     beta= 0.50
     Davidson diagonalization with overlap
     c_bands:  1 eigenvalues not converged
     ethr =  5.39E-06,  avg # of iterations =  4.0

[...]

     total energy              =   -1842.62061791 Ry
     Harris-Foulkes estimate   =   -1842.62061791 Ry
     estimated scf accuracy    <       0.00000001 Ry

     iteration # 37     ecut=    60.00 Ry     beta= 0.50
     Davidson diagonalization with overlap
     ethr =  5.11E-12,  avg # of iterations =  1.0

[...]

     End of self-consistent calculation

          k = 0.0000 0.0000 0.0000 ( 37745 PWs)   bands (ev):

   -39.1610 -36.1006 -23.3428 -23.3052 -23.0518 -23.0448 -20.2801 -20.1380
   -20.1264 -17.6050 -17.1518 -17.1404 -16.2234 -15.8155 -15.3707 -15.2873
   -15.1855 -15.0984 -15.0862 -15.0758 -14.6955 -14.6294 -14.4960 -14.3375
   -14.2915 -14.1631 -13.9658  -8.5575  -8.4365  -8.3990  -8.3675  -8.2260
    -8.2141  -8.2060  -8.1671  -8.1171  -8.0898  -7.9654  -7.9237  -2.8441
    -2.8324  -2.8062  -2.7640  -2.7457  -2.3439  -2.3047  -2.2804  -2.1822
    -2.0527  -1.9977  -1.8107  -1.7342  -1.6717  -1.6214  -1.5671  -1.4563
    -1.3735  -1.1501  -1.1359  -0.9726  -0.8906  -0.8902  -0.8236  -0.8170
    -0.7955  -0.7787  -0.7643  -0.7589  -0.7322  -0.7000  -0.6806  -0.6805
    -0.6243  -0.6099  -0.5512  -0.4787  -0.4579  -0.4192  -0.4152  -0.4151
    -0.3627  -0.3458  -0.3406  -0.2547  -0.2062  -0.2054  -0.1904  -0.1225
    -0.0247   0.2118   0.2853   0.3202   0.3680   0.4399   0.4457   0.4550
     0.6090   0.6699   0.7395   0.8352   0.8525   0.9514   1.0084   1.0164
     1.1255   1.1917   1.2169   1.2476   1.3129   1.4223   1.5187   1.5437
     1.6255   1.7300   1.7355   1.7401   1.7608   1.8560   2.0220   2.1161
     4.3204   4.7032   4.8048   5.3112   5.4670   5.8413   6.2500   6.4870
     6.5723   6.5880   6.6295   6.6836   6.8001   6.8473   7.4947   7.5802
     7.7441

[...]

          k = 0.3750-0.5279 0.0000 ( 37708 PWs)   bands (ev):

[...]

          k =-0.5000 0.0000 0.0000 ( 37590 PWs)   bands (ev):

[...]

          k =-0.5000-0.5279 0.0000 ( 37732 PWs)   bands (ev):

   -39.1456 -36.0810 -23.0816 -23.0323 -22.7822 -22.7761 -20.3188 -20.2618
   -20.1687 -17.5269 -17.5177 -17.1412 -15.5033 -15.3460 -15.1277 -15.0641
   -14.9526 -14.7813 -14.7801 -14.6091 -14.5838 -14.5680 -14.5535 -14.5010
   -14.4468 -14.3929 -14.2519  -9.3017  -9.2652  -9.0109  -9.0050  -8.9973
    -8.9720  -8.7655  -8.6735  -8.6341  -8.5303  -8.2853  -8.2092  -4.8718
    -4.6021  -4.2830  -4.1191  -4.0222  -3.6754  -3.6087  -3.3223  -3.2487
    -3.1195  -3.0835  -3.0539  -2.8007  -2.7919  -2.7614  -2.7031  -2.4653
    -2.2609  -2.2092  -1.8667  -1.8424  -1.7845  -1.7775  -1.7162  -1.6844
    -1.5367  -1.5026  -1.4966  -1.4342  -1.3979  -1.3813  -1.3162  -1.1474
    -1.0851  -0.8439  -0.7697  -0.2866  -0.1553  -0.0314   0.2116   0.3826
     0.5642   0.6623   0.7078   0.7335   0.8023   0.8285   0.8508   0.8933
     0.9508   1.0493   1.0854   1.1197   1.1425   1.1796   1.3200   1.3206
     1.3455   1.4025   1.4289   1.5397   1.5481   1.6029   1.6254   1.6877
     1.7449   1.8262   1.8323   1.8366   1.8802   1.9157   2.0172   2.0297
     2.1748   2.4510   3.4497   3.9669   4.1857   4.2450   4.2986   4.4098
     4.4790   4.7234   4.8812   5.4584   5.5915   5.8373   6.6048   7.4477
     7.9959   8.0750   8.1707   8.3750   8.5216   8.5806   8.6051   8.8942
     8.9015

     the Fermi energy is     2.0532 ev

!    total energy              =   -1842.62061791 Ry
     Harris-Foulkes estimate   =   -1842.62061791 Ry
     estimated scf accuracy    <          3.6E-09 Ry

     The total energy is the sum of the following terms:

     one-electron contribution =  -28043.85865961 Ry
     hartree contribution      =   14169.66868088 Ry
     xc contribution           =    -621.43685081 Ry
     ewald contribution        =   12653.01405349 Ry
     smearing contrib. (-TS)   =      -0.00784185 Ry

     convergence has been achieved in  37 iterations

     negative rho (up, down):  1.440E-03 0.000E+00

     Forces acting on atoms (cartesian axes, Ry/au):

     atom    1 type  4   force =     0.00000000    0.00000000   -0.00015827
     atom    2 type  3   force =     0.00000000    0.00000000    0.00037525
     atom    3 type  4   force =     0.00000000    0.00000000   -0.00074181
     atom    4 type  1   force =     0.00000000    0.00000000   -0.00029373
     atom    5 type  3   force =     0.00000000    0.00000000    0.00060107
     atom    6 type  4   force =     0.00000000    0.00000000   -0.00001167
     atom    7 type  4   force =     0.00000000    0.00000000    0.00033218
     atom    8 type  2   force =     0.00000000    0.00000000   -0.00060611
     atom    9 type  4   force =     0.00000000    0.00000000    0.00026953
     atom   10 type  4   force =     0.00000000    0.00000000    0.00035302
     atom   11 type  3   force =     0.00000000    0.00000000    0.00014624
     atom   12 type  1   force =     0.00000000    0.00000000    0.00016281
     atom   13 type  4   force =     0.00000000    0.00000000    0.00310795
     atom   14 type  4   force =     0.00000000    0.00000000    0.00353972
     atom   15 type  3   force =     0.00000000    0.00000000   -0.00608073
     atom   16 type  4   force =     0.00000000    0.00000000    0.00495702
     atom   17 type  1   force =     0.00000000    0.00000000   -0.01822818
     atom   18 type  3   force =     0.00000000    0.00000000    0.00939704
     atom   19 type  4   force =     0.00000000    0.00000000    0.05270112
     atom   20 type  4   force =     0.00000000    0.00000000    0.06022450
     atom   21 type  2   force =     0.00000000    0.00000000   -0.10688724
     atom   22 type  4   force =     0.00000000    0.00000000    0.01649787
     atom   23 type  4   force =     0.00000000    0.00000000    0.02354813
     atom   24 type  3   force =     0.00000000    0.00000000   -0.02083976
     atom   25 type  1   force =     0.00000000    0.00000000   -0.01875745
     atom   26 type  4   force =     0.00000000    0.00000000   -0.00476550
     atom   27 type  3   force =     0.00000000    0.00000000    0.00284504
     atom   28 type  4   force =     0.00000000    0.00000000   -0.00168802

     Total force =     0.141358     Total SCF correction =     0.000323

     Computing stress (Cartesian axis) and pressure

     negative rho (up, down):  1.440E-03 0.000E+00
          total   stress  (Ry/bohr**3)                   (kbar)     P=       -5.81
  -0.00002526   0.00000000   0.00000000           -3.72        0.00        0.00
   0.00000000  -0.00000541   0.00000000            0.00       -0.80        0.00
   0.00000000   0.00000000  -0.00008773            0.00        0.00      -12.91

     General routines

     Parallel routines

   This run was terminated on:  21:39:12  21May2021

   JOB DONE.
[1621647553.021959] [holy7c08103:186295:0]          mpool.c:43   UCX  WARN  object 0x3c8ba40 was not returned to mpool ucp_requests
[1621647553.026289] [holy7c08606:228909:0]          mpool.c:43   UCX  WARN  object 0x292dd00 was not returned to mpool ucp_requests
[1621647553.025193] [holy7c06607:149940:0]          mpool.c:43   UCX  WARN  object 0x297e000 was not returned to mpool ucp_requests
[1621647553.025210] [holy7c06607:149940:0]          mpool.c:43   UCX  WARN  object 0x297e540 was not returned to mpool ucp_requests
[1621647553.026483] [holy7c06205:55547:0]          mpool.c:43   UCX  WARN  object 0x35fe9c0 was not returned to mpool ucp_requests
[1621647553.052935] [holy7c06111:15931:0]          mpool.c:43   UCX  WARN  object 0x361aac0 was not returned to mpool ucp_requests
[1621647553.052964] [holy7c06111:15931:0]          mpool.c:43   UCX  WARN  object 0x361b380 was not returned to mpool ucp_requests
[1621647553.025457] [holy7c08606:228908:0]          mpool.c:43   UCX  WARN  object 0x4578300 was not returned to mpool ucp_requests
[1621647553.025479] [holy7c08606:228908:0]          mpool.c:43   UCX  WARN  object 0x45784c0 was not returned to mpool ucp_requests
[1621647553.024490] [holy7c08606:228910:0]          mpool.c:43   UCX  WARN  object 0x351d600 was not returned to mpool ucp_requests