     Program PWSCF v.6.5 starts on 21May2021 at 21:18:58

     R & G space division:  proc/nbgrp/npool/nimage =      20
     Reading input from CBCO_CuO_cleave_1.5_sep.pwi
Warning: card &IONS ignored
Warning: card     ION_DYNAMICS = 'BFGS' ignored
Warning: card / ignored
Warning: card &CELL ignored
Warning: card     CELL_DYNAMICS = 'BFGS' ignored
Warning: card     PRESS_CONV_THR = 5 ignored
Warning: card / ignored

     Current dimensions of program PWSCF are:
     Max number of different atomic species (ntypx) = 10
     Max number of k-points (npk) =  40000
     Max angular momentum in pseudopotentials (lmaxx) =  3

     Message from routine setup:
     using ibrav=0 with symmetry is DISCOURAGED, use correct ibrav instead

     bravais-lattice index     =            0
     lattice parameter (alat)  =       7.4270  a.u.
     unit-cell volume          =    4450.3936 (a.u.)^3
     number of atoms/cell      =           28
     number of atomic types    =            4
     number of electrons       =       227.00
     number of Kohn-Sham states=          137
     kinetic-energy cutoff     =      60.0000  Ry
     charge density cutoff     =     720.0000  Ry
     convergence threshold     =      1.0E-08
     mixing beta               =       0.5000
     number of iterations used =           10  local-TF  mixing
     Exchange-correlation= SLA PW PBE PBE
                           (   1   4   3   4   0   0   0)

     celldm(1)=   7.427040  celldm(2)=   0.000000  celldm(3)=   0.000000
     celldm(4)=   0.000000  celldm(5)=   0.000000  celldm(6)=   0.000000

     crystal axes: (cart. coord. in units of alat)
               a(1) = (   1.000000   0.000000   0.000000 )
               a(2) = (   0.000000   0.947081   0.000000 )
               a(3) = (   0.000000   0.000000  11.470015 )

     reciprocal axes: (cart. coord. in units 2 pi/alat)
               b(1) = (  1.000000  0.000000  0.000000 )
               b(2) = (  0.000000  1.055876  0.000000 )
               b(3) = (  0.000000  0.000000  0.087184 )

     PseudoPot. # 1 for Ba read from file:
     ./pseudo/Ba.pbe-nsp-van.UPF
     MD5 check sum: 2b9c31dd849566dd297d80989662b7a0
     Pseudo is Ultrasoft + core correction, Zval = 10.0
     Generated by new atomic code, or converted to UPF format
     Using radial grid of  907 points,  6 beta functions with:
                l(1) =   0
                l(2) =   0
                l(3) =   1
                l(4) =   1
                l(5) =   2
                l(6) =   2
     Q(r) pseudized with  6 coefficients,  rinner =    1.200   1.200   1.200
                                                       1.200   1.200

     PseudoPot. # 2 for Ca read from file:
     ./pseudo/Ca.pbe-nsp-van.UPF
     MD5 check sum: 6471098428ff4fa451746d08035ff179
     Pseudo is Ultrasoft + core correction, Zval = 10.0
     Generated by new atomic code, or converted to UPF format
     Using radial grid of  845 points,  6 beta functions with:
                l(1) =   0
                l(2) =   0
                l(3) =   1
                l(4) =   1
                l(5) =   2
                l(6) =   2
     Q(r) pseudized with  6 coefficients,  rinner =    1.200   1.200   1.200
                                                       1.200   1.200

     PseudoPot. # 3 for Cu read from file:
     ./pseudo/Cu.pbe-n-van_ak.UPF
     MD5 check sum: 34e3282627ffb533726feb647e090d62
     Pseudo is Ultrasoft + core correction, Zval = 11.0
     Generated by new atomic code, or converted to UPF format
     Using radial grid of  867 points,  6 beta functions with:
                l(1) =   0
                l(2) =   0
                l(3) =   1
                l(4) =   1
                l(5) =   2
                l(6) =   2
     Q(r) pseudized with  8 coefficients,  rinner =    1.400   1.400   1.400
                                                       1.400   1.400

     PseudoPot. # 4 for O  read from file:
     ./pseudo/O.pbe-van_ak.UPF
     MD5 check sum: 783ce7fe4c79b6a4916957118fed0856
     Pseudo is Ultrasoft, Zval =  6.0
     Generated by new atomic code, or converted to UPF format
     Using radial grid of  737 points,  4 beta functions with:
                l(1) =   0
                l(2) =   0
                l(3) =   1
                l(4) =   1
     Q(r) pseudized with  8 coefficients,  rinner =    0.800   0.800   0.800

     atomic species   valence    mass     pseudopotential
        Ba            10.00   137.32700     Ba( 1.00)
        Ca            10.00    40.07800     Ca( 1.00)
        Cu            11.00    63.54600     Cu( 1.00)
        O              6.00    15.99900     O ( 1.00)

      4 Sym. Ops. (no inversion) found

   Cartesian axes

     site n.     atom                  positions (alat units)
         1           O   tau(   1) = (   0.0000000   0.4735409  -0.0469745  )
         2           Cu  tau(   2) = (   0.0000000   0.0000000   0.0264565  )
         3           O   tau(   3) = (   0.0000000   0.0000000   0.5030914  )
         4           Ba  tau(   4) = (   0.5000000   0.4735409   0.5690292  )
         5           Cu  tau(   5) = (   0.0000000   0.0000000   1.0374254  )
         6           O   tau(   6) = (   0.5000000   0.0000000   1.0768099  )
         7           O   tau(   7) = (   0.0000000   0.4735409   1.1116985  )
         8           Ca  tau(   8) = (   0.5000000   0.4735409   1.4976260  )
         9           O   tau(   9) = (   0.0000000   0.4735409   1.8667529  )
        10           O   tau(  10) = (   0.5000000   0.0000000   1.9044124  )
        11           Cu  tau(  11) = (   0.0000000   0.0000000   1.9512546  )
        12           Ba  tau(  12) = (   0.5000000   0.4735409   2.4295764  )
        13           O   tau(  13) = (   0.0000000   0.0000000   2.5115362  )
        14           O   tau(  14) = (   0.0000000   0.4735409   2.9918528  )
        15           Cu  tau(  15) = (   0.0000000   0.0000000   2.9919088  )
        16           O   tau(  16) = (   0.0000000   0.0000000   3.8539266  )
        17           Ba  tau(  17) = (   0.5000000   0.4735409   3.9358788  )
        18           Cu  tau(  18) = (   0.0000000   0.0000000   4.4141828  )
        19           O   tau(  19) = (   0.5000000   0.0000000   4.4610249  )
        20           O   tau(  20) = (   0.0000000   0.4735409   4.4986793  )
        21           Ca  tau(  21) = (   0.5000000   0.4735409   4.8678164  )
        22           O   tau(  22) = (   0.0000000   0.4735409   5.2537414  )
        23           O   tau(  23) = (   0.5000000   0.0000000   5.2886300  )
        24           Cu  tau(  24) = (   0.0000000   0.0000000   5.3280171  )
        25           Ba  tau(  25) = (   0.5000000   0.4735409   5.7964107  )
        26           O   tau(  26) = (   0.0000000   0.0000000   5.8623383  )
        27           Cu  tau(  27) = (   0.0000000   0.0000000   6.3389783  )
        28           O   tau(  28) = (   0.0000000   0.4735409   6.4123966  )

     number of k points=    25  Gaussian smearing, width (Ry)=  0.0100
                       cart. coord. in units 2pi/alat
        k(    1) = (   0.0000000   0.0000000   0.0000000), wk =   0.0312500
        k(    2) = (   0.0000000   0.1319845   0.0000000), wk =   0.0625000
        k(    3) = (   0.0000000   0.2639689   0.0000000), wk =   0.0625000
        k(    4) = (   0.0000000   0.3959534   0.0000000), wk =   0.0625000
        k(    5) = (   0.0000000  -0.5279378   0.0000000), wk =   0.0312500
        k(    6) = (   0.1250000   0.0000000   0.0000000), wk =   0.0625000
        k(    7) = (   0.1250000   0.1319845   0.0000000), wk =   0.1250000
        k(    8) = (   0.1250000   0.2639689   0.0000000), wk =   0.1250000
        k(    9) = (   0.1250000   0.3959534   0.0000000), wk =   0.1250000
        k(   10) = (   0.1250000  -0.5279378   0.0000000), wk =   0.0625000
        k(   11) = (   0.2500000   0.0000000   0.0000000), wk =   0.0625000
        k(   12) = (   0.2500000   0.1319845   0.0000000), wk =   0.1250000
        k(   13) = (   0.2500000   0.2639689   0.0000000), wk =   0.1250000
        k(   14) = (   0.2500000   0.3959534   0.0000000), wk =   0.1250000
        k(   15) = (   0.2500000  -0.5279378   0.0000000), wk =   0.0625000
        k(   16) = (   0.3750000   0.0000000   0.0000000), wk =   0.0625000
        k(   17) = (   0.3750000   0.1319845   0.0000000), wk =   0.1250000
        k(   18) = (   0.3750000   0.2639689   0.0000000), wk =   0.1250000
        k(   19) = (   0.3750000   0.3959534   0.0000000), wk =   0.1250000
        k(   20) = (   0.3750000  -0.5279378   0.0000000), wk =   0.0625000
        k(   21) = (  -0.5000000   0.0000000   0.0000000), wk =   0.0312500
        k(   22) = (  -0.5000000   0.1319845   0.0000000), wk =   0.0625000
        k(   23) = (  -0.5000000   0.2639689   0.0000000), wk =   0.0625000
        k(   24) = (  -0.5000000   0.3959534   0.0000000), wk =   0.0625000
        k(   25) = (  -0.5000000  -0.5279378   0.0000000), wk =   0.0312500

     Initial potential from superposition of free atoms

     starting charge  226.84630, renormalised to  227.00000

     negative rho (up, down):  3.464E-03 0.000E+00
     Starting wfcs are  195 randomized atomic wfcs

     Self-consistent Calculation

     iteration #  1     ecut=    60.00 Ry     beta= 0.50
     Davidson diagonalization with overlap
     ethr =  1.00E-02,  avg # of iterations =  2.0

     negative rho (up, down):  4.955E-04 0.000E+00

     total energy              =   -1840.75768615 Ry
     Harris-Foulkes estimate   =   -1845.33451263 Ry
     estimated scf accuracy    <      18.76552888 Ry

[...]

     iteration # 22     ecut=    60.00 Ry     beta= 0.50
     Davidson diagonalization with overlap
     c_bands:  1 eigenvalues not converged
     ethr =  1.55E-07,  avg # of iterations =  5.6

[...]

     iteration # 24     ecut=    60.00 Ry     beta= 0.50
     Davidson diagonalization with overlap
     c_bands:  1 eigenvalues not converged
     ethr =  2.17E-08,  avg # of iterations =  4.0

[...]

     total energy              =   -1842.79969482 Ry
     Harris-Foulkes estimate   =   -1842.79969483 Ry
     estimated scf accuracy    <       0.00000003 Ry

     iteration # 35     ecut=    60.00 Ry     beta= 0.50
     Davidson diagonalization with overlap
     ethr =  1.19E-11,  avg # of iterations =  1.3

[...]

     End of self-consistent calculation

          k = 0.0000 0.0000 0.0000 ( 35029 PWs)   bands (ev):

   -35.7811 -35.7560 -22.9418 -22.9385 -22.7819 -22.6961 -17.2822 -17.2616
   -16.8328 -16.8221 -16.8091 -16.7953 -15.4806 -15.4686 -14.8271 -14.8213
   -14.8063 -14.7553 -14.7417 -14.3291 -14.3264 -14.1521 -14.1393 -14.0432
   -14.0132 -13.9967 -12.8772  -8.0741  -8.0703  -8.0352  -8.0322  -7.9265
    -7.9167  -7.8425  -7.8425  -7.8392  -7.6748  -7.6700  -7.4782  -2.4760
    -2.4754  -2.1310  -1.9979  -1.9966  -1.9749  -1.9702  -1.8451  -1.8277
    -1.7321  -1.7104  -1.6784  -1.6667  -1.3668  -1.3629  -1.0206  -0.6056
    -0.6034  -0.5324  -0.5262  -0.5218  -0.4943  -0.4690  -0.4532  -0.4344
    -0.4331  -0.4172  -0.4121  -0.4099  -0.4022  -0.3598  -0.3370  -0.2022
    -0.1863  -0.1833  -0.0801  -0.0647  -0.0572  -0.0514  -0.0471  -0.0442
    -0.0055   0.0056   0.0178   0.0277   0.0609   0.0894   0.1382   0.1819
     0.3609   0.6312   0.7024   0.7339   0.7369   0.7787   0.8176   1.0148
     1.0198   1.1775   1.1987   1.2105   1.2264   1.3118   1.3331   1.3526
     1.3641   1.3805   1.3863   1.6451   1.6702   1.7261   1.8801   1.8923
     1.9405   2.0661   2.1773   2.2060   2.2878   2.3854   2.3987   4.9751
     5.0713   5.0990   5.9975   6.0988   6.5977   6.6095   6.7451   6.9077
     7.8191   7.8857   8.0594   8.0712   8.3801   8.4467   8.5318   8.5842
     8.9798

[...]

          k = 0.3750-0.5279 0.0000 ( 34968 PWs)   bands (ev):

[...]

          k =-0.5000 0.0000 0.0000 ( 34926 PWs)   bands (ev):

[...]

          k =-0.5000-0.5279 0.0000 ( 35004 PWs)   bands (ev):

   -35.7614 -35.7364 -22.6690 -22.6656 -22.5169 -22.4542 -17.2069 -17.1989
   -17.1871 -17.1725 -16.8201 -16.7972 -14.7597 -14.7590 -14.6112 -14.6099
   -14.4420 -14.4187 -14.4083 -14.2928 -14.2853 -14.2165 -14.2029 -14.1984
   -14.1289 -14.0906 -12.9921  -8.9018  -8.8984  -8.7535  -8.6335  -8.6306
    -8.5089  -8.4171  -8.2855  -8.1680  -8.1639  -8.0061  -7.9406  -4.2618
    -4.2392  -3.9610  -3.9057  -3.5483  -3.3084  -3.3046  -2.8867  -2.8812
    -2.7714  -2.7549  -2.4530  -2.4334  -2.4322  -2.4321  -2.1288  -2.1005
    -2.0952  -1.5531  -1.5032  -1.4781  -1.3327  -1.3236  -1.1948  -1.1919
    -1.1753  -1.1295  -1.1265  -1.1115  -1.1038  -1.0343  -0.9807  -0.4857
    -0.4760  -0.4737  -0.3434   0.0632   0.2051   0.3166   0.6799   0.7865
     0.9724   1.1869   1.1920   1.1924   1.1951   1.2275   1.2362   1.3072
     1.4552   1.4556   1.4586   1.4758   1.5001   1.6950   1.7223   1.7424
     1.7535   1.7980   1.8394   1.8578   1.9165   1.9193   2.0160   2.0268
     2.1908   2.1944   2.2294   2.2364   2.2534   2.2784   2.3771   2.4106
     2.4232   2.4258   2.8832   4.5251   4.5290   4.5954   4.5961   5.7956
     5.8252   5.8265   6.8874   6.9521   8.2559   8.4093   8.8494   8.8782
     8.8914   8.9366   9.2186   9.2734   9.3500   9.4104   9.6832   9.7611
     9.8631

     the Fermi energy is     2.4200 ev

!    total energy              =   -1842.79969481 Ry
     Harris-Foulkes estimate   =   -1842.79969482 Ry
     estimated scf accuracy    <          3.7E-09 Ry

     The total energy is the sum of the following terms:

     one-electron contribution =  -27903.94473068 Ry
     hartree contribution      =   14103.97035092 Ry
     xc contribution           =    -621.61967029 Ry
     ewald contribution        =   12578.80582375 Ry
     smearing contrib. (-TS)   =      -0.01146851 Ry

     convergence has been achieved in  35 iterations

     negative rho (up, down):  1.532E-03 0.000E+00

     Forces acting on atoms (cartesian axes, Ry/au):

     atom    1 type  4   force =     0.00000000    0.00000000   -0.00032242
     atom    2 type  3   force =     0.00000000    0.00000000    0.00047919
     atom    3 type  4   force =     0.00000000    0.00000000   -0.00073600
     atom    4 type  1   force =     0.00000000    0.00000000   -0.00050599
     atom    5 type  3   force =     0.00000000    0.00000000    0.00046264
     atom    6 type  4   force =     0.00000000    0.00000000    0.00087304
     atom    7 type  4   force =     0.00000000    0.00000000    0.00111252
     atom    8 type  2   force =     0.00000000    0.00000000   -0.00264010
     atom    9 type  4   force =     0.00000000    0.00000000    0.00414304
     atom   10 type  4   force =     0.00000000    0.00000000    0.00367162
     atom   11 type  3   force =     0.00000000    0.00000000    0.00143915
     atom   12 type  1   force =     0.00000000    0.00000000    0.00907591
     atom   13 type  4   force =     0.00000000    0.00000000   -0.01785139
     atom   14 type  4   force =     0.00000000    0.00000000    0.03579717
     atom   15 type  3   force =     0.00000000    0.00000000   -0.02130591
     atom   16 type  4   force =     0.00000000    0.00000000    0.02078094
     atom   17 type  1   force =     0.00000000    0.00000000   -0.01331957
     atom   18 type  3   force =     0.00000000    0.00000000   -0.02082903
     atom   19 type  4   force =     0.00000000    0.00000000   -0.00003020
     atom   20 type  4   force =     0.00000000    0.00000000   -0.00111320
     atom   21 type  2   force =     0.00000000    0.00000000    0.00233437
     atom   22 type  4   force =     0.00000000    0.00000000   -0.00155295
     atom   23 type  4   force =     0.00000000    0.00000000   -0.00019497
     atom   24 type  3   force =     0.00000000    0.00000000   -0.00039363
     atom   25 type  1   force =     0.00000000    0.00000000    0.00039090
     atom   26 type  4   force =     0.00000000    0.00000000    0.00029608
     atom   27 type  3   force =     0.00000000    0.00000000   -0.00004397
     atom   28 type  4   force =     0.00000000    0.00000000   -0.00001721

     Total force =     0.056852     Total SCF correction =     0.000273

     Computing stress (Cartesian axis) and pressure

     negative rho (up, down):  1.532E-03 0.000E+00
          total   stress  (Ry/bohr**3)                   (kbar)     P=       -6.02
   0.00000690   0.00000000   0.00000000            1.01        0.00        0.00
   0.00000000  -0.00007973   0.00000000            0.00      -11.73        0.00
   0.00000000   0.00000000  -0.00004996            0.00        0.00       -7.35

     General routines

     Parallel routines

   This run was terminated on:  21:29:26  21May2021

   JOB DONE.
[1621646966.234008] [holy7c06605:141734:0]          mpool.c:43   UCX  WARN  object 0x330ff40 was not returned to mpool ucp_requests
[1621646966.241710] [holy7c06603:209041:0]          mpool.c:43   UCX  WARN  object 0x40ffb40 was not returned to mpool ucp_requests
[1621646966.241730] [holy7c06603:209041:0]          mpool.c:43   UCX  WARN  object 0x4100240 was not returned to mpool ucp_requests
[1621646966.234083] [holy7c06606:243022:0]          mpool.c:43   UCX  WARN  object 0x2f59040 was not returned to mpool ucp_requests
[1621646966.245227] [holy7c06501:257879:0]          mpool.c:43   UCX  WARN  object 0x36468c0 was not returned to mpool ucp_requests
[1621646966.245250] [holy7c06501:257879:0]          mpool.c:43   UCX  WARN  object 0x3646a80 was not returned to mpool ucp_requests
[1621646966.240230] [holy7c06601:38990:0]          mpool.c:43   UCX  WARN  object 0x34a9b00 was not returned to mpool ucp_requests
[1621646966.243406] [holy7c06302:223960:0]          mpool.c:43   UCX  WARN  object 0x424d200 was not returned to mpool ucp_requests
[1621646966.244237] [holy7c06302:223959:0]          mpool.c:43   UCX  WARN  object 0x4673300 was not returned to mpool ucp_requests