     Program PWSCF v.6.5 starts on 21May2021 at 11:36:16

     R & G space division:  proc/nbgrp/npool/nimage =      20
     Reading input from CBCO_BaO_cleave_5.0_sep.pwi
Warning: card &IONS ignored
Warning: card     ION_DYNAMICS = 'BFGS' ignored
Warning: card / ignored
Warning: card &CELL ignored
Warning: card     CELL_DYNAMICS = 'BFGS' ignored
Warning: card     PRESS_CONV_THR = 5 ignored
Warning: card / ignored

     Current dimensions of program PWSCF are:
     Max number of different atomic species (ntypx) = 10
     Max number of k-points (npk) =  40000
     Max angular momentum in pseudopotentials (lmaxx) =  3

     Message from routine setup:
     using ibrav=0 with symmetry is DISCOURAGED, use correct ibrav instead

     bravais-lattice index     =            0
     lattice parameter (alat)  =       7.4270  a.u.
     unit-cell volume          =    4795.9235 (a.u.)^3
     number of atoms/cell      =           28
     number of atomic types    =            4
     number of electrons       =       227.00
     number of Kohn-Sham states=          137
     kinetic-energy cutoff     =      60.0000  Ry
     charge density cutoff     =     720.0000  Ry
     convergence threshold     =      1.0E-08
     mixing beta               =       0.5000
     number of iterations used =           10  local-TF  mixing
     Exchange-correlation= SLA PW PBE PBE
                           (   1   4   3   4   0   0   0)

     celldm(1)=   7.427040  celldm(2)=   0.000000  celldm(3)=   0.000000
     celldm(4)=   0.000000  celldm(5)=   0.000000  celldm(6)=   0.000000

     crystal axes: (cart. coord. in units of alat)
               a(1) = (   1.000000   0.000000   0.000000 )
               a(2) = (   0.000000   0.947081   0.000000 )
               a(3) = (   0.000000   0.000000  12.360550 )

     reciprocal axes: (cart. coord. in units 2 pi/alat)
               b(1) = (  1.000000  0.000000  0.000000 )
               b(2) = (  0.000000  1.055876  0.000000 )
               b(3) = (  0.000000  0.000000  0.080903 )

     PseudoPot. # 1 for Ba read from file:
     ./pseudo/Ba.pbe-nsp-van.UPF
     MD5 check sum: 2b9c31dd849566dd297d80989662b7a0
     Pseudo is Ultrasoft + core correction, Zval = 10.0
     Generated by new atomic code, or converted to UPF format
     Using radial grid of  907 points,  6 beta functions with:
                l(1) =   0
                l(2) =   0
                l(3) =   1
                l(4) =   1
                l(5) =   2
                l(6) =   2
     Q(r) pseudized with  6 coefficients,  rinner =    1.200   1.200   1.200
                                                       1.200   1.200

     PseudoPot. # 2 for Ca read from file:
     ./pseudo/Ca.pbe-nsp-van.UPF
     MD5 check sum: 6471098428ff4fa451746d08035ff179
     Pseudo is Ultrasoft + core correction, Zval = 10.0
     Generated by new atomic code, or converted to UPF format
     Using radial grid of  845 points,  6 beta functions with:
                l(1) =   0
                l(2) =   0
                l(3) =   1
                l(4) =   1
                l(5) =   2
                l(6) =   2
     Q(r) pseudized with  6 coefficients,  rinner =    1.200   1.200   1.200
                                                       1.200   1.200

     PseudoPot. # 3 for Cu read from file:
     ./pseudo/Cu.pbe-n-van_ak.UPF
     MD5 check sum: 34e3282627ffb533726feb647e090d62
     Pseudo is Ultrasoft + core correction, Zval = 11.0
     Generated by new atomic code, or converted to UPF format
     Using radial grid of  867 points,  6 beta functions with:
                l(1) =   0
                l(2) =   0
                l(3) =   1
                l(4) =   1
                l(5) =   2
                l(6) =   2
     Q(r) pseudized with  8 coefficients,  rinner =    1.400   1.400   1.400
                                                       1.400   1.400

     PseudoPot. # 4 for O  read from file:
     ./pseudo/O.pbe-van_ak.UPF
     MD5 check sum: 783ce7fe4c79b6a4916957118fed0856
     Pseudo is Ultrasoft, Zval =  6.0
     Generated by new atomic code, or converted to UPF format
     Using radial grid of  737 points,  4 beta functions with:
                l(1) =   0
                l(2) =   0
                l(3) =   1
                l(4) =   1
     Q(r) pseudized with  8 coefficients,  rinner =    0.800   0.800   0.800

     atomic species   valence    mass     pseudopotential
        Ba            10.00   137.32700     Ba( 1.00)
        Ca            10.00    40.07800     Ca( 1.00)
        Cu            11.00    63.54600     Cu( 1.00)
        O              6.00    15.99900     O ( 1.00)

      4 Sym. Ops. (no inversion) found

   Cartesian axes

     site n.     atom                  positions (alat units)
         1           O   tau(   1) = (   0.0000000   0.4735409  -0.0469745  )
         2           Cu  tau(   2) = (   0.0000000   0.0000000   0.0264565  )
         3           O   tau(   3) = (   0.0000000   0.0000000   0.5030914  )
         4           Ba  tau(   4) = (   0.5000000   0.4735409   0.5690292  )
         5           Cu  tau(   5) = (   0.0000000   0.0000000   1.0374254  )
         6           O   tau(   6) = (   0.5000000   0.0000000   1.0768099  )
         7           O   tau(   7) = (   0.0000000   0.4735409   1.1116985  )
         8           Ca  tau(   8) = (   0.5000000   0.4735409   1.4976260  )
         9           O   tau(   9) = (   0.0000000   0.4735409   1.8667529  )
        10           O   tau(  10) = (   0.5000000   0.0000000   1.9044124  )
        11           Cu  tau(  11) = (   0.0000000   0.0000000   1.9512546  )
        12           Ba  tau(  12) = (   0.5000000   0.4735409   2.4295764  )
        13           O   tau(  13) = (   0.0000000   0.0000000   2.5115362  )
        14           O   tau(  14) = (   0.0000000   0.4735409   2.9918528  )
        15           Cu  tau(  15) = (   0.0000000   0.0000000   2.9919088  )
        16           O   tau(  16) = (   0.0000000   0.0000000   3.4722686  )
        17           Ba  tau(  17) = (   0.5000000   0.4735409   3.5542208  )
        18           Cu  tau(  18) = (   0.0000000   0.0000000   5.3047181  )
        19           O   tau(  19) = (   0.5000000   0.0000000   5.3515603  )
        20           O   tau(  20) = (   0.0000000   0.4735409   5.3892147  )
        21           Ca  tau(  21) = (   0.5000000   0.4735409   5.7583518  )
        22           O   tau(  22) = (   0.0000000   0.4735409   6.1442767  )
        23           O   tau(  23) = (   0.5000000   0.0000000   6.1791653  )
        24           Cu  tau(  24) = (   0.0000000   0.0000000   6.2185525  )
        25           Ba  tau(  25) = (   0.5000000   0.4735409   6.6869461  )
        26           O   tau(  26) = (   0.0000000   0.0000000   6.7528737  )
        27           Cu  tau(  27) = (   0.0000000   0.0000000   7.2295136  )
        28           O   tau(  28) = (   0.0000000   0.4735409   7.3029319  )

     number of k points=    25  Gaussian smearing, width (Ry)=  0.0100
                       cart. coord. in units 2pi/alat
        k(    1) = (   0.0000000   0.0000000   0.0000000), wk =   0.0312500
        k(    2) = (   0.0000000   0.1319845   0.0000000), wk =   0.0625000
        k(    3) = (   0.0000000   0.2639689   0.0000000), wk =   0.0625000
        k(    4) = (   0.0000000   0.3959534   0.0000000), wk =   0.0625000
        k(    5) = (   0.0000000  -0.5279378   0.0000000), wk =   0.0312500
        k(    6) = (   0.1250000   0.0000000   0.0000000), wk =   0.0625000
        k(    7) = (   0.1250000   0.1319845   0.0000000), wk =   0.1250000
        k(    8) = (   0.1250000   0.2639689   0.0000000), wk =   0.1250000
        k(    9) = (   0.1250000   0.3959534   0.0000000), wk =   0.1250000
        k(   10) = (   0.1250000  -0.5279378   0.0000000), wk =   0.0625000
        k(   11) = (   0.2500000   0.0000000   0.0000000), wk =   0.0625000
        k(   12) = (   0.2500000   0.1319845   0.0000000), wk =   0.1250000
        k(   13) = (   0.2500000   0.2639689   0.0000000), wk =   0.1250000
        k(   14) = (   0.2500000   0.3959534   0.0000000), wk =   0.1250000
        k(   15) = (   0.2500000  -0.5279378   0.0000000), wk =   0.0625000
        k(   16) = (   0.3750000   0.0000000   0.0000000), wk =   0.0625000
        k(   17) = (   0.3750000   0.1319845   0.0000000), wk =   0.1250000
        k(   18) = (   0.3750000   0.2639689   0.0000000), wk =   0.1250000
        k(   19) = (   0.3750000   0.3959534   0.0000000), wk =   0.1250000
        k(   20) = (   0.3750000  -0.5279378   0.0000000), wk =   0.0625000
        k(   21) = (  -0.5000000   0.0000000   0.0000000), wk =   0.0312500
        k(   22) = (  -0.5000000   0.1319845   0.0000000), wk =   0.0625000
        k(   23) = (  -0.5000000   0.2639689   0.0000000), wk =   0.0625000
        k(   24) = (  -0.5000000   0.3959534   0.0000000), wk =   0.0625000
        k(   25) = (  -0.5000000  -0.5279378   0.0000000), wk =   0.0312500

     Initial potential from superposition of free atoms

     starting charge  226.84630, renormalised to  227.00000

     negative rho (up, down):  3.436E-03 0.000E+00
     Starting wfcs are  195 randomized atomic wfcs

     Self-consistent Calculation

     iteration #  1     ecut=    60.00 Ry     beta= 0.50
     Davidson diagonalization with overlap
     ethr =  1.00E-02,  avg # of iterations =  2.0

     negative rho (up, down):  4.898E-04 0.000E+00

     total energy              =   -1840.69403751 Ry
     Harris-Foulkes estimate   =   -1845.42774568 Ry
     estimated scf accuracy    <      22.29680356 Ry

[...]

     iteration # 12     ecut=    60.00 Ry     beta= 0.50
     Davidson diagonalization with overlap
     c_bands:  1 eigenvalues not converged
     ethr =  4.23E-05,  avg # of iterations =  7.6

[...]

     iteration # 22     ecut=    60.00 Ry     beta= 0.50
     Davidson diagonalization with overlap
     c_bands:  2 eigenvalues not converged
     ethr =  7.57E-07,  avg # of iterations =  5.8

[...]

     total energy              =   -1842.78988128 Ry
     Harris-Foulkes estimate   =   -1842.78988129 Ry
     estimated scf accuracy    <       0.00000002 Ry

     iteration # 35     ecut=    60.00 Ry     beta= 0.50
     Davidson diagonalization with overlap
     ethr =  7.61E-12,  avg # of iterations =  1.1

[...]

     End of self-consistent calculation

          k = 0.0000 0.0000 0.0000 ( 37745 PWs)   bands (ev):

   -36.0527 -35.8287 -25.1885 -23.2394 -23.2355 -23.0917 -17.5564 -17.3110
   -17.1037 -17.0925 -16.8958 -16.8741 -15.7654 -15.6209 -15.6025 -15.1213
   -15.1112 -15.0365 -14.7496 -14.6386 -14.6287 -14.6197 -14.4374 -14.3970
   -14.2956 -14.2597 -13.8617 -10.4844 -10.0057  -9.9359  -8.3720  -8.3647
    -8.3330  -8.3301  -8.2797  -8.1402  -8.1363  -8.1353  -7.9676  -2.7793
    -2.7772  -2.7598  -2.2800  -2.2681  -2.2374  -2.1268  -2.0732  -2.0078
    -1.9494  -1.9370  -1.8213  -1.8097  -1.6701  -1.6674  -1.6211  -1.4887
    -1.4556  -1.3529  -0.9077  -0.9057  -0.8601  -0.8286  -0.8239  -0.7995
    -0.7474  -0.7139  -0.7117  -0.7080  -0.7076  -0.6977  -0.6144  -0.5654
    -0.5439  -0.5108  -0.4858  -0.4848  -0.4380  -0.3508  -0.3500  -0.3481
    -0.3433  -0.3289  -0.2784  -0.2365  -0.1719  -0.1348  -0.0109   0.0400
     0.1778   0.2797   0.3477   0.4339   0.4344   0.4789   0.4857   0.5649
     0.7250   0.7895   0.8154   0.9026   0.9040   0.9274   0.9355   0.9597
     1.0503   1.0720   1.1056   1.3478   1.3610   1.5012   1.5783   1.5817
     1.5875   1.6543   1.6963   1.7123   1.7789   2.0807   2.0850   3.2174
     4.1814   4.7656   4.7691   5.3287   5.6022   5.9536   6.3036   6.3161
     6.4933   6.6843   6.9394   7.5299   7.6304   7.6736   7.7640   7.8408
     7.9577

[...]

          k = 0.3750-0.5279 0.0000 ( 37708 PWs)   bands (ev):

[...]

          k =-0.5000 0.0000 0.0000 ( 37590 PWs)   bands (ev):

[...]

          k =-0.5000-0.5279 0.0000 ( 37732 PWs)   bands (ev):

   -36.0330 -35.8089 -24.9744 -22.9665 -22.9626 -22.8292 -17.4783 -17.4696
   -17.2777 -17.2499 -17.0931 -16.8388 -15.0633 -15.0602 -15.0043 -14.9258
   -14.8936 -14.8188 -14.7257 -14.6244 -14.5625 -14.5055 -14.5021 -14.4920
   -14.4038 -14.2581 -13.8838 -11.0534 -10.5572 -10.3605  -9.1994  -9.1947
    -9.0488  -8.9313  -8.9285  -8.7068  -8.4657  -8.4587  -8.3613  -4.5464
    -4.4815  -4.3135  -4.1923  -3.8111  -3.6108  -3.6086  -3.1829  -3.1816
    -3.0403  -2.7628  -2.7506  -2.7383  -2.7355  -2.7327  -2.6580  -2.4421
    -2.4200  -2.2122  -1.9938  -1.7996  -1.7894  -1.6237  -1.6004  -1.4783
    -1.4462  -1.4317  -1.4299  -1.3623  -1.3603  -1.2385  -1.2257  -1.0726
    -0.9024  -0.7794  -0.7768  -0.2225  -0.2216  -0.1375   0.0958   0.3545
     0.3629   0.5911   0.7675   0.7780   0.8953   0.9057   0.9059   0.9633
     0.9758   1.0004   1.1544   1.1724   1.2060   1.3309   1.3758   1.4041
     1.4185   1.4503   1.4510   1.5087   1.5795   1.6180   1.6802   1.6904
     1.7363   1.7647   1.8136   1.8182   1.8921   1.8953   1.9642   2.0892
     2.0947   2.3577   3.5931   3.9442   4.2564   4.2718   4.3176   4.4703
     5.5244   5.5258   5.7591   6.0388   6.5158   6.6416   6.6634   7.1662
     8.5248   8.5829   8.6130   8.6190   8.8913   8.8956   9.0444   9.0555
     9.3041

     the Fermi energy is     2.1198 ev

!    total energy              =   -1842.78988128 Ry
     Harris-Foulkes estimate   =   -1842.78988129 Ry
     estimated scf accuracy    <          2.6E-09 Ry

     The total energy is the sum of the following terms:

     one-electron contribution =  -23625.89880500 Ry
     hartree contribution      =   11961.51103745 Ry
     xc contribution           =    -621.54781135 Ry
     ewald contribution        =   10443.15337550 Ry
     smearing contrib. (-TS)   =      -0.00767790 Ry

     convergence has been achieved in  35 iterations

     negative rho (up, down):  1.466E-03 0.000E+00

     Forces acting on atoms (cartesian axes, Ry/au):

     atom    1 type  4   force =     0.00000000    0.00000000   -0.00011586
     atom    2 type  3   force =     0.00000000    0.00000000    0.00033087
     atom    3 type  4   force =     0.00000000    0.00000000   -0.00075706
     atom    4 type  1   force =     0.00000000    0.00000000   -0.00034954
     atom    5 type  3   force =     0.00000000    0.00000000    0.00060302
     atom    6 type  4   force =     0.00000000    0.00000000    0.00026680
     atom    7 type  4   force =     0.00000000    0.00000000    0.00067414
     atom    8 type  2   force =     0.00000000    0.00000000   -0.00141475
     atom    9 type  4   force =     0.00000000    0.00000000    0.00113333
     atom   10 type  4   force =     0.00000000    0.00000000    0.00154052
     atom   11 type  3   force =     0.00000000    0.00000000   -0.00000833
     atom   12 type  1   force =     0.00000000    0.00000000   -0.00491629
     atom   13 type  4   force =     0.00000000    0.00000000    0.00755685
     atom   14 type  4   force =     0.00000000    0.00000000    0.02438031
     atom   15 type  3   force =     0.00000000    0.00000000   -0.03024566
     atom   16 type  4   force =     0.00000000    0.00000000    0.05655248
     atom   17 type  1   force =     0.00000000    0.00000000   -0.05288878
     atom   18 type  3   force =     0.00000000    0.00000000   -0.01625127
     atom   19 type  4   force =     0.00000000    0.00000000    0.01925751
     atom   20 type  4   force =     0.00000000    0.00000000    0.00849413
     atom   21 type  2   force =     0.00000000    0.00000000   -0.01856196
     atom   22 type  4   force =     0.00000000    0.00000000    0.00105177
     atom   23 type  4   force =     0.00000000    0.00000000    0.00288811
     atom   24 type  3   force =     0.00000000    0.00000000    0.00001025
     atom   25 type  1   force =     0.00000000    0.00000000    0.00010653
     atom   26 type  4   force =     0.00000000    0.00000000    0.00107491
     atom   27 type  3   force =     0.00000000    0.00000000   -0.00077454
     atom   28 type  4   force =     0.00000000    0.00000000    0.00036251

     Total force =     0.093039     Total SCF correction =     0.000220

     Computing stress (Cartesian axis) and pressure

     negative rho (up, down):  1.466E-03 0.000E+00
          total   stress  (Ry/bohr**3)                   (kbar)     P=       -7.98
  -0.00010320   0.00000000   0.00000000          -15.18        0.00        0.00
   0.00000000  -0.00003877   0.00000000            0.00       -5.70        0.00
   0.00000000   0.00000000  -0.00002077            0.00        0.00       -3.06

     General routines

     Parallel routines

   This run was terminated on:  11:49:18  21May2021

   JOB DONE.
[1621612158.092615] [holy7c10107:262427:0]          mpool.c:43   UCX  WARN  object 0x3ec6f80 was not returned to mpool ucp_requests
[1621612158.099009] [holy7c06303:114107:0]          mpool.c:43   UCX  WARN  object 0x4153380 was not returned to mpool ucp_requests
[1621612158.108374] [holy7c04309:175941:0]          mpool.c:43   UCX  WARN  object 0x39791c0 was not returned to mpool ucp_requests
[1621612158.108185] [holy7c04309:175942:0]          mpool.c:43   UCX  WARN  object 0x2aeb740 was not returned to mpool ucp_requests
[1621612158.098868] [holy7c06303:114112:0]          mpool.c:43   UCX  WARN  object 0x2ada2c0 was not returned to mpool ucp_requests
[1621612158.101403] [holy7c06303:114111:0]          mpool.c:43   UCX  WARN  object 0x2e23a40 was not returned to mpool ucp_requests
[1621612158.101425] [holy7c06303:114111:0]          mpool.c:43   UCX  WARN  object 0x2e24140 was not returned to mpool ucp_requests