     Program PWSCF v.6.5 starts on 21May2021 at 19:13:20

     R & G space division:  proc/nbgrp/npool/nimage =      20
     Reading input from CBCO_CuO_cleave_7.0_sep.pwi
Warning: card &IONS ignored
Warning: card     ION_DYNAMICS = 'BFGS' ignored
Warning: card / ignored
Warning: card &CELL ignored
Warning: card     CELL_DYNAMICS = 'BFGS' ignored
Warning: card     PRESS_CONV_THR = 5 ignored
Warning: card / ignored

     Current dimensions of program PWSCF are:
     Max number of different atomic species (ntypx) = 10
     Max number of k-points (npk) =  40000
     Max angular momentum in pseudopotentials (lmaxx) =  3

     Message from routine setup:
     using ibrav=0 with symmetry is DISCOURAGED, use correct ibrav instead

     bravais-lattice index     =            0
     lattice parameter (alat)  =       7.4270  a.u.
     unit-cell volume          =    4993.3692 (a.u.)^3
     number of atoms/cell      =           28
     number of atomic types    =            4
     number of electrons       =       227.00
     number of Kohn-Sham states=          137
     kinetic-energy cutoff     =      60.0000  Ry
     charge density cutoff     =     720.0000  Ry
     convergence threshold     =      1.0E-08
     mixing beta               =       0.5000
     number of iterations used =           10  local-TF  mixing
     Exchange-correlation= SLA PW PBE PBE
                           (   1   4   3   4   0   0   0)

     celldm(1)=   7.427040  celldm(2)=   0.000000  celldm(3)=   0.000000
     celldm(4)=   0.000000  celldm(5)=   0.000000  celldm(6)=   0.000000

     crystal axes: (cart. coord. in units of alat)
               a(1) = (   1.000000   0.000000   0.000000 )
               a(2) = (   0.000000   0.947081   0.000000 )
               a(3) = (   0.000000   0.000000  12.869427 )

     reciprocal axes: (cart. coord. in units 2 pi/alat)
               b(1) = (  1.000000  0.000000  0.000000 )
               b(2) = (  0.000000  1.055876  0.000000 )
               b(3) = (  0.000000  0.000000  0.077704 )

     PseudoPot. # 1 for Ba read from file:
     ./pseudo/Ba.pbe-nsp-van.UPF
     MD5 check sum: 2b9c31dd849566dd297d80989662b7a0
     Pseudo is Ultrasoft + core correction, Zval = 10.0
     Generated by new atomic code, or converted to UPF format
     Using radial grid of  907 points,  6 beta functions with:
                l(1) =   0
                l(2) =   0
                l(3) =   1
                l(4) =   1
                l(5) =   2
                l(6) =   2
     Q(r) pseudized with  6 coefficients,  rinner =    1.200   1.200   1.200
                                                       1.200   1.200

     PseudoPot. # 2 for Ca read from file:
     ./pseudo/Ca.pbe-nsp-van.UPF
     MD5 check sum: 6471098428ff4fa451746d08035ff179
     Pseudo is Ultrasoft + core correction, Zval = 10.0
     Generated by new atomic code, or converted to UPF format
     Using radial grid of  845 points,  6 beta functions with:
                l(1) =   0
                l(2) =   0
                l(3) =   1
                l(4) =   1
                l(5) =   2
                l(6) =   2
     Q(r) pseudized with  6 coefficients,  rinner =    1.200   1.200   1.200
                                                       1.200   1.200

     PseudoPot. # 3 for Cu read from file:
     ./pseudo/Cu.pbe-n-van_ak.UPF
     MD5 check sum: 34e3282627ffb533726feb647e090d62
     Pseudo is Ultrasoft + core correction, Zval = 11.0
     Generated by new atomic code, or converted to UPF format
     Using radial grid of  867 points,  6 beta functions with:
                l(1) =   0
                l(2) =   0
                l(3) =   1
                l(4) =   1
                l(5) =   2
                l(6) =   2
     Q(r) pseudized with  8 coefficients,  rinner =    1.400   1.400   1.400
                                                       1.400   1.400

     PseudoPot. # 4 for O  read from file:
     ./pseudo/O.pbe-van_ak.UPF
     MD5 check sum: 783ce7fe4c79b6a4916957118fed0856
     Pseudo is Ultrasoft, Zval =  6.0
     Generated by new atomic code, or converted to UPF format
     Using radial grid of  737 points,  4 beta functions with:
                l(1) =   0
                l(2) =   0
                l(3) =   1
                l(4) =   1
     Q(r) pseudized with  8 coefficients,  rinner =    0.800   0.800   0.800

     atomic species   valence    mass     pseudopotential
        Ba            10.00   137.32700     Ba( 1.00)
        Ca            10.00    40.07800     Ca( 1.00)
        Cu            11.00    63.54600     Cu( 1.00)
        O              6.00    15.99900     O ( 1.00)

      4 Sym. Ops. (no inversion) found

   Cartesian axes

     site n.     atom                  positions (alat units)
         1           O   tau(   1) = (   0.0000000   0.4735409  -0.0469745  )
         2           Cu  tau(   2) = (   0.0000000   0.0000000   0.0264565  )
         3           O   tau(   3) = (   0.0000000   0.0000000   0.5030914  )
         4           Ba  tau(   4) = (   0.5000000   0.4735409   0.5690292  )
         5           Cu  tau(   5) = (   0.0000000   0.0000000   1.0374254  )
         6           O   tau(   6) = (   0.5000000   0.0000000   1.0768099  )
         7           O   tau(   7) = (   0.0000000   0.4735409   1.1116985  )
         8           Ca  tau(   8) = (   0.5000000   0.4735409   1.4976260  )
         9           O   tau(   9) = (   0.0000000   0.4735409   1.8667529  )
        10           O   tau(  10) = (   0.5000000   0.0000000   1.9044124  )
        11           Cu  tau(  11) = (   0.0000000   0.0000000   1.9512546  )
        12           Ba  tau(  12) = (   0.5000000   0.4735409   2.4295764  )
        13           O   tau(  13) = (   0.0000000   0.0000000   2.5115362  )
        14           O   tau(  14) = (   0.0000000   0.4735409   2.9918528  )
        15           Cu  tau(  15) = (   0.0000000   0.0000000   2.9919088  )
        16           O   tau(  16) = (   0.0000000   0.0000000   5.2533393  )
        17           Ba  tau(  17) = (   0.5000000   0.4735409   5.3352915  )
        18           Cu  tau(  18) = (   0.0000000   0.0000000   5.8135955  )
        19           O   tau(  19) = (   0.5000000   0.0000000   5.8604377  )
        20           O   tau(  20) = (   0.0000000   0.4735409   5.8980920  )
        21           Ca  tau(  21) = (   0.5000000   0.4735409   6.2672291  )
        22           O   tau(  22) = (   0.0000000   0.4735409   6.6531541  )
        23           O   tau(  23) = (   0.5000000   0.0000000   6.6880427  )
        24           Cu  tau(  24) = (   0.0000000   0.0000000   6.7274298  )
        25           Ba  tau(  25) = (   0.5000000   0.4735409   7.1958234  )
        26           O   tau(  26) = (   0.0000000   0.0000000   7.2617510  )
        27           Cu  tau(  27) = (   0.0000000   0.0000000   7.7383910  )
        28           O   tau(  28) = (   0.0000000   0.4735409   7.8118093  )

     number of k points=    25  Gaussian smearing, width (Ry)=  0.0100
                       cart. coord. in units 2pi/alat
        k(    1) = (   0.0000000   0.0000000   0.0000000), wk =   0.0312500
        k(    2) = (   0.0000000   0.1319845   0.0000000), wk =   0.0625000
        k(    3) = (   0.0000000   0.2639689   0.0000000), wk =   0.0625000
        k(    4) = (   0.0000000   0.3959534   0.0000000), wk =   0.0625000
        k(    5) = (   0.0000000  -0.5279378   0.0000000), wk =   0.0312500
        k(    6) = (   0.1250000   0.0000000   0.0000000), wk =   0.0625000
        k(    7) = (   0.1250000   0.1319845   0.0000000), wk =   0.1250000
        k(    8) = (   0.1250000   0.2639689   0.0000000), wk =   0.1250000
        k(    9) = (   0.1250000   0.3959534   0.0000000), wk =   0.1250000
        k(   10) = (   0.1250000  -0.5279378   0.0000000), wk =   0.0625000
        k(   11) = (   0.2500000   0.0000000   0.0000000), wk =   0.0625000
        k(   12) = (   0.2500000   0.1319845   0.0000000), wk =   0.1250000
        k(   13) = (   0.2500000   0.2639689   0.0000000), wk =   0.1250000
        k(   14) = (   0.2500000   0.3959534   0.0000000), wk =   0.1250000
        k(   15) = (   0.2500000  -0.5279378   0.0000000), wk =   0.0625000
        k(   16) = (   0.3750000   0.0000000   0.0000000), wk =   0.0625000
        k(   17) = (   0.3750000   0.1319845   0.0000000), wk =   0.1250000
        k(   18) = (   0.3750000   0.2639689   0.0000000), wk =   0.1250000
        k(   19) = (   0.3750000   0.3959534   0.0000000), wk =   0.1250000
        k(   20) = (   0.3750000  -0.5279378   0.0000000), wk =   0.0625000
        k(   21) = (  -0.5000000   0.0000000   0.0000000), wk =   0.0312500
        k(   22) = (  -0.5000000   0.1319845   0.0000000), wk =   0.0625000
        k(   23) = (  -0.5000000   0.2639689   0.0000000), wk =   0.0625000
        k(   24) = (  -0.5000000   0.3959534   0.0000000), wk =   0.0625000
        k(   25) = (  -0.5000000  -0.5279378   0.0000000), wk =   0.0312500

     Initial potential from superposition of free atoms

     starting charge  226.84630, renormalised to  227.00000

     negative rho (up, down):  3.400E-03 0.000E+00
     Starting wfcs are  195 randomized atomic wfcs

     Self-consistent Calculation

     iteration #  1     ecut=    60.00 Ry     beta= 0.50
     Davidson diagonalization with overlap
     ethr =  1.00E-02,  avg # of iterations =  2.0

     negative rho (up, down):  4.749E-04 0.000E+00

     total energy              =   -1840.74754817 Ry
     Harris-Foulkes estimate   =   -1845.36769084 Ry
     estimated scf accuracy    <      20.21807567 Ry

[...]

     iteration # 20     ecut=    60.00 Ry     beta= 0.50
     Davidson diagonalization with overlap
     c_bands:  1 eigenvalues not converged
     c_bands:  1 eigenvalues not converged
     ethr =  2.83E-06,  avg # of iterations = 11.2

[...]

     iteration # 26     ecut=    60.00 Ry     beta= 0.50
     Davidson diagonalization with overlap
     c_bands:  1 eigenvalues not converged
     ethr =  2.77E-07,  avg # of iterations =  8.8

[...]

     total energy              =   -1842.78420988 Ry
     Harris-Foulkes estimate   =   -1842.78420987 Ry
     estimated scf accuracy    <       0.00000001 Ry

     iteration # 38     ecut=    60.00 Ry     beta= 0.50
     Davidson diagonalization with overlap
     ethr =  4.42E-12,  avg # of iterations =  2.0

[...]

     End of self-consistent calculation

          k = 0.0000 0.0000 0.0000 ( 39281 PWs)   bands (ev):

   -36.5653 -36.5406 -23.7228 -23.7191 -23.5744 -23.5718 -18.0660 -18.0469
   -17.6169 -17.6067 -17.5935 -17.5798 -16.2630 -16.2537 -15.6080 -15.6034
   -15.5879 -15.5378 -15.5267 -15.1097 -15.1070 -14.9348 -14.9221 -14.8361
   -14.7986 -14.7834 -13.6202  -8.8553  -8.8552  -8.8180  -8.8162  -8.8129
    -8.7085  -8.6336  -8.6234  -8.6199  -8.5429  -8.4606  -8.3426  -3.2566
    -3.2564  -2.9346  -2.7829  -2.7812  -2.7575  -2.7527  -2.6281  -2.6111
    -2.5155  -2.4951  -2.4625  -2.4514  -2.1472  -2.1432  -1.7982  -1.3862
    -1.3841  -1.3077  -1.3026  -1.3014  -1.2776  -1.2514  -1.2354  -1.2183
    -1.2156  -1.1983  -1.1938  -1.1928  -1.1904  -1.1321  -1.1185  -0.9675
    -0.9638  -0.9398  -0.8679  -0.8426  -0.8392  -0.8321  -0.8274  -0.8246
    -0.7826  -0.7720  -0.7634  -0.7473  -0.7264  -0.6954  -0.6439  -0.5967
    -0.4219  -0.1465  -0.0514  -0.0468  -0.0436  -0.0030   0.0356   0.2328
     0.2375   0.3937   0.4169   0.4281   0.4442   0.5252   0.5487   0.5692
     0.5777   0.5948   0.6005   0.8604   0.8893   0.9374   1.0965   1.1116
     1.1494   1.2906   1.4079   1.4086   1.5144   1.6049   1.6160   4.1518
     4.2909   4.3008   5.1043   5.2365   5.4884   5.8167   5.8288   5.9384
     6.0462   6.9152   7.0584   7.1581   7.3514   7.3885   7.6037   7.6621
     7.7507

[...]

          k = 0.3750-0.5279 0.0000 ( 39212 PWs)   bands (ev):

[...]

          k =-0.5000 0.0000 0.0000 ( 39178 PWs)   bands (ev):

[...]

          k =-0.5000-0.5279 0.0000 ( 39284 PWs)   bands (ev):

   -36.5457 -36.5209 -23.4499 -23.4462 -23.3346 -23.3066 -17.9908 -17.9836
   -17.9717 -17.9570 -17.6042 -17.5822 -15.5409 -15.5395 -15.3941 -15.3926
   -15.2257 -15.2160 -15.2018 -15.0739 -15.0719 -14.9875 -14.9830 -14.9786
   -14.9136 -14.8767 -13.7335  -9.6828  -9.6791  -9.5444  -9.4145  -9.4113
    -9.3678  -9.2077  -9.1534  -8.9491  -8.9454  -8.8415  -8.7918  -5.0445
    -5.0210  -4.7447  -4.6905  -4.3229  -4.0888  -4.0849  -3.6683  -3.6611
    -3.5543  -3.5384  -3.2348  -3.2189  -3.2141  -3.2131  -2.9102  -2.8978
    -2.8890  -2.3324  -2.2843  -2.2578  -2.1145  -2.1053  -1.9753  -1.9565
    -1.9557  -1.9100  -1.9069  -1.8961  -1.8903  -1.8212  -1.7640  -1.2564
    -1.2543  -1.2382  -1.1325  -0.7230  -0.5726  -0.4693  -0.1015   0.0100
     0.1899   0.4051   0.4084   0.4099   0.4143   0.4442   0.4538   0.5187
     0.6715   0.6730   0.6735   0.6912   0.7165   0.9107   0.9407   0.9603
     0.9727   1.0462   1.0647   1.1016   1.1362   1.1371   1.2336   1.2414
     1.4101   1.4136   1.4576   1.4680   1.4918   1.5177   1.5941   1.6006
     1.6508   1.6568   2.0110   3.7422   3.7453   3.8135   3.8148   5.0428
     5.0456   5.1470   6.1045   6.1714   7.3390   7.4261   8.0912   8.0959
     8.1094   8.1873   8.4431   8.4514   8.4578   8.6167   8.6890   8.8897
     8.8974

     the Fermi energy is     1.6392 ev

!    total energy              =   -1842.78420989 Ry
     Harris-Foulkes estimate   =   -1842.78420988 Ry
     estimated scf accuracy    <          2.8E-09 Ry

     The total energy is the sum of the following terms:

     one-electron contribution =  -21176.41786632 Ry
     hartree contribution      =   10733.66013690 Ry
     xc contribution           =    -621.62257161 Ry
     ewald contribution        =    9221.60783473 Ry
     smearing contrib. (-TS)   =      -0.01174360 Ry

     convergence has been achieved in  38 iterations

     negative rho (up, down):  1.560E-03 0.000E+00

     Forces acting on atoms (cartesian axes, Ry/au):

     atom    1 type  4   force =     0.00000000    0.00000000   -0.00038248
     atom    2 type  3   force =     0.00000000    0.00000000    0.00041681
     atom    3 type  4   force =     0.00000000    0.00000000   -0.00072032
     atom    4 type  1   force =     0.00000000    0.00000000   -0.00053514
     atom    5 type  3   force =     0.00000000    0.00000000    0.00049097
     atom    6 type  4   force =     0.00000000    0.00000000    0.00093949
     atom    7 type  4   force =     0.00000000    0.00000000    0.00114286
     atom    8 type  2   force =     0.00000000    0.00000000   -0.00277851
     atom    9 type  4   force =     0.00000000    0.00000000    0.00483192
     atom   10 type  4   force =     0.00000000    0.00000000    0.00412819
     atom   11 type  3   force =     0.00000000    0.00000000    0.00116916
     atom   12 type  1   force =     0.00000000    0.00000000    0.00976297
     atom   13 type  4   force =     0.00000000    0.00000000   -0.01984904
     atom   14 type  4   force =     0.00000000    0.00000000    0.03628194
     atom   15 type  3   force =     0.00000000    0.00000000   -0.03489689
     atom   16 type  4   force =     0.00000000    0.00000000    0.02580447
     atom   17 type  1   force =     0.00000000    0.00000000   -0.00239827
     atom   18 type  3   force =     0.00000000    0.00000000   -0.02042225
     atom   19 type  4   force =     0.00000000    0.00000000   -0.00160311
     atom   20 type  4   force =     0.00000000    0.00000000   -0.00229595
     atom   21 type  2   force =     0.00000000    0.00000000    0.00259227
     atom   22 type  4   force =     0.00000000    0.00000000   -0.00176817
     atom   23 type  4   force =     0.00000000    0.00000000   -0.00020289
     atom   24 type  3   force =     0.00000000    0.00000000   -0.00025429
     atom   25 type  1   force =     0.00000000    0.00000000    0.00038310
     atom   26 type  4   force =     0.00000000    0.00000000    0.00024891
     atom   27 type  3   force =     0.00000000    0.00000000   -0.00000083
     atom   28 type  4   force =     0.00000000    0.00000000   -0.00008492

     Total force =     0.064678     Total SCF correction =     0.000160

     Computing stress (Cartesian axis) and pressure

     negative rho (up, down):  1.560E-03 0.000E+00
          total   stress  (Ry/bohr**3)                   (kbar)     P=       -5.14
   0.00000724   0.00000000   0.00000000            1.06        0.00        0.00
   0.00000000  -0.00008343   0.00000000            0.00      -12.27        0.00
   0.00000000   0.00000000  -0.00002862            0.00        0.00       -4.21

     General routines

     Parallel routines

   This run was terminated on:  19:26:23  21May2021

   JOB DONE.
[1621639583.940158] [holy7c06102:191582:0]          mpool.c:43   UCX  WARN  object 0x328b880 was not returned to mpool ucp_requests
[1621639583.949471] [holy7c06410:136543:0]          mpool.c:43   UCX  WARN  object 0x425ee00 was not returned to mpool ucp_requests
[1621639583.948669] [holy7c04503:40896:0]          mpool.c:43   UCX  WARN  object 0x2ec9580 was not returned to mpool ucp_requests
[1621639583.952046] [holy7c06503:141871:0]          mpool.c:43   UCX  WARN  object 0x3c0ccc0 was not returned to mpool ucp_requests
[1621639583.952065] [holy7c06503:141871:0]          mpool.c:43   UCX  WARN  object 0x3c0d040 was not returned to mpool ucp_requests
[1621639583.950095] [holy7c06501:248347:0]          mpool.c:43   UCX  WARN  object 0x3ef0f00 was not returned to mpool ucp_requests
[1621639583.941528] [holy7c06407:123580:0]          mpool.c:43   UCX  WARN  object 0x2edb700 was not returned to mpool ucp_requests
[1621639583.941550] [holy7c06407:123580:0]          mpool.c:43   UCX  WARN  object 0x2edbc40 was not returned to mpool ucp_requests
[1621639583.951500] [holy7c06501:248346:0]          mpool.c:43   UCX  WARN  object 0x28d9640 was not returned to mpool ucp_requests
[1621639583.951520] [holy7c06501:248346:0]          mpool.c:43   UCX  WARN  object 0x28d9800 was not returned to mpool ucp_requests