     Program PWSCF v.6.5 starts on 21May2021 at 22:36:36

     R & G space division:  proc/nbgrp/npool/nimage =      20
     Reading input from CBCO_CuO_cleave_2.75_sep.pwi
Warning: card &IONS ignored
Warning: card     ION_DYNAMICS = 'BFGS' ignored
Warning: card / ignored
Warning: card &CELL ignored
Warning: card     CELL_DYNAMICS = 'BFGS' ignored
Warning: card     PRESS_CONV_THR = 5 ignored
Warning: card / ignored

     Current dimensions of program PWSCF are:
     Max number of different atomic species (ntypx) = 10
     Max number of k-points (npk) =  40000
     Max angular momentum in pseudopotentials (lmaxx) =  3

     Message from routine setup:
     using ibrav=0 with symmetry is DISCOURAGED, use correct ibrav instead

     bravais-lattice index     =            0
     lattice parameter (alat)  =       7.4270  a.u.
     unit-cell volume          =    4573.7972 (a.u.)^3
     number of atoms/cell      =           28
     number of atomic types    =            4
     number of electrons       =       227.00
     number of Kohn-Sham states=          137
     kinetic-energy cutoff     =      60.0000  Ry
     charge density cutoff     =     720.0000  Ry
     convergence threshold     =      1.0E-08
     mixing beta               =       0.5000
     number of iterations used =           10  local-TF  mixing
     Exchange-correlation= SLA PW PBE PBE
                           (   1   4   3   4   0   0   0)

     celldm(1)=   7.427040  celldm(2)=   0.000000  celldm(3)=   0.000000
     celldm(4)=   0.000000  celldm(5)=   0.000000  celldm(6)=   0.000000

     crystal axes: (cart. coord. in units of alat)
               a(1) = (   1.000000   0.000000   0.000000 )
               a(2) = (   0.000000   0.947081   0.000000 )
               a(3) = (   0.000000   0.000000  11.788063 )

     reciprocal axes: (cart. coord. in units 2 pi/alat)
               b(1) = (  1.000000  0.000000  0.000000 )
               b(2) = (  0.000000  1.055876  0.000000 )
               b(3) = (  0.000000  0.000000  0.084832 )

     PseudoPot. # 1 for Ba read from file:
     ./pseudo/Ba.pbe-nsp-van.UPF
     MD5 check sum: 2b9c31dd849566dd297d80989662b7a0
     Pseudo is Ultrasoft + core correction, Zval = 10.0
     Generated by new atomic code, or converted to UPF format
     Using radial grid of  907 points,  6 beta functions with:
                l(1) =   0
                l(2) =   0
                l(3) =   1
                l(4) =   1
                l(5) =   2
                l(6) =   2
     Q(r) pseudized with  6 coefficients,  rinner =    1.200   1.200   1.200
                                                       1.200   1.200

     PseudoPot. # 2 for Ca read from file:
     ./pseudo/Ca.pbe-nsp-van.UPF
     MD5 check sum: 6471098428ff4fa451746d08035ff179
     Pseudo is Ultrasoft + core correction, Zval = 10.0
     Generated by new atomic code, or converted to UPF format
     Using radial grid of  845 points,  6 beta functions with:
                l(1) =   0
                l(2) =   0
                l(3) =   1
                l(4) =   1
                l(5) =   2
                l(6) =   2
     Q(r) pseudized with  6 coefficients,  rinner =    1.200   1.200   1.200
                                                       1.200   1.200

     PseudoPot. # 3 for Cu read from file:
     ./pseudo/Cu.pbe-n-van_ak.UPF
     MD5 check sum: 34e3282627ffb533726feb647e090d62
     Pseudo is Ultrasoft + core correction, Zval = 11.0
     Generated by new atomic code, or converted to UPF format
     Using radial grid of  867 points,  6 beta functions with:
                l(1) =   0
                l(2) =   0
                l(3) =   1
                l(4) =   1
                l(5) =   2
                l(6) =   2
     Q(r) pseudized with  8 coefficients,  rinner =    1.400   1.400   1.400
                                                       1.400   1.400

     PseudoPot. # 4 for O  read from file:
     ./pseudo/O.pbe-van_ak.UPF
     MD5 check sum: 783ce7fe4c79b6a4916957118fed0856
     Pseudo is Ultrasoft, Zval =  6.0
     Generated by new atomic code, or converted to UPF format
     Using radial grid of  737 points,  4 beta functions with:
                l(1) =   0
                l(2) =   0
                l(3) =   1
                l(4) =   1
     Q(r) pseudized with  8 coefficients,  rinner =    0.800   0.800   0.800

     atomic species   valence    mass     pseudopotential
        Ba            10.00   137.32700     Ba( 1.00)
        Ca            10.00    40.07800     Ca( 1.00)
        Cu            11.00    63.54600     Cu( 1.00)
        O              6.00    15.99900     O ( 1.00)

      4 Sym. Ops. (no inversion) found

   Cartesian axes

     site n.     atom                  positions (alat units)
         1           O   tau(   1) = (   0.0000000   0.4735409  -0.0469745  )
         2           Cu  tau(   2) = (   0.0000000   0.0000000   0.0264565  )
         3           O   tau(   3) = (   0.0000000   0.0000000   0.5030914  )
         4           Ba  tau(   4) = (   0.5000000   0.4735409   0.5690292  )
         5           Cu  tau(   5) = (   0.0000000   0.0000000   1.0374254  )
         6           O   tau(   6) = (   0.5000000   0.0000000   1.0768099  )
         7           O   tau(   7) = (   0.0000000   0.4735409   1.1116985  )
         8           Ca  tau(   8) = (   0.5000000   0.4735409   1.4976260  )
         9           O   tau(   9) = (   0.0000000   0.4735409   1.8667529  )
        10           O   tau(  10) = (   0.5000000   0.0000000   1.9044124  )
        11           Cu  tau(  11) = (   0.0000000   0.0000000   1.9512546  )
        12           Ba  tau(  12) = (   0.5000000   0.4735409   2.4295764  )
        13           O   tau(  13) = (   0.0000000   0.0000000   2.5115362  )
        14           O   tau(  14) = (   0.0000000   0.4735409   2.9918528  )
        15           Cu  tau(  15) = (   0.0000000   0.0000000   2.9919088  )
        16           O   tau(  16) = (   0.0000000   0.0000000   4.1719750  )
        17           Ba  tau(  17) = (   0.5000000   0.4735409   4.2539271  )
        18           Cu  tau(  18) = (   0.0000000   0.0000000   4.7322311  )
        19           O   tau(  19) = (   0.5000000   0.0000000   4.7790733  )
        20           O   tau(  20) = (   0.0000000   0.4735409   4.8167277  )
        21           Ca  tau(  21) = (   0.5000000   0.4735409   5.1858647  )
        22           O   tau(  22) = (   0.0000000   0.4735409   5.5717897  )
        23           O   tau(  23) = (   0.5000000   0.0000000   5.6066783  )
        24           Cu  tau(  24) = (   0.0000000   0.0000000   5.6460654  )
        25           Ba  tau(  25) = (   0.5000000   0.4735409   6.1144590  )
        26           O   tau(  26) = (   0.0000000   0.0000000   6.1803867  )
        27           Cu  tau(  27) = (   0.0000000   0.0000000   6.6570266  )
        28           O   tau(  28) = (   0.0000000   0.4735409   6.7304449  )

     number of k points=    25  Gaussian smearing, width (Ry)=  0.0100
                       cart. coord. in units 2pi/alat
        k(    1) = (   0.0000000   0.0000000   0.0000000), wk =   0.0312500
        k(    2) = (   0.0000000   0.1319845   0.0000000), wk =   0.0625000
        k(    3) = (   0.0000000   0.2639689   0.0000000), wk =   0.0625000
        k(    4) = (   0.0000000   0.3959534   0.0000000), wk =   0.0625000
        k(    5) = (   0.0000000  -0.5279378   0.0000000), wk =   0.0312500
        k(    6) = (   0.1250000   0.0000000   0.0000000), wk =   0.0625000
        k(    7) = (   0.1250000   0.1319845   0.0000000), wk =   0.1250000
        k(    8) = (   0.1250000   0.2639689   0.0000000), wk =   0.1250000
        k(    9) = (   0.1250000   0.3959534   0.0000000), wk =   0.1250000
        k(   10) = (   0.1250000  -0.5279378   0.0000000), wk =   0.0625000
        k(   11) = (   0.2500000   0.0000000   0.0000000), wk =   0.0625000
        k(   12) = (   0.2500000   0.1319845   0.0000000), wk =   0.1250000
        k(   13) = (   0.2500000   0.2639689   0.0000000), wk =   0.1250000
        k(   14) = (   0.2500000   0.3959534   0.0000000), wk =   0.1250000
        k(   15) = (   0.2500000  -0.5279378   0.0000000), wk =   0.0625000
        k(   16) = (   0.3750000   0.0000000   0.0000000), wk =   0.0625000
        k(   17) = (   0.3750000   0.1319845   0.0000000), wk =   0.1250000
        k(   18) = (   0.3750000   0.2639689   0.0000000), wk =   0.1250000
        k(   19) = (   0.3750000   0.3959534   0.0000000), wk =   0.1250000
        k(   20) = (   0.3750000  -0.5279378   0.0000000), wk =   0.0625000
        k(   21) = (  -0.5000000   0.0000000   0.0000000), wk =   0.0312500
        k(   22) = (  -0.5000000   0.1319845   0.0000000), wk =   0.0625000
        k(   23) = (  -0.5000000   0.2639689   0.0000000), wk =   0.0625000
        k(   24) = (  -0.5000000   0.3959534   0.0000000), wk =   0.0625000
        k(   25) = (  -0.5000000  -0.5279378   0.0000000), wk =   0.0312500

     Initial potential from superposition of free atoms

     starting charge  226.84630, renormalised to  227.00000

     negative rho (up, down):  3.422E-03 0.000E+00
     Starting wfcs are  195 randomized atomic wfcs

     Self-consistent Calculation

     iteration #  1     ecut=    60.00 Ry     beta= 0.50
     Davidson diagonalization with overlap
     ethr =  1.00E-02,  avg # of iterations =  2.0

     negative rho (up, down):  4.822E-04 0.000E+00

     total energy              =   -1840.73221237 Ry
     Harris-Foulkes estimate   =   -1845.36106237 Ry
     estimated scf accuracy    <      19.31105008 Ry

[...]

     iteration # 19     ecut=    60.00 Ry     beta= 0.50
     Davidson diagonalization with overlap
     c_bands:  1 eigenvalues not converged
     ethr =  2.84E-06,  avg # of iterations =  7.0

[...]

     iteration # 25     ecut=    60.00 Ry     beta= 0.50
     Davidson diagonalization with overlap
     c_bands:  1 eigenvalues not converged
     ethr =  2.51E-08,  avg # of iterations =  5.3

[...]

     total energy              =   -1842.78668611 Ry
     Harris-Foulkes estimate   =   -1842.78668610 Ry
     estimated scf accuracy    <       0.00000003 Ry

     iteration # 35     ecut=    60.00 Ry     beta= 0.50
     Davidson diagonalization with overlap
     ethr =  1.02E-11,  avg # of iterations =  1.0

[...]

     End of self-consistent calculation

          k = 0.0000 0.0000 0.0000 ( 35977 PWs)   bands (ev):

   -35.9753 -35.9508 -23.1327 -23.1293 -22.9841 -22.9535 -17.4760 -17.4569
   -17.0269 -17.0167 -17.0039 -16.9900 -15.6730 -15.6639 -15.0184 -15.0134
   -15.0052 -14.9478 -14.9368 -14.5196 -14.5170 -14.3447 -14.3322 -14.2495
   -14.2092 -14.1934 -13.0327  -8.2652  -8.2624  -8.2261  -8.2230  -8.1902
    -8.1214  -8.0457  -8.0334  -8.0300  -7.9250  -7.8727  -7.7251  -2.6664
    -2.6663  -2.3439  -2.1952  -2.1914  -2.1675  -2.1632  -2.0381  -2.0213
    -1.9254  -1.9055  -1.8726  -1.8627  -1.5570  -1.5531  -1.2140  -0.7960
    -0.7940  -0.7175  -0.7159  -0.7114  -0.6877  -0.6657  -0.6455  -0.6289
    -0.6283  -0.6095  -0.6039  -0.6026  -0.6004  -0.5430  -0.5284  -0.3773
    -0.3737  -0.3515  -0.2780  -0.2592  -0.2491  -0.2424  -0.2372  -0.2345
    -0.1944  -0.1804  -0.1737  -0.1604  -0.1366  -0.1093  -0.0552  -0.0067
     0.1493   0.4374   0.5245   0.5434   0.5464   0.5867   0.6249   0.8228
     0.8269   0.9837   1.0069   1.0178   1.0341   1.1152   1.1380   1.1592
     1.1677   1.1855   1.1905   1.4503   1.4793   1.5271   1.6865   1.7016
     1.7391   1.8773   2.0002   2.0073   2.1063   2.1949   2.2070   4.6460
     4.8804   4.8883   5.7756   5.8659   6.3858   6.4132   6.4715   6.6615
     7.1832   7.6293   7.7738   7.8504   8.0545   8.1892   8.2406   8.3333
     8.7582

[...]

          k = 0.3750-0.5279 0.0000 ( 35952 PWs)   bands (ev):

[...]

          k =-0.5000 0.0000 0.0000 ( 35878 PWs)   bands (ev):

[...]

          k =-0.5000-0.5279 0.0000 ( 36012 PWs)   bands (ev):

   -35.9556 -35.9311 -22.8599 -22.8564 -22.7189 -22.7131 -17.4008 -17.3935
   -17.3822 -17.3673 -17.0141 -16.9923 -14.9509 -14.9493 -14.8048 -14.8027
   -14.6355 -14.6259 -14.6115 -14.4846 -14.4828 -14.4081 -14.3935 -14.3886
   -14.3235 -14.2860 -13.1465  -9.0927  -9.0892  -8.9564  -8.8244  -8.8214
    -8.7512  -8.6201  -8.5357  -8.3590  -8.3551  -8.2120  -8.2046  -4.4545
    -4.4315  -4.1548  -4.1019  -3.7388  -3.4986  -3.4949  -3.0781  -3.0711
    -2.9643  -2.9510  -2.6450  -2.6282  -2.6239  -2.6230  -2.3206  -2.3069
    -2.2984  -1.7461  -1.6946  -1.6699  -1.5252  -1.5157  -1.3852  -1.3730
    -1.3668  -1.3198  -1.3169  -1.3090  -1.3007  -1.2313  -1.1768  -0.6662
    -0.6642  -0.6540  -0.5429  -0.1329   0.0175   0.1210   0.4881   0.6001
     0.7791   0.9951   0.9976   1.0000   1.0042   1.0341   1.0421   1.1078
     1.2601   1.2629   1.2631   1.2811   1.3046   1.5007   1.5302   1.5503
     1.5627   1.6354   1.6543   1.6901   1.7263   1.7272   1.8236   1.8314
     2.0003   2.0036   2.0469   2.0579   2.0685   2.1002   2.1838   2.1972
     2.2404   2.2499   2.5951   4.3302   4.3354   4.4036   4.4043   5.6327
     5.6356   5.6980   6.6935   6.7603   7.9912   8.0861   8.6574   8.6861
     8.6995   8.7574   8.9676   9.0374   9.1173   9.1534   9.4834   9.4873
     9.4911

     the Fermi energy is     2.2294 ev

!    total energy              =   -1842.78668609 Ry
     Harris-Foulkes estimate   =   -1842.78668611 Ry
     estimated scf accuracy    <          7.2E-09 Ry

     The total energy is the sum of the following terms:

     one-electron contribution =  -25786.99738042 Ry
     hartree contribution      =   13043.87417159 Ry
     xc contribution           =    -621.62119782 Ry
     ewald contribution        =   11521.96946103 Ry
     smearing contrib. (-TS)   =      -0.01174046 Ry

     convergence has been achieved in  35 iterations

     negative rho (up, down):  1.519E-03 0.000E+00

     Forces acting on atoms (cartesian axes, Ry/au):

     atom    1 type  4   force =     0.00000000    0.00000000   -0.00037696
     atom    2 type  3   force =     0.00000000    0.00000000    0.00055939
     atom    3 type  4   force =     0.00000000    0.00000000   -0.00074055
     atom    4 type  1   force =     0.00000000    0.00000000   -0.00053742
     atom    5 type  3   force =     0.00000000    0.00000000    0.00043657
     atom    6 type  4   force =     0.00000000    0.00000000    0.00094131
     atom    7 type  4   force =     0.00000000    0.00000000    0.00114870
     atom    8 type  2   force =     0.00000000    0.00000000   -0.00279477
     atom    9 type  4   force =     0.00000000    0.00000000    0.00488482
     atom   10 type  4   force =     0.00000000    0.00000000    0.00419180
     atom   11 type  3   force =     0.00000000    0.00000000    0.00127164
     atom   12 type  1   force =     0.00000000    0.00000000    0.00947759
     atom   13 type  4   force =     0.00000000    0.00000000   -0.02001174
     atom   14 type  4   force =     0.00000000    0.00000000    0.03740307
     atom   15 type  3   force =     0.00000000    0.00000000   -0.03405676
     atom   16 type  4   force =     0.00000000    0.00000000    0.02849862
     atom   17 type  1   force =     0.00000000    0.00000000   -0.00650860
     atom   18 type  3   force =     0.00000000    0.00000000   -0.02124827
     atom   19 type  4   force =     0.00000000    0.00000000   -0.00129383
     atom   20 type  4   force =     0.00000000    0.00000000   -0.00207035
     atom   21 type  2   force =     0.00000000    0.00000000    0.00264312
     atom   22 type  4   force =     0.00000000    0.00000000   -0.00178941
     atom   23 type  4   force =     0.00000000    0.00000000   -0.00022892
     atom   24 type  3   force =     0.00000000    0.00000000   -0.00030578
     atom   25 type  1   force =     0.00000000    0.00000000    0.00038790
     atom   26 type  4   force =     0.00000000    0.00000000    0.00024490
     atom   27 type  3   force =     0.00000000    0.00000000   -0.00005472
     atom   28 type  4   force =     0.00000000    0.00000000   -0.00007134

     Total force =     0.066530     Total SCF correction =     0.000446

     Computing stress (Cartesian axis) and pressure

     negative rho (up, down):  1.519E-03 0.000E+00
          total   stress  (Ry/bohr**3)                   (kbar)     P=       -5.58
   0.00000846   0.00000000   0.00000000            1.24        0.00        0.00
   0.00000000  -0.00008779   0.00000000            0.00      -12.91        0.00
   0.00000000   0.00000000  -0.00003456            0.00        0.00       -5.08

     General routines

     Parallel routines

   This run was terminated on:  22:48:58  21May2021

   JOB DONE.
[1621651738.817332] [holy7c10203:10198:0]          mpool.c:43   UCX  WARN  object 0x32b8d00 was not returned to mpool ucp_requests
[1621651738.820118] [holy7c08310:244029:0]          mpool.c:43   UCX  WARN  object 0x28b1280 was not returned to mpool ucp_requests
[1621651738.822092] [holy7c08501:193750:0]          mpool.c:43   UCX  WARN  object 0x2a84380 was not returned to mpool ucp_requests
[1621651738.820781] [holy7c10209:199348:0]          mpool.c:43   UCX  WARN  object 0x464d880 was not returned to mpool ucp_requests
[1621651738.826191] [holy7c10107:33719:0]          mpool.c:43   UCX  WARN  object 0x31668c0 was not returned to mpool ucp_requests
[1621651738.826211] [holy7c10107:33719:0]          mpool.c:43   UCX  WARN  object 0x3166e00 was not returned to mpool ucp_requests
[1621651738.827511] [holy7c10207:96072:0]          mpool.c:43   UCX  WARN  object 0x289b9c0 was not returned to mpool ucp_requests
[1621651738.827531] [holy7c10207:96072:0]          mpool.c:43   UCX  WARN  object 0x289c0c0 was not returned to mpool ucp_requests
[1621651738.821784] [holy7c10209:199347:0]          mpool.c:43   UCX  WARN  object 0x37b0a00 was not returned to mpool ucp_requests
[1621651738.826842] [holy7c08501:193751:0]          mpool.c:43   UCX  WARN  object 0x2ba7a40 was not returned to mpool ucp_requests