     Program PWSCF v.6.5 starts on 21May2021 at 21:28:36

     R & G space division:  proc/nbgrp/npool/nimage =      20
     Reading input from CBCO_Y_cleave_1.0_sep.pwi
Warning: card &IONS ignored
Warning: card     ION_DYNAMICS = 'BFGS' ignored
Warning: card / ignored
Warning: card &CELL ignored
Warning: card     CELL_DYNAMICS = 'BFGS' ignored
Warning: card     PRESS_CONV_THR = 5 ignored
Warning: card / ignored

     Current dimensions of program PWSCF are:
     Max number of different atomic species (ntypx) = 10
     Max number of k-points (npk) =  40000
     Max angular momentum in pseudopotentials (lmaxx) =  3

     Message from routine setup:
     using ibrav=0 with symmetry is DISCOURAGED, use correct ibrav instead

     bravais-lattice index     =            0
     lattice parameter (alat)  =       7.4270  a.u.
     unit-cell volume          =    4401.0322 (a.u.)^3
     number of atoms/cell      =           28
     number of atomic types    =            4
     number of electrons       =       227.00
     number of Kohn-Sham states=          137
     kinetic-energy cutoff     =      60.0000  Ry
     charge density cutoff     =     720.0000  Ry
     convergence threshold     =      1.0E-08
     mixing beta               =       0.5000
     number of iterations used =           10  local-TF  mixing
     Exchange-correlation= SLA PW PBE PBE
                           (   1   4   3   4   0   0   0)

     celldm(1)=   7.427040  celldm(2)=   0.000000  celldm(3)=   0.000000
     celldm(4)=   0.000000  celldm(5)=   0.000000  celldm(6)=   0.000000

     crystal axes: (cart. coord. in units of alat)
               a(1) = (   1.000000   0.000000   0.000000 )
               a(2) = (   0.000000   0.947081   0.000000 )
               a(3) = (   0.000000   0.000000  11.342795 )

     reciprocal axes: (cart. coord. in units 2 pi/alat)
               b(1) = (  1.000000  0.000000  0.000000 )
               b(2) = (  0.000000  1.055876  0.000000 )
               b(3) = (  0.000000  0.000000  0.088162 )

     PseudoPot. # 1 for Ba read from file:
     ./pseudo/Ba.pbe-nsp-van.UPF
     MD5 check sum: 2b9c31dd849566dd297d80989662b7a0
     Pseudo is Ultrasoft + core correction, Zval = 10.0
     Generated by new atomic code, or converted to UPF format
     Using radial grid of  907 points,  6 beta functions with:
                l(1) =   0
                l(2) =   0
                l(3) =   1
                l(4) =   1
                l(5) =   2
                l(6) =   2
     Q(r) pseudized with  6 coefficients,  rinner =    1.200   1.200   1.200
                                                       1.200   1.200

     PseudoPot. # 2 for Ca read from file:
     ./pseudo/Ca.pbe-nsp-van.UPF
     MD5 check sum: 6471098428ff4fa451746d08035ff179
     Pseudo is Ultrasoft + core correction, Zval = 10.0
     Generated by new atomic code, or converted to UPF format
     Using radial grid of  845 points,  6 beta functions with:
                l(1) =   0
                l(2) =   0
                l(3) =   1
                l(4) =   1
                l(5) =   2
                l(6) =   2
     Q(r) pseudized with  6 coefficients,  rinner =    1.200   1.200   1.200
                                                       1.200   1.200

     PseudoPot. # 3 for Cu read from file:
     ./pseudo/Cu.pbe-n-van_ak.UPF
     MD5 check sum: 34e3282627ffb533726feb647e090d62
     Pseudo is Ultrasoft + core correction, Zval = 11.0
     Generated by new atomic code, or converted to UPF format
     Using radial grid of  867 points,  6 beta functions with:
                l(1) =   0
                l(2) =   0
                l(3) =   1
                l(4) =   1
                l(5) =   2
                l(6) =   2
     Q(r) pseudized with  8 coefficients,  rinner =    1.400   1.400   1.400
                                                       1.400   1.400

     PseudoPot. # 4 for O  read from file:
     ./pseudo/O.pbe-van_ak.UPF
     MD5 check sum: 783ce7fe4c79b6a4916957118fed0856
     Pseudo is Ultrasoft, Zval =  6.0
     Generated by new atomic code, or converted to UPF format
     Using radial grid of  737 points,  4 beta functions with:
                l(1) =   0
                l(2) =   0
                l(3) =   1
                l(4) =   1
     Q(r) pseudized with  8 coefficients,  rinner =    0.800   0.800   0.800

     atomic species   valence    mass     pseudopotential
        Ba            10.00   137.32700     Ba( 1.00)
        Ca            10.00    40.07800     Ca( 1.00)
        Cu            11.00    63.54600     Cu( 1.00)
        O              6.00    15.99900     O ( 1.00)

      4 Sym. Ops. (no inversion) found

   Cartesian axes

     site n.     atom                  positions (alat units)
         1           O   tau(   1) = (   0.0000000   0.4735409  -0.0469745  )
         2           Cu  tau(   2) = (   0.0000000   0.0000000   0.0264565  )
         3           O   tau(   3) = (   0.0000000   0.0000000   0.5030914  )
         4           Ba  tau(   4) = (   0.5000000   0.4735409   0.5690292  )
         5           Cu  tau(   5) = (   0.0000000   0.0000000   1.0374254  )
         6           O   tau(   6) = (   0.5000000   0.0000000   1.0768099  )
         7           O   tau(   7) = (   0.0000000   0.4735409   1.1116985  )
         8           Ca  tau(   8) = (   0.5000000   0.4735409   1.4976260  )
         9           O   tau(   9) = (   0.0000000   0.4735409   1.8667529  )
        10           O   tau(  10) = (   0.5000000   0.0000000   1.9044124  )
        11           Cu  tau(  11) = (   0.0000000   0.0000000   1.9512546  )
        12           Ba  tau(  12) = (   0.5000000   0.4735409   2.4295764  )
        13           O   tau(  13) = (   0.0000000   0.0000000   2.5115362  )
        14           O   tau(  14) = (   0.0000000   0.4735409   2.9918528  )
        15           Cu  tau(  15) = (   0.0000000   0.0000000   2.9919088  )
        16           O   tau(  16) = (   0.0000000   0.0000000   3.4722686  )
        17           Ba  tau(  17) = (   0.5000000   0.4735409   3.5542208  )
        18           Cu  tau(  18) = (   0.0000000   0.0000000   4.0325248  )
        19           O   tau(  19) = (   0.5000000   0.0000000   4.0793669  )
        20           O   tau(  20) = (   0.0000000   0.4735409   4.1170213  )
        21           Ca  tau(  21) = (   0.5000000   0.4735409   4.4861584  )
        22           O   tau(  22) = (   0.0000000   0.4735409   5.1265220  )
        23           O   tau(  23) = (   0.5000000   0.0000000   5.1614106  )
        24           Cu  tau(  24) = (   0.0000000   0.0000000   5.2007978  )
        25           Ba  tau(  25) = (   0.5000000   0.4735409   5.6691914  )
        26           O   tau(  26) = (   0.0000000   0.0000000   5.7351190  )
        27           Cu  tau(  27) = (   0.0000000   0.0000000   6.2117589  )
        28           O   tau(  28) = (   0.0000000   0.4735409   6.2851772  )

     number of k points=    25  Gaussian smearing, width (Ry)=  0.0100
                       cart. coord. in units 2pi/alat
        k(    1) = (   0.0000000   0.0000000   0.0000000), wk =   0.0312500
        k(    2) = (   0.0000000   0.1319845   0.0000000), wk =   0.0625000
        k(    3) = (   0.0000000   0.2639689   0.0000000), wk =   0.0625000
        k(    4) = (   0.0000000   0.3959534   0.0000000), wk =   0.0625000
        k(    5) = (   0.0000000  -0.5279378   0.0000000), wk =   0.0312500
        k(    6) = (   0.1250000   0.0000000   0.0000000), wk =   0.0625000
        k(    7) = (   0.1250000   0.1319845   0.0000000), wk =   0.1250000
        k(    8) = (   0.1250000   0.2639689   0.0000000), wk =   0.1250000
        k(    9) = (   0.1250000   0.3959534   0.0000000), wk =   0.1250000
        k(   10) = (   0.1250000  -0.5279378   0.0000000), wk =   0.0625000
        k(   11) = (   0.2500000   0.0000000   0.0000000), wk =   0.0625000
        k(   12) = (   0.2500000   0.1319845   0.0000000), wk =   0.1250000
        k(   13) = (   0.2500000   0.2639689   0.0000000), wk =   0.1250000
        k(   14) = (   0.2500000   0.3959534   0.0000000), wk =   0.1250000
        k(   15) = (   0.2500000  -0.5279378   0.0000000), wk =   0.0625000
        k(   16) = (   0.3750000   0.0000000   0.0000000), wk =   0.0625000
        k(   17) = (   0.3750000   0.1319845   0.0000000), wk =   0.1250000
        k(   18) = (   0.3750000   0.2639689   0.0000000), wk =   0.1250000
        k(   19) = (   0.3750000   0.3959534   0.0000000), wk =   0.1250000
        k(   20) = (   0.3750000  -0.5279378   0.0000000), wk =   0.0625000
        k(   21) = (  -0.5000000   0.0000000   0.0000000), wk =   0.0312500
        k(   22) = (  -0.5000000   0.1319845   0.0000000), wk =   0.0625000
        k(   23) = (  -0.5000000   0.2639689   0.0000000), wk =   0.0625000
        k(   24) = (  -0.5000000   0.3959534   0.0000000), wk =   0.0625000
        k(   25) = (  -0.5000000  -0.5279378   0.0000000), wk =   0.0312500

     Initial potential from superposition of free atoms

     starting charge  226.84630, renormalised to  227.00000

     negative rho (up, down):  3.524E-03 0.000E+00
     Starting wfcs are  195 randomized atomic wfcs

     Self-consistent Calculation

     iteration #  1     ecut=    60.00 Ry     beta= 0.50
     Davidson diagonalization with overlap
     ethr =  1.00E-02,  avg # of iterations =  2.0

     negative rho (up, down):  5.164E-04 0.000E+00

     total energy              =   -1840.98393114 Ry
     Harris-Foulkes estimate   =   -1845.29923179 Ry
     estimated scf accuracy    <      17.71640533 Ry

[...]

     iteration # 20     ecut=    60.00 Ry     beta= 0.50
     Davidson diagonalization with overlap
     c_bands:  1 eigenvalues not converged
     ethr =  1.10E-06,  avg # of iterations =  9.0

[...]

     iteration # 23     ecut=    60.00 Ry     beta= 0.50
     Davidson diagonalization with overlap
     c_bands:  1 eigenvalues not converged
     c_bands:  1 eigenvalues not converged
     ethr =  9.07E-08,  avg # of iterations =  5.4

[...]

     total energy              =   -1842.80165477 Ry
     Harris-Foulkes estimate   =   -1842.80165478 Ry
     estimated scf accuracy    <       0.00000002 Ry

     iteration # 34     ecut=    60.00 Ry     beta= 0.50
     Davidson diagonalization with overlap
     ethr =  1.07E-11,  avg # of iterations =  1.8

[...]

     End of self-consistent calculation

          k = 0.0000 0.0000 0.0000 ( 34661 PWs)   bands (ev):

   -37.6095 -35.5563 -22.7611 -22.6846 -22.6701 -22.5006 -18.6693 -18.6198
   -18.6044 -17.0607 -16.6075 -16.5961 -15.3765 -15.2713 -15.0176 -14.8228
   -14.6414 -14.6213 -14.5420 -14.2606 -14.1514 -14.1485 -13.9519 -13.7932
   -13.7279 -13.6884 -13.6102  -7.8925  -7.8875  -7.8549  -7.7772  -7.7548
    -7.7175  -7.6815  -7.6620  -7.5814  -7.5584  -7.5452  -7.3793  -2.2999
    -2.2895  -2.2438  -2.0720  -1.9500  -1.7999  -1.7362  -1.6381  -1.5580
    -1.5084  -1.4734  -1.4532  -1.2511  -1.1902  -1.1872  -1.0558  -1.0193
    -0.8226  -0.7041  -0.5810  -0.4285  -0.4166  -0.3466  -0.3350  -0.3049
    -0.2775  -0.2346  -0.2189  -0.2152  -0.2146  -0.1879  -0.1807  -0.1523
    -0.1312  -0.0701  -0.0071   0.0160   0.1288   0.1291   0.1305   0.1580
     0.1899   0.1937   0.2036   0.2072   0.2383   0.3223   0.3394   0.3541
     0.4353   0.7937   0.8302   0.9120   0.9318   0.9915   1.0301   1.1270
     1.1928   1.2099   1.2247   1.3796   1.4004   1.4348   1.5090   1.5538
     1.5641   1.5798   1.6507   1.7586   1.8603   2.0542   2.0658   2.1291
     2.1870   2.1872   2.2126   2.2924   2.3075   2.5483   2.5661   4.6331
     5.2464   5.3153   5.9308   6.3611   6.7549   6.7957   6.9163   7.2243
     7.3578   7.7690   8.0096   8.0909   8.1852   8.3029   8.5281   8.5600
     8.6276

[...]

          k = 0.3750-0.5279 0.0000 ( 34580 PWs)   bands (ev):

[...]

          k =-0.5000 0.0000 0.0000 ( 34514 PWs)   bands (ev):

[...]

          k =-0.5000-0.5279 0.0000 ( 34620 PWs)   bands (ev):

   -37.5939 -35.5366 -22.4882 -22.4228 -22.3961 -22.2381 -18.8153 -18.7598
   -18.5185 -16.9826 -16.9734 -16.5969 -14.6653 -14.5836 -14.5804 -14.5094
   -14.4086 -14.2697 -14.2393 -14.2360 -14.0651 -14.0240 -14.0220 -14.0190
   -14.0016 -13.9026 -13.8355  -8.7211  -8.6446  -8.6394  -8.4603  -8.4532
    -8.3800  -8.3373  -8.0760  -8.0151  -7.9854  -7.8364  -7.7272  -4.1284
    -4.0569  -3.7404  -3.7352  -3.5722  -3.1313  -3.1254  -2.7047  -2.6764
    -2.6322  -2.5385  -2.3743  -2.2566  -2.2430  -2.2366  -2.2011  -1.9233
    -1.9125  -1.6956  -1.3194  -1.2758  -1.2233  -1.1465  -1.1313  -1.0579
    -1.0527  -0.9926  -0.9525  -0.9445  -0.9392  -0.8673  -0.8532  -0.7706
    -0.5304  -0.2997  -0.2918   0.2683   0.3858   0.4123   0.7871   0.9467
     1.0706   1.1895   1.3692   1.3745   1.3834   1.3958   1.4075   1.4446
     1.4521   1.5449   1.5637   1.6196   1.6645   1.6910   1.8704   1.8773
     1.8819   1.9069   1.9588   1.9967   2.0121   2.0853   2.0939   2.1487
     2.1769   2.2327   2.3702   2.3733   2.3989   2.4599   2.5709   2.5734
     2.5908   2.7675   4.1884   4.6228   4.7433   4.8080   4.8132   5.4579
     5.7866   6.0022   6.0039   7.1500   7.4532   7.5929   8.3453   8.7717
     8.9589   8.9954   9.0218   9.0774   9.1223   9.2702   9.4216   9.5983
     9.7647

     the Fermi energy is     2.5973 ev

!    total energy              =   -1842.80165477 Ry
     Harris-Foulkes estimate   =   -1842.80165477 Ry
     estimated scf accuracy    <          5.5E-09 Ry

     The total energy is the sum of the following terms:

     one-electron contribution =  -29993.94387753 Ry
     hartree contribution      =   15149.54146926 Ry
     xc contribution           =    -621.60985429 Ry
     ewald contribution        =   13623.21903313 Ry
     smearing contrib. (-TS)   =      -0.00842534 Ry

     convergence has been achieved in  34 iterations

     negative rho (up, down):  1.499E-03 0.000E+00

     Forces acting on atoms (cartesian axes, Ry/au):

     atom    1 type  4   force =     0.00000000    0.00000000   -0.00016275
     atom    2 type  3   force =     0.00000000    0.00000000    0.00035235
     atom    3 type  4   force =     0.00000000    0.00000000   -0.00077258
     atom    4 type  1   force =     0.00000000    0.00000000   -0.00028465
     atom    5 type  3   force =     0.00000000    0.00000000    0.00054408
     atom    6 type  4   force =     0.00000000    0.00000000   -0.00001935
     atom    7 type  4   force =     0.00000000    0.00000000    0.00033187
     atom    8 type  2   force =     0.00000000    0.00000000   -0.00058143
     atom    9 type  4   force =     0.00000000    0.00000000    0.00024216
     atom   10 type  4   force =     0.00000000    0.00000000    0.00027250
     atom   11 type  3   force =     0.00000000    0.00000000    0.00026416
     atom   12 type  1   force =     0.00000000    0.00000000    0.00012410
     atom   13 type  4   force =     0.00000000    0.00000000    0.00233505
     atom   14 type  4   force =     0.00000000    0.00000000    0.00212890
     atom   15 type  3   force =     0.00000000    0.00000000   -0.00339433
     atom   16 type  4   force =     0.00000000    0.00000000    0.00158262
     atom   17 type  1   force =     0.00000000    0.00000000   -0.01113465
     atom   18 type  3   force =     0.00000000    0.00000000    0.00158717
     atom   19 type  4   force =     0.00000000    0.00000000    0.03901283
     atom   20 type  4   force =     0.00000000    0.00000000    0.04434128
     atom   21 type  2   force =     0.00000000    0.00000000   -0.00973882
     atom   22 type  4   force =     0.00000000    0.00000000   -0.02004019
     atom   23 type  4   force =     0.00000000    0.00000000   -0.01429659
     atom   24 type  3   force =     0.00000000    0.00000000   -0.01662728
     atom   25 type  1   force =     0.00000000    0.00000000   -0.01567365
     atom   26 type  4   force =     0.00000000    0.00000000   -0.00020831
     atom   27 type  3   force =     0.00000000    0.00000000    0.00023126
     atom   28 type  4   force =     0.00000000    0.00000000   -0.00041575

     Total force =     0.069740     Total SCF correction =     0.000366

     Computing stress (Cartesian axis) and pressure

     negative rho (up, down):  1.499E-03 0.000E+00
          total   stress  (Ry/bohr**3)                   (kbar)     P=       -6.93
  -0.00001036   0.00000000   0.00000000           -1.52        0.00        0.00
   0.00000000   0.00000621   0.00000000            0.00        0.91        0.00
   0.00000000   0.00000000  -0.00013711            0.00        0.00      -20.17

     General routines

     Parallel routines

   This run was terminated on:  21:38: 3  21May2021

   JOB DONE.
[1621647483.186626] [holy7c10209:191630:0]          mpool.c:43   UCX  WARN  object 0x45e7340 was not returned to mpool ucp_requests
[1621647483.194750] [holy7c10209:191629:0]          mpool.c:43   UCX  WARN  object 0x385bb80 was not returned to mpool ucp_requests
[1621647483.194781] [holy7c10209:191629:0]          mpool.c:43   UCX  WARN  object 0x385bd40 was not returned to mpool ucp_requests
[1621647483.194785] [holy7c10209:191629:0]          mpool.c:43   UCX  WARN  object 0x385bf00 was not returned to mpool ucp_requests
[1621647483.196529] [holy7c10209:191639:0]          mpool.c:43   UCX  WARN  object 0x30d8100 was not returned to mpool ucp_requests
[1621647483.199058] [holy7c10209:191638:0]          mpool.c:43   UCX  WARN  object 0x295d0c0 was not returned to mpool ucp_requests
[1621647483.199090] [holy7c10209:191638:0]          mpool.c:43   UCX  WARN  object 0x295d440 was not returned to mpool ucp_requests
[1621647483.206290] [holy7c10209:191635:0]          mpool.c:43   UCX  WARN  object 0x3f91b40 was not returned to mpool ucp_requests
[1621647483.203272] [holy7c10209:191640:0]          mpool.c:43   UCX  WARN  object 0x2b78240 was not returned to mpool ucp_requests