     Program PWSCF v.6.5 starts on 21May2021 at 22:29:36

     R & G space division:  proc/nbgrp/npool/nimage =      20
     Reading input from CBCO_Y_cleave_2.25_sep.pwi
Warning: card &IONS ignored
Warning: card     ION_DYNAMICS = 'BFGS' ignored
Warning: card / ignored
Warning: card &CELL ignored
Warning: card     CELL_DYNAMICS = 'BFGS' ignored
Warning: card     PRESS_CONV_THR = 5 ignored
Warning: card / ignored

     Current dimensions of program PWSCF are:
     Max number of different atomic species (ntypx) = 10
     Max number of k-points (npk) =  40000
     Max angular momentum in pseudopotentials (lmaxx) =  3

     Message from routine setup:
     using ibrav=0 with symmetry is DISCOURAGED, use correct ibrav instead

     bravais-lattice index     =            0
     lattice parameter (alat)  =       7.4270  a.u.
     unit-cell volume          =    4524.4357 (a.u.)^3
     number of atoms/cell      =           28
     number of atomic types    =            4
     number of electrons       =       227.00
     number of Kohn-Sham states=          137
     kinetic-energy cutoff     =      60.0000  Ry
     charge density cutoff     =     720.0000  Ry
     convergence threshold     =      1.0E-08
     mixing beta               =       0.5000
     number of iterations used =           10  local-TF  mixing
     Exchange-correlation= SLA PW PBE PBE
                           (   1   4   3   4   0   0   0)

     celldm(1)=   7.427040  celldm(2)=   0.000000  celldm(3)=   0.000000
     celldm(4)=   0.000000  celldm(5)=   0.000000  celldm(6)=   0.000000

     crystal axes: (cart. coord. in units of alat)
               a(1) = (   1.000000   0.000000   0.000000 )
               a(2) = (   0.000000   0.947081   0.000000 )
               a(3) = (   0.000000   0.000000  11.660844 )

     reciprocal axes: (cart. coord. in units 2 pi/alat)
               b(1) = (  1.000000  0.000000  0.000000 )
               b(2) = (  0.000000  1.055876  0.000000 )
               b(3) = (  0.000000  0.000000  0.085757 )

     PseudoPot. # 1 for Ba read from file:
     ./pseudo/Ba.pbe-nsp-van.UPF
     MD5 check sum: 2b9c31dd849566dd297d80989662b7a0
     Pseudo is Ultrasoft + core correction, Zval = 10.0
     Generated by new atomic code, or converted to UPF format
     Using radial grid of  907 points,  6 beta functions with:
                l(1) =   0
                l(2) =   0
                l(3) =   1
                l(4) =   1
                l(5) =   2
                l(6) =   2
     Q(r) pseudized with  6 coefficients,  rinner =    1.200   1.200   1.200
                                                       1.200   1.200

     PseudoPot. # 2 for Ca read from file:
     ./pseudo/Ca.pbe-nsp-van.UPF
     MD5 check sum: 6471098428ff4fa451746d08035ff179
     Pseudo is Ultrasoft + core correction, Zval = 10.0
     Generated by new atomic code, or converted to UPF format
     Using radial grid of  845 points,  6 beta functions with:
                l(1) =   0
                l(2) =   0
                l(3) =   1
                l(4) =   1
                l(5) =   2
                l(6) =   2
     Q(r) pseudized with  6 coefficients,  rinner =    1.200   1.200   1.200
                                                       1.200   1.200

     PseudoPot. # 3 for Cu read from file:
     ./pseudo/Cu.pbe-n-van_ak.UPF
     MD5 check sum: 34e3282627ffb533726feb647e090d62
     Pseudo is Ultrasoft + core correction, Zval = 11.0
     Generated by new atomic code, or converted to UPF format
     Using radial grid of  867 points,  6 beta functions with:
                l(1) =   0
                l(2) =   0
                l(3) =   1
                l(4) =   1
                l(5) =   2
                l(6) =   2
     Q(r) pseudized with  8 coefficients,  rinner =    1.400   1.400   1.400
                                                       1.400   1.400

     PseudoPot. # 4 for O  read from file:
     ./pseudo/O.pbe-van_ak.UPF
     MD5 check sum: 783ce7fe4c79b6a4916957118fed0856
     Pseudo is Ultrasoft, Zval =  6.0
     Generated by new atomic code, or converted to UPF format
     Using radial grid of  737 points,  4 beta functions with:
                l(1) =   0
                l(2) =   0
                l(3) =   1
                l(4) =   1
     Q(r) pseudized with  8 coefficients,  rinner =    0.800   0.800   0.800

     atomic species   valence    mass     pseudopotential
        Ba            10.00   137.32700     Ba( 1.00)
        Ca            10.00    40.07800     Ca( 1.00)
        Cu            11.00    63.54600     Cu( 1.00)
        O              6.00    15.99900     O ( 1.00)

      4 Sym. Ops. (no inversion) found

   Cartesian axes

     site n.     atom                  positions (alat units)
         1           O   tau(   1) = (   0.0000000   0.4735409  -0.0469745  )
         2           Cu  tau(   2) = (   0.0000000   0.0000000   0.0264565  )
         3           O   tau(   3) = (   0.0000000   0.0000000   0.5030914  )
         4           Ba  tau(   4) = (   0.5000000   0.4735409   0.5690292  )
         5           Cu  tau(   5) = (   0.0000000   0.0000000   1.0374254  )
         6           O   tau(   6) = (   0.5000000   0.0000000   1.0768099  )
         7           O   tau(   7) = (   0.0000000   0.4735409   1.1116985  )
         8           Ca  tau(   8) = (   0.5000000   0.4735409   1.4976260  )
         9           O   tau(   9) = (   0.0000000   0.4735409   1.8667529  )
        10           O   tau(  10) = (   0.5000000   0.0000000   1.9044124  )
        11           Cu  tau(  11) = (   0.0000000   0.0000000   1.9512546  )
        12           Ba  tau(  12) = (   0.5000000   0.4735409   2.4295764  )
        13           O   tau(  13) = (   0.0000000   0.0000000   2.5115362  )
        14           O   tau(  14) = (   0.0000000   0.4735409   2.9918528  )
        15           Cu  tau(  15) = (   0.0000000   0.0000000   2.9919088  )
        16           O   tau(  16) = (   0.0000000   0.0000000   3.4722686  )
        17           Ba  tau(  17) = (   0.5000000   0.4735409   3.5542208  )
        18           Cu  tau(  18) = (   0.0000000   0.0000000   4.0325248  )
        19           O   tau(  19) = (   0.5000000   0.0000000   4.0793669  )
        20           O   tau(  20) = (   0.0000000   0.4735409   4.1170213  )
        21           Ca  tau(  21) = (   0.5000000   0.4735409   4.4861584  )
        22           O   tau(  22) = (   0.0000000   0.4735409   5.4445704  )
        23           O   tau(  23) = (   0.5000000   0.0000000   5.4794590  )
        24           Cu  tau(  24) = (   0.0000000   0.0000000   5.5188461  )
        25           Ba  tau(  25) = (   0.5000000   0.4735409   5.9872397  )
        26           O   tau(  26) = (   0.0000000   0.0000000   6.0531673  )
        27           Cu  tau(  27) = (   0.0000000   0.0000000   6.5298073  )
        28           O   tau(  28) = (   0.0000000   0.4735409   6.6032256  )

     number of k points=    25  Gaussian smearing, width (Ry)=  0.0100
                       cart. coord. in units 2pi/alat
        k(    1) = (   0.0000000   0.0000000   0.0000000), wk =   0.0312500
        k(    2) = (   0.0000000   0.1319845   0.0000000), wk =   0.0625000
        k(    3) = (   0.0000000   0.2639689   0.0000000), wk =   0.0625000
        k(    4) = (   0.0000000   0.3959534   0.0000000), wk =   0.0625000
        k(    5) = (   0.0000000  -0.5279378   0.0000000), wk =   0.0312500
        k(    6) = (   0.1250000   0.0000000   0.0000000), wk =   0.0625000
        k(    7) = (   0.1250000   0.1319845   0.0000000), wk =   0.1250000
        k(    8) = (   0.1250000   0.2639689   0.0000000), wk =   0.1250000
        k(    9) = (   0.1250000   0.3959534   0.0000000), wk =   0.1250000
        k(   10) = (   0.1250000  -0.5279378   0.0000000), wk =   0.0625000
        k(   11) = (   0.2500000   0.0000000   0.0000000), wk =   0.0625000
        k(   12) = (   0.2500000   0.1319845   0.0000000), wk =   0.1250000
        k(   13) = (   0.2500000   0.2639689   0.0000000), wk =   0.1250000
        k(   14) = (   0.2500000   0.3959534   0.0000000), wk =   0.1250000
        k(   15) = (   0.2500000  -0.5279378   0.0000000), wk =   0.0625000
        k(   16) = (   0.3750000   0.0000000   0.0000000), wk =   0.0625000
        k(   17) = (   0.3750000   0.1319845   0.0000000), wk =   0.1250000
        k(   18) = (   0.3750000   0.2639689   0.0000000), wk =   0.1250000
        k(   19) = (   0.3750000   0.3959534   0.0000000), wk =   0.1250000
        k(   20) = (   0.3750000  -0.5279378   0.0000000), wk =   0.0625000
        k(   21) = (  -0.5000000   0.0000000   0.0000000), wk =   0.0312500
        k(   22) = (  -0.5000000   0.1319845   0.0000000), wk =   0.0625000
        k(   23) = (  -0.5000000   0.2639689   0.0000000), wk =   0.0625000
        k(   24) = (  -0.5000000   0.3959534   0.0000000), wk =   0.0625000
        k(   25) = (  -0.5000000  -0.5279378   0.0000000), wk =   0.0312500

     Initial potential from superposition of free atoms

     starting charge  226.84630, renormalised to  227.00000

     negative rho (up, down):  3.430E-03 0.000E+00
     Starting wfcs are  195 randomized atomic wfcs

     Self-consistent Calculation

     iteration #  1     ecut=    60.00 Ry     beta= 0.50
     Davidson diagonalization with overlap
     ethr =  1.00E-02,  avg # of iterations =  2.0

     negative rho (up, down):  4.884E-04 0.000E+00

     total energy              =   -1840.97130182 Ry
     Harris-Foulkes estimate   =   -1845.30951789 Ry
     estimated scf accuracy    <      17.61166614 Ry

[...]

     iteration # 12     ecut=    60.00 Ry     beta= 0.50
     Davidson diagonalization with overlap
     c_bands:  1 eigenvalues not converged
     ethr =  1.86E-05,  avg # of iterations =  8.2

[...]

     iteration # 21     ecut=    60.00 Ry     beta= 0.50
     Davidson diagonalization with overlap
     c_bands:  1 eigenvalues not converged
     c_bands:  1 eigenvalues not converged
     ethr =  7.81E-07,  avg # of iterations =  6.6

[...]

     total energy              =   -1842.68308146 Ry
     Harris-Foulkes estimate   =   -1842.68308147 Ry
     estimated scf accuracy    <       0.00000001 Ry

     iteration # 35     ecut=    60.00 Ry     beta= 0.50
     Davidson diagonalization with overlap
     ethr =  4.93E-12,  avg # of iterations =  3.0

[...]

     End of self-consistent calculation

          k = 0.0000 0.0000 0.0000 ( 35607 PWs)   bands (ev):

   -38.9193 -35.6572 -22.9394 -22.8611 -22.7032 -22.6030 -19.9963 -19.9094
   -19.8914 -17.1615 -16.7084 -16.6970 -15.8716 -15.3718 -14.9929 -14.9311
   -14.7414 -14.7251 -14.7009 -14.6426 -14.2514 -14.2281 -14.0521 -13.8942
   -13.8563 -13.7242 -13.6667  -8.1582  -7.9924  -7.9609  -7.9548  -7.8151
    -7.8100  -7.7843  -7.7751  -7.7619  -7.6480  -7.6163  -7.4819  -2.4648
    -2.4000  -2.3871  -2.3724  -2.3690  -1.9420  -1.8999  -1.8372  -1.7384
    -1.6093  -1.5544  -1.5228  -1.2902  -1.2679  -1.1868  -1.1790  -1.1276
    -0.9362  -0.8050  -0.6997  -0.6573  -0.5285  -0.4942  -0.4464  -0.3862
    -0.3805  -0.3345  -0.3211  -0.3156  -0.2892  -0.2795  -0.2579  -0.2502
    -0.2432  -0.1853  -0.1070  -0.0758  -0.0603   0.0196   0.0289   0.0291
     0.0466   0.0959   0.1033   0.1297   0.1788   0.2373   0.2531   0.3113
     0.3129   0.6471   0.6840   0.7277   0.8120   0.8451   0.8514   0.8891
     1.0212   1.0437   1.1136   1.2790   1.2950   1.3909   1.4511   1.4601
     1.4656   1.5173   1.6186   1.6284   1.7561   1.9589   1.9780   2.0094
     2.0620   2.0648   2.1804   2.1963   2.1988   2.4505   2.4661   2.8878
     5.0963   5.1468   5.3348   5.7432   5.8772   6.2768   6.6938   6.8179
     6.8487   7.0521   7.1390   7.1745   7.2018   7.8188   7.9354   8.0683
     8.2723

[...]

          k = 0.3750-0.5279 0.0000 ( 35528 PWs)   bands (ev):

[...]

          k =-0.5000 0.0000 0.0000 ( 35494 PWs)   bands (ev):

[...]

          k =-0.5000-0.5279 0.0000 ( 35564 PWs)   bands (ev):

   -38.9040 -35.6375 -22.6784 -22.5882 -22.4283 -22.3403 -20.0875 -20.0242
   -19.8873 -17.0835 -17.0742 -16.6977 -15.1507 -15.0017 -14.6835 -14.6660
   -14.5088 -14.3394 -14.3363 -14.2531 -14.1657 -14.1481 -14.1240 -14.0974
   -14.0033 -13.9610 -13.9553  -8.8990  -8.8211  -8.6678  -8.5633  -8.5620
    -8.5531  -8.4161  -8.2704  -8.1953  -8.0862  -7.8601  -7.8463  -4.5015
    -4.1584  -3.8403  -3.7216  -3.6795  -3.2313  -3.2049  -2.9117  -2.8046
    -2.7361  -2.6839  -2.6405  -2.3566  -2.3486  -2.3256  -2.3117  -2.0224
    -1.8770  -1.8308  -1.4588  -1.4174  -1.4125  -1.3403  -1.3304  -1.2406
    -1.0928  -1.0663  -1.0648  -1.0525  -1.0248  -0.9552  -0.8739  -0.8352
    -0.6484  -0.3997  -0.3706   0.1515   0.2849   0.3479   0.6427   0.8167
     0.9780   1.0047   1.1151   1.1378   1.2405   1.2718   1.2946   1.3367
     1.3753   1.4185   1.4405   1.5327   1.5631   1.5846   1.6528   1.7607
     1.7827   1.8441   1.8652   1.8821   1.9828   2.0441   2.0466   2.0642
     2.0763   2.1310   2.2702   2.2727   2.2927   2.3593   2.4565   2.4736
     2.5390   2.7835   3.8997   4.3833   4.6340   4.6982   4.7496   4.8030
     5.3049   5.3257   5.5495   5.9023   5.9873   6.6370   7.0480   7.6982
     8.4154   8.6186   8.7059   8.8702   8.9648   8.9658   9.0364   9.2377
     9.4582

     the Fermi energy is     2.4973 ev

!    total energy              =   -1842.68308146 Ry
     Harris-Foulkes estimate   =   -1842.68308147 Ry
     estimated scf accuracy    <          8.5E-09 Ry

     The total energy is the sum of the following terms:

     one-electron contribution =  -29056.82147103 Ry
     hartree contribution      =   14679.59527720 Ry
     xc contribution           =    -621.54510702 Ry
     ewald contribution        =   13156.09590693 Ry
     smearing contrib. (-TS)   =      -0.00768755 Ry

     convergence has been achieved in  35 iterations

     negative rho (up, down):  1.485E-03 0.000E+00

     Forces acting on atoms (cartesian axes, Ry/au):

     atom    1 type  4   force =     0.00000000    0.00000000   -0.00014635
     atom    2 type  3   force =     0.00000000    0.00000000    0.00043334
     atom    3 type  4   force =     0.00000000    0.00000000   -0.00079171
     atom    4 type  1   force =     0.00000000    0.00000000   -0.00027978
     atom    5 type  3   force =     0.00000000    0.00000000    0.00052992
     atom    6 type  4   force =     0.00000000    0.00000000   -0.00000157
     atom    7 type  4   force =     0.00000000    0.00000000    0.00032501
     atom    8 type  2   force =     0.00000000    0.00000000   -0.00060110
     atom    9 type  4   force =     0.00000000    0.00000000    0.00032343
     atom   10 type  4   force =     0.00000000    0.00000000    0.00038532
     atom   11 type  3   force =     0.00000000    0.00000000    0.00014349
     atom   12 type  1   force =     0.00000000    0.00000000    0.00012852
     atom   13 type  4   force =     0.00000000    0.00000000    0.00332299
     atom   14 type  4   force =     0.00000000    0.00000000    0.00397859
     atom   15 type  3   force =     0.00000000    0.00000000   -0.00704788
     atom   16 type  4   force =     0.00000000    0.00000000    0.00613609
     atom   17 type  1   force =     0.00000000    0.00000000   -0.01972106
     atom   18 type  3   force =     0.00000000    0.00000000    0.00796836
     atom   19 type  4   force =     0.00000000    0.00000000    0.06091221
     atom   20 type  4   force =     0.00000000    0.00000000    0.06731428
     atom   21 type  2   force =     0.00000000    0.00000000   -0.08995095
     atom   22 type  4   force =     0.00000000    0.00000000   -0.00093824
     atom   23 type  4   force =     0.00000000    0.00000000    0.00688964
     atom   24 type  3   force =     0.00000000    0.00000000   -0.01981260
     atom   25 type  1   force =     0.00000000    0.00000000   -0.01780752
     atom   26 type  4   force =     0.00000000    0.00000000   -0.00193567
     atom   27 type  3   force =     0.00000000    0.00000000    0.00172962
     atom   28 type  4   force =     0.00000000    0.00000000   -0.00148636

     Total force =     0.132922     Total SCF correction =     0.000379

     Computing stress (Cartesian axis) and pressure

     negative rho (up, down):  1.485E-03 0.000E+00
          total   stress  (Ry/bohr**3)                   (kbar)     P=       -6.38
  -0.00000570   0.00000000   0.00000000           -0.84        0.00        0.00
   0.00000000   0.00002057   0.00000000            0.00        3.03        0.00
   0.00000000   0.00000000  -0.00014494            0.00        0.00      -21.32

     General routines

     Parallel routines

   This run was terminated on:  22:41:13  21May2021

   JOB DONE.
[1621651273.661367] [holy7c04304:61633:0]          mpool.c:43   UCX  WARN  object 0x3d0f080 was not returned to mpool ucp_requests
[1621651273.663795] [holy7c04404:117888:0]          mpool.c:43   UCX  WARN  object 0x40dcc00 was not returned to mpool ucp_requests
[1621651273.660762] [holy7c04307:186850:0]          mpool.c:43   UCX  WARN  object 0x33c4440 was not returned to mpool ucp_requests
[1621651273.663762] [holy7c04403:241999:0]          mpool.c:43   UCX  WARN  object 0x32b67c0 was not returned to mpool ucp_requests
[1621651273.669761] [holy7c04311:2285 :0]          mpool.c:43   UCX  WARN  object 0x32af5c0 was not returned to mpool ucp_requests
[1621651273.669790] [holy7c04311:2285 :0]          mpool.c:43   UCX  WARN  object 0x32af940 was not returned to mpool ucp_requests
[1621651273.661037] [holy7c04307:186848:0]          mpool.c:43   UCX  WARN  object 0x2bb3c80 was not returned to mpool ucp_requests
[1621651273.661056] [holy7c04307:186848:0]          mpool.c:43   UCX  WARN  object 0x2bb4000 was not returned to mpool ucp_requests
[1621651273.663801] [holy7c04403:242001:0]          mpool.c:43   UCX  WARN  object 0x4015480 was not returned to mpool ucp_requests
[1621651273.663820] [holy7c04403:242001:0]          mpool.c:43   UCX  WARN  object 0x40159c0 was not returned to mpool ucp_requests
[1621651273.672396] [holy7c04311:2284 :0]          mpool.c:43   UCX  WARN  object 0x291a3c0 was not returned to mpool ucp_requests