     Program PWSCF v.6.5 starts on 21May2021 at 23: 7:21

     R & G space division:  proc/nbgrp/npool/nimage =      20
     Reading input from CBCO_BaO_cleave_1.25_sep.pwi
Warning: card &IONS ignored
Warning: card     ION_DYNAMICS = 'BFGS' ignored
Warning: card / ignored
Warning: card &CELL ignored
Warning: card     CELL_DYNAMICS = 'BFGS' ignored
Warning: card     PRESS_CONV_THR = 5 ignored
Warning: card / ignored

     Current dimensions of program PWSCF are:
     Max number of different atomic species (ntypx) = 10
     Max number of k-points (npk) =  40000
     Max angular momentum in pseudopotentials (lmaxx) =  3

     Message from routine setup:
     using ibrav=0 with symmetry is DISCOURAGED, use correct ibrav instead

     bravais-lattice index     =            0
     lattice parameter (alat)  =       7.4270  a.u.
     unit-cell volume          =    4425.7129 (a.u.)^3
     number of atoms/cell      =           28
     number of atomic types    =            4
     number of electrons       =       227.00
     number of Kohn-Sham states=          137
     kinetic-energy cutoff     =      60.0000  Ry
     charge density cutoff     =     720.0000  Ry
     convergence threshold     =      1.0E-08
     mixing beta               =       0.5000
     number of iterations used =           10  local-TF  mixing
     Exchange-correlation= SLA PW PBE PBE
                           (   1   4   3   4   0   0   0)

     celldm(1)=   7.427040  celldm(2)=   0.000000  celldm(3)=   0.000000
     celldm(4)=   0.000000  celldm(5)=   0.000000  celldm(6)=   0.000000

     crystal axes: (cart. coord. in units of alat)
               a(1) = (   1.000000   0.000000   0.000000 )
               a(2) = (   0.000000   0.947081   0.000000 )
               a(3) = (   0.000000   0.000000  11.406405 )

     reciprocal axes: (cart. coord. in units 2 pi/alat)
               b(1) = (  1.000000  0.000000  0.000000 )
               b(2) = (  0.000000  1.055876  0.000000 )
               b(3) = (  0.000000  0.000000  0.087670 )

     PseudoPot. # 1 for Ba read from file:
     ./pseudo/Ba.pbe-nsp-van.UPF
     MD5 check sum: 2b9c31dd849566dd297d80989662b7a0
     Pseudo is Ultrasoft + core correction, Zval = 10.0
     Generated by new atomic code, or converted to UPF format
     Using radial grid of  907 points,  6 beta functions with:
                l(1) =   0
                l(2) =   0
                l(3) =   1
                l(4) =   1
                l(5) =   2
                l(6) =   2
     Q(r) pseudized with  6 coefficients,  rinner =    1.200   1.200   1.200
                                                       1.200   1.200

     PseudoPot. # 2 for Ca read from file:
     ./pseudo/Ca.pbe-nsp-van.UPF
     MD5 check sum: 6471098428ff4fa451746d08035ff179
     Pseudo is Ultrasoft + core correction, Zval = 10.0
     Generated by new atomic code, or converted to UPF format
     Using radial grid of  845 points,  6 beta functions with:
                l(1) =   0
                l(2) =   0
                l(3) =   1
                l(4) =   1
                l(5) =   2
                l(6) =   2
     Q(r) pseudized with  6 coefficients,  rinner =    1.200   1.200   1.200
                                                       1.200   1.200

     PseudoPot. # 3 for Cu read from file:
     ./pseudo/Cu.pbe-n-van_ak.UPF
     MD5 check sum: 34e3282627ffb533726feb647e090d62
     Pseudo is Ultrasoft + core correction, Zval = 11.0
     Generated by new atomic code, or converted to UPF format
     Using radial grid of  867 points,  6 beta functions with:
                l(1) =   0
                l(2) =   0
                l(3) =   1
                l(4) =   1
                l(5) =   2
                l(6) =   2
     Q(r) pseudized with  8 coefficients,  rinner =    1.400   1.400   1.400
                                                       1.400   1.400

     PseudoPot. # 4 for O  read from file:
     ./pseudo/O.pbe-van_ak.UPF
     MD5 check sum: 783ce7fe4c79b6a4916957118fed0856
     Pseudo is Ultrasoft, Zval =  6.0
     Generated by new atomic code, or converted to UPF format
     Using radial grid of  737 points,  4 beta functions with:
                l(1) =   0
                l(2) =   0
                l(3) =   1
                l(4) =   1
     Q(r) pseudized with  8 coefficients,  rinner =    0.800   0.800   0.800

     atomic species   valence    mass     pseudopotential
        Ba            10.00   137.32700     Ba( 1.00)
        Ca            10.00    40.07800     Ca( 1.00)
        Cu            11.00    63.54600     Cu( 1.00)
        O              6.00    15.99900     O ( 1.00)

      4 Sym. Ops. (no inversion) found

   Cartesian axes

     site n.     atom                  positions (alat units)
         1           O   tau(   1) = (   0.0000000   0.4735409  -0.0469745  )
         2           Cu  tau(   2) = (   0.0000000   0.0000000   0.0264565  )
         3           O   tau(   3) = (   0.0000000   0.0000000   0.5030914  )
         4           Ba  tau(   4) = (   0.5000000   0.4735409   0.5690292  )
         5           Cu  tau(   5) = (   0.0000000   0.0000000   1.0374254  )
         6           O   tau(   6) = (   0.5000000   0.0000000   1.0768099  )
         7           O   tau(   7) = (   0.0000000   0.4735409   1.1116985  )
         8           Ca  tau(   8) = (   0.5000000   0.4735409   1.4976260  )
         9           O   tau(   9) = (   0.0000000   0.4735409   1.8667529  )
        10           O   tau(  10) = (   0.5000000   0.0000000   1.9044124  )
        11           Cu  tau(  11) = (   0.0000000   0.0000000   1.9512546  )
        12           Ba  tau(  12) = (   0.5000000   0.4735409   2.4295764  )
        13           O   tau(  13) = (   0.0000000   0.0000000   2.5115362  )
        14           O   tau(  14) = (   0.0000000   0.4735409   2.9918528  )
        15           Cu  tau(  15) = (   0.0000000   0.0000000   2.9919088  )
        16           O   tau(  16) = (   0.0000000   0.0000000   3.4722686  )
        17           Ba  tau(  17) = (   0.5000000   0.4735409   3.5542208  )
        18           Cu  tau(  18) = (   0.0000000   0.0000000   4.3505731  )
        19           O   tau(  19) = (   0.5000000   0.0000000   4.3974153  )
        20           O   tau(  20) = (   0.0000000   0.4735409   4.4350697  )
        21           Ca  tau(  21) = (   0.5000000   0.4735409   4.8042067  )
        22           O   tau(  22) = (   0.0000000   0.4735409   5.1901317  )
        23           O   tau(  23) = (   0.5000000   0.0000000   5.2250203  )
        24           Cu  tau(  24) = (   0.0000000   0.0000000   5.2644074  )
        25           Ba  tau(  25) = (   0.5000000   0.4735409   5.7328010  )
        26           O   tau(  26) = (   0.0000000   0.0000000   5.7987286  )
        27           Cu  tau(  27) = (   0.0000000   0.0000000   6.2753686  )
        28           O   tau(  28) = (   0.0000000   0.4735409   6.3487869  )

     number of k points=    25  Gaussian smearing, width (Ry)=  0.0100
                       cart. coord. in units 2pi/alat
        k(    1) = (   0.0000000   0.0000000   0.0000000), wk =   0.0312500
        k(    2) = (   0.0000000   0.1319845   0.0000000), wk =   0.0625000
        k(    3) = (   0.0000000   0.2639689   0.0000000), wk =   0.0625000
        k(    4) = (   0.0000000   0.3959534   0.0000000), wk =   0.0625000
        k(    5) = (   0.0000000  -0.5279378   0.0000000), wk =   0.0312500
        k(    6) = (   0.1250000   0.0000000   0.0000000), wk =   0.0625000
        k(    7) = (   0.1250000   0.1319845   0.0000000), wk =   0.1250000
        k(    8) = (   0.1250000   0.2639689   0.0000000), wk =   0.1250000
        k(    9) = (   0.1250000   0.3959534   0.0000000), wk =   0.1250000
        k(   10) = (   0.1250000  -0.5279378   0.0000000), wk =   0.0625000
        k(   11) = (   0.2500000   0.0000000   0.0000000), wk =   0.0625000
        k(   12) = (   0.2500000   0.1319845   0.0000000), wk =   0.1250000
        k(   13) = (   0.2500000   0.2639689   0.0000000), wk =   0.1250000
        k(   14) = (   0.2500000   0.3959534   0.0000000), wk =   0.1250000
        k(   15) = (   0.2500000  -0.5279378   0.0000000), wk =   0.0625000
        k(   16) = (   0.3750000   0.0000000   0.0000000), wk =   0.0625000
        k(   17) = (   0.3750000   0.1319845   0.0000000), wk =   0.1250000
        k(   18) = (   0.3750000   0.2639689   0.0000000), wk =   0.1250000
        k(   19) = (   0.3750000   0.3959534   0.0000000), wk =   0.1250000
        k(   20) = (   0.3750000  -0.5279378   0.0000000), wk =   0.0625000
        k(   21) = (  -0.5000000   0.0000000   0.0000000), wk =   0.0312500
        k(   22) = (  -0.5000000   0.1319845   0.0000000), wk =   0.0625000
        k(   23) = (  -0.5000000   0.2639689   0.0000000), wk =   0.0625000
        k(   24) = (  -0.5000000   0.3959534   0.0000000), wk =   0.0625000
        k(   25) = (  -0.5000000  -0.5279378   0.0000000), wk =   0.0312500

     Initial potential from superposition of free atoms

     starting charge  226.84630, renormalised to  227.00000

     negative rho (up, down):  3.455E-03 0.000E+00
     Starting wfcs are  195 randomized atomic wfcs

     Self-consistent Calculation

     iteration #  1     ecut=    60.00 Ry     beta= 0.50
     Davidson diagonalization with overlap
     ethr =  1.00E-02,  avg # of iterations =  2.0

     negative rho (up, down):  4.989E-04 0.000E+00

     total energy              =   -1840.89369741 Ry
     Harris-Foulkes estimate   =   -1845.36542105 Ry
     estimated scf accuracy    <      17.91813851 Ry

[...]

     iteration # 12     ecut=    60.00 Ry     beta= 0.50
     Davidson diagonalization with overlap
     c_bands:  1 eigenvalues not converged
     ethr =  1.49E-05,  avg # of iterations =  7.3

[...]

     iteration # 22     ecut=    60.00 Ry     beta= 0.50
     Davidson diagonalization with overlap
     c_bands:  1 eigenvalues not converged
     ethr =  6.18E-08,  avg # of iterations =  7.5

[...]

     total energy              =   -1842.84593393 Ry
     Harris-Foulkes estimate   =   -1842.84593392 Ry
     estimated scf accuracy    <       0.00000004 Ry

     iteration # 31     ecut=    60.00 Ry     beta= 0.50
     Davidson diagonalization with overlap
     ethr =  1.61E-11,  avg # of iterations =  1.6

[...]

     End of self-consistent calculation

          k = 0.0000 0.0000 0.0000 ( 34843 PWs)   bands (ev):

   -35.6430 -35.5026 -23.7000 -22.8440 -22.8436 -22.6042 -17.1472 -16.9815
   -16.6941 -16.6827 -16.5661 -16.5500 -15.3570 -15.2451 -14.9651 -14.7248
   -14.7171 -14.6283 -14.4357 -14.2344 -14.2311 -14.0360 -14.0129 -13.8817
   -13.7808 -13.6370 -13.5939  -8.9297  -8.5669  -8.4708  -7.9755  -7.9735
    -7.9378  -7.9377  -7.7896  -7.7449  -7.7444  -7.6481  -7.4820  -2.3839
    -2.3826  -2.1525  -1.8826  -1.8793  -1.8231  -1.7231  -1.6899  -1.6236
    -1.5970  -1.5379  -1.5031  -1.3381  -1.2751  -1.2733  -1.1756  -0.9593
    -0.7306  -0.7106  -0.5129  -0.5113  -0.4337  -0.4289  -0.3643  -0.3448
    -0.3190  -0.3174  -0.3152  -0.3020  -0.2864  -0.2680  -0.2170  -0.1982
    -0.1865  -0.1751  -0.0917  -0.0897   0.0444   0.0460   0.0461   0.0490
     0.0950   0.1195   0.1482   0.2404   0.2499   0.2702   0.3128   0.3265
     0.5242   0.5411   0.7164   0.8281   0.8290   0.8906   0.9093   1.1282
     1.1722   1.2813   1.2944   1.3221   1.3487   1.3645   1.4509   1.4587
     1.5840   1.7302   1.7432   1.7681   1.8285   1.8971   1.9061   1.9589
     1.9848   2.0357   2.0720   2.1816   2.1825   2.4728   2.4819   5.0753
     5.1636   5.2173   5.8172   6.0579   6.4750   6.7097   6.7137   6.9920
     7.5802   7.9206   8.0720   8.1435   8.2525   8.4340   8.5367   8.6703
     9.0167

[...]

          k = 0.3750-0.5279 0.0000 ( 34780 PWs)   bands (ev):

[...]

          k =-0.5000 0.0000 0.0000 ( 34714 PWs)   bands (ev):

[...]

          k =-0.5000-0.5279 0.0000 ( 34796 PWs)   bands (ev):

   -35.6233 -35.4828 -23.4808 -22.5711 -22.5706 -22.3416 -17.0690 -17.0600
   -16.9443 -16.9249 -16.6836 -16.5135 -14.6675 -14.6663 -14.4932 -14.4393
   -14.3899 -14.3215 -14.2507 -14.1518 -14.1112 -14.1072 -14.0652 -13.9915
   -13.9453 -13.8302 -13.6305  -9.5934  -9.1398  -8.8050  -8.8040  -8.8031
    -8.5635  -8.5361  -8.5360  -8.2134  -8.0694  -8.0674  -7.8655  -4.1425
    -4.0991  -3.8321  -3.7078  -3.5255  -3.2162  -3.2144  -2.7895  -2.7872
    -2.6254  -2.4549  -2.3407  -2.3393  -2.3387  -2.2955  -2.1337  -2.0183
    -1.9236  -1.8285  -1.4259  -1.4026  -1.3992  -1.2246  -1.2144  -1.0766
    -1.0624  -1.0370  -1.0355  -0.9427  -0.8697  -0.8266  -0.7174  -0.6678
    -0.5125  -0.3843  -0.3827   0.1295   0.2592   0.3572   0.4704   0.7810
     0.9712   1.1757   1.2375   1.2949   1.2955   1.3094   1.3508   1.3565
     1.3860   1.5732   1.5874   1.7085   1.7281   1.7305   1.7418   1.8289
     1.8351   1.8520   1.9392   1.9758   1.9838   1.9855   2.0291   2.0387
     2.1424   2.2001   2.2498   2.2871   2.2891   2.3727   2.4531   2.4809
     2.4915   2.6629   4.1907   4.6565   4.6625   4.7245   4.8021   5.0079
     5.9192   5.9192   6.7198   7.0642   7.5841   7.6242   8.3164   8.7614
     8.9817   9.0001   9.0383   9.1942   9.4339   9.5002   9.8060   9.8598
    10.0518

     the Fermi energy is     2.5144 ev

!    total energy              =   -1842.84593393 Ry
     Harris-Foulkes estimate   =   -1842.84593393 Ry
     estimated scf accuracy    <          3.1E-09 Ry

     The total energy is the sum of the following terms:

     one-electron contribution =  -28579.25407897 Ry
     hartree contribution      =   14442.06894692 Ry
     xc contribution           =    -621.57319857 Ry
     ewald contribution        =   12915.91996389 Ry
     smearing contrib. (-TS)   =      -0.00756721 Ry

     convergence has been achieved in  31 iterations

     negative rho (up, down):  1.515E-03 0.000E+00

     Forces acting on atoms (cartesian axes, Ry/au):

     atom    1 type  4   force =     0.00000000    0.00000000   -0.00018871
     atom    2 type  3   force =     0.00000000    0.00000000    0.00034594
     atom    3 type  4   force =     0.00000000    0.00000000   -0.00077076
     atom    4 type  1   force =     0.00000000    0.00000000   -0.00027714
     atom    5 type  3   force =     0.00000000    0.00000000    0.00062662
     atom    6 type  4   force =     0.00000000    0.00000000    0.00004374
     atom    7 type  4   force =     0.00000000    0.00000000    0.00031844
     atom    8 type  2   force =     0.00000000    0.00000000   -0.00075927
     atom    9 type  4   force =     0.00000000    0.00000000    0.00021156
     atom   10 type  4   force =     0.00000000    0.00000000    0.00024355
     atom   11 type  3   force =     0.00000000    0.00000000    0.00050016
     atom   12 type  1   force =     0.00000000    0.00000000   -0.00105973
     atom   13 type  4   force =     0.00000000    0.00000000    0.00540425
     atom   14 type  4   force =     0.00000000    0.00000000    0.01268409
     atom   15 type  3   force =     0.00000000    0.00000000   -0.01080959
     atom   16 type  4   force =     0.00000000    0.00000000    0.01400148
     atom   17 type  1   force =     0.00000000    0.00000000    0.00133044
     atom   18 type  3   force =     0.00000000    0.00000000   -0.00479945
     atom   19 type  4   force =     0.00000000    0.00000000   -0.00048830
     atom   20 type  4   force =     0.00000000    0.00000000   -0.00293773
     atom   21 type  2   force =     0.00000000    0.00000000   -0.01657147
     atom   22 type  4   force =     0.00000000    0.00000000    0.00037127
     atom   23 type  4   force =     0.00000000    0.00000000    0.00163434
     atom   24 type  3   force =     0.00000000    0.00000000   -0.00009517
     atom   25 type  1   force =     0.00000000    0.00000000    0.00026944
     atom   26 type  4   force =     0.00000000    0.00000000    0.00110533
     atom   27 type  3   force =     0.00000000    0.00000000   -0.00063565
     atom   28 type  4   force =     0.00000000    0.00000000    0.00030231

     Total force =     0.028623     Total SCF correction =     0.000247

     Computing stress (Cartesian axis) and pressure

     negative rho (up, down):  1.515E-03 0.000E+00
          total   stress  (Ry/bohr**3)                   (kbar)     P=       -8.29
  -0.00007935   0.00000000   0.00000000          -11.67        0.00        0.00
   0.00000000  -0.00004008   0.00000000            0.00       -5.90        0.00
   0.00000000   0.00000000  -0.00004956            0.00        0.00       -7.29

     General routines

     Parallel routines

   This run was terminated on:  23:19: 4  21May2021

   JOB DONE.
[1621653544.894120] [holy7c06205:62232:0]          mpool.c:43   UCX  WARN  object 0x2eb0840 was not returned to mpool ucp_requests
[1621653544.894700] [holy7c06201:121172:0]          mpool.c:43   UCX  WARN  object 0x27eafc0 was not returned to mpool ucp_requests
[1621653544.895521] [holy7c06108:24768:0]          mpool.c:43   UCX  WARN  object 0x40a2540 was not returned to mpool ucp_requests
[1621653544.895541] [holy7c06108:24768:0]          mpool.c:43   UCX  WARN  object 0x40a2fc0 was not returned to mpool ucp_requests
[1621653544.897034] [holy7c04410:162062:0]          mpool.c:43   UCX  WARN  object 0x34247c0 was not returned to mpool ucp_requests
[1621653544.902359] [holy7c04504:249954:0]          mpool.c:43   UCX  WARN  object 0x39d7c80 was not returned to mpool ucp_requests
[1621653544.904415] [holy7c04503:58019:0]          mpool.c:43   UCX  WARN  object 0x415fa80 was not returned to mpool ucp_requests
[1621653544.904444] [holy7c04503:58019:0]          mpool.c:43   UCX  WARN  object 0x415fe00 was not returned to mpool ucp_requests
[1621653544.905920] [holy7c06203:112618:0]          mpool.c:43   UCX  WARN  object 0x47cf440 was not returned to mpool ucp_requests
[1621653544.905939] [holy7c06203:112618:0]          mpool.c:43   UCX  WARN  object 0x47cf7c0 was not returned to mpool ucp_requests
[1621653544.910421] [holy7c06302:232180:0]          mpool.c:43   UCX  WARN  object 0x42d5580 was not returned to mpool ucp_requests