     Program PWSCF v.6.5 starts on 21May2021 at 22:30:49

     R & G space division:  proc/nbgrp/npool/nimage =      20
     Reading input from CBCO_Y_cleave_0.25_sep.pwi
Warning: card &IONS ignored
Warning: card     ION_DYNAMICS = 'BFGS' ignored
Warning: card / ignored
Warning: card &CELL ignored
Warning: card     CELL_DYNAMICS = 'BFGS' ignored
Warning: card     PRESS_CONV_THR = 5 ignored
Warning: card / ignored

     Current dimensions of program PWSCF are:
     Max number of different atomic species (ntypx) = 10
     Max number of k-points (npk) =  40000
     Max angular momentum in pseudopotentials (lmaxx) =  3

     Message from routine setup:
     using ibrav=0 with symmetry is DISCOURAGED, use correct ibrav instead

     bravais-lattice index     =            0
     lattice parameter (alat)  =       7.4270  a.u.
     unit-cell volume          =    4326.9901 (a.u.)^3
     number of atoms/cell      =           28
     number of atomic types    =            4
     number of electrons       =       227.00
     number of Kohn-Sham states=          137
     kinetic-energy cutoff     =      60.0000  Ry
     charge density cutoff     =     720.0000  Ry
     convergence threshold     =      1.0E-08
     mixing beta               =       0.5000
     number of iterations used =           10  local-TF  mixing
     Exchange-correlation= SLA PW PBE PBE
                           (   1   4   3   4   0   0   0)

     celldm(1)=   7.427040  celldm(2)=   0.000000  celldm(3)=   0.000000
     celldm(4)=   0.000000  celldm(5)=   0.000000  celldm(6)=   0.000000

     crystal axes: (cart. coord. in units of alat)
               a(1) = (   1.000000   0.000000   0.000000 )
               a(2) = (   0.000000   0.947081   0.000000 )
               a(3) = (   0.000000   0.000000  11.151966 )

     reciprocal axes: (cart. coord. in units 2 pi/alat)
               b(1) = (  1.000000  0.000000  0.000000 )
               b(2) = (  0.000000  1.055876  0.000000 )
               b(3) = (  0.000000  0.000000  0.089670 )

     PseudoPot. # 1 for Ba read from file:
     ./pseudo/Ba.pbe-nsp-van.UPF
     MD5 check sum: 2b9c31dd849566dd297d80989662b7a0
     Pseudo is Ultrasoft + core correction, Zval = 10.0
     Generated by new atomic code, or converted to UPF format
     Using radial grid of  907 points,  6 beta functions with:
                l(1) =   0
                l(2) =   0
                l(3) =   1
                l(4) =   1
                l(5) =   2
                l(6) =   2
     Q(r) pseudized with  6 coefficients,  rinner =    1.200   1.200   1.200
                                                       1.200   1.200

     PseudoPot. # 2 for Ca read from file:
     ./pseudo/Ca.pbe-nsp-van.UPF
     MD5 check sum: 6471098428ff4fa451746d08035ff179
     Pseudo is Ultrasoft + core correction, Zval = 10.0
     Generated by new atomic code, or converted to UPF format
     Using radial grid of  845 points,  6 beta functions with:
                l(1) =   0
                l(2) =   0
                l(3) =   1
                l(4) =   1
                l(5) =   2
                l(6) =   2
     Q(r) pseudized with  6 coefficients,  rinner =    1.200   1.200   1.200
                                                       1.200   1.200

     PseudoPot. # 3 for Cu read from file:
     ./pseudo/Cu.pbe-n-van_ak.UPF
     MD5 check sum: 34e3282627ffb533726feb647e090d62
     Pseudo is Ultrasoft + core correction, Zval = 11.0
     Generated by new atomic code, or converted to UPF format
     Using radial grid of  867 points,  6 beta functions with:
                l(1) =   0
                l(2) =   0
                l(3) =   1
                l(4) =   1
                l(5) =   2
                l(6) =   2
     Q(r) pseudized with  8 coefficients,  rinner =    1.400   1.400   1.400
                                                       1.400   1.400

     PseudoPot. # 4 for O  read from file:
     ./pseudo/O.pbe-van_ak.UPF
     MD5 check sum: 783ce7fe4c79b6a4916957118fed0856
     Pseudo is Ultrasoft, Zval =  6.0
     Generated by new atomic code, or converted to UPF format
     Using radial grid of  737 points,  4 beta functions with:
                l(1) =   0
                l(2) =   0
                l(3) =   1
                l(4) =   1
     Q(r) pseudized with  8 coefficients,  rinner =    0.800   0.800   0.800

     atomic species   valence    mass     pseudopotential
        Ba            10.00   137.32700     Ba( 1.00)
        Ca            10.00    40.07800     Ca( 1.00)
        Cu            11.00    63.54600     Cu( 1.00)
        O              6.00    15.99900     O ( 1.00)

      4 Sym. Ops. (no inversion) found

   Cartesian axes

     site n.     atom                  positions (alat units)
         1           O   tau(   1) = (   0.0000000   0.4735409  -0.0469745  )
         2           Cu  tau(   2) = (   0.0000000   0.0000000   0.0264565  )
         3           O   tau(   3) = (   0.0000000   0.0000000   0.5030914  )
         4           Ba  tau(   4) = (   0.5000000   0.4735409   0.5690292  )
         5           Cu  tau(   5) = (   0.0000000   0.0000000   1.0374254  )
         6           O   tau(   6) = (   0.5000000   0.0000000   1.0768099  )
         7           O   tau(   7) = (   0.0000000   0.4735409   1.1116985  )
         8           Ca  tau(   8) = (   0.5000000   0.4735409   1.4976260  )
         9           O   tau(   9) = (   0.0000000   0.4735409   1.8667529  )
        10           O   tau(  10) = (   0.5000000   0.0000000   1.9044124  )
        11           Cu  tau(  11) = (   0.0000000   0.0000000   1.9512546  )
        12           Ba  tau(  12) = (   0.5000000   0.4735409   2.4295764  )
        13           O   tau(  13) = (   0.0000000   0.0000000   2.5115362  )
        14           O   tau(  14) = (   0.0000000   0.4735409   2.9918528  )
        15           Cu  tau(  15) = (   0.0000000   0.0000000   2.9919088  )
        16           O   tau(  16) = (   0.0000000   0.0000000   3.4722686  )
        17           Ba  tau(  17) = (   0.5000000   0.4735409   3.5542208  )
        18           Cu  tau(  18) = (   0.0000000   0.0000000   4.0325248  )
        19           O   tau(  19) = (   0.5000000   0.0000000   4.0793669  )
        20           O   tau(  20) = (   0.0000000   0.4735409   4.1170213  )
        21           Ca  tau(  21) = (   0.5000000   0.4735409   4.4861584  )
        22           O   tau(  22) = (   0.0000000   0.4735409   4.9356930  )
        23           O   tau(  23) = (   0.5000000   0.0000000   4.9705816  )
        24           Cu  tau(  24) = (   0.0000000   0.0000000   5.0099687  )
        25           Ba  tau(  25) = (   0.5000000   0.4735409   5.4783624  )
        26           O   tau(  26) = (   0.0000000   0.0000000   5.5442900  )
        27           Cu  tau(  27) = (   0.0000000   0.0000000   6.0209299  )
        28           O   tau(  28) = (   0.0000000   0.4735409   6.0943482  )

     number of k points=    25  Gaussian smearing, width (Ry)=  0.0100
                       cart. coord. in units 2pi/alat
        k(    1) = (   0.0000000   0.0000000   0.0000000), wk =   0.0312500
        k(    2) = (   0.0000000   0.1319845   0.0000000), wk =   0.0625000
        k(    3) = (   0.0000000   0.2639689   0.0000000), wk =   0.0625000
        k(    4) = (   0.0000000   0.3959534   0.0000000), wk =   0.0625000
        k(    5) = (   0.0000000  -0.5279378   0.0000000), wk =   0.0312500
        k(    6) = (   0.1250000   0.0000000   0.0000000), wk =   0.0625000
        k(    7) = (   0.1250000   0.1319845   0.0000000), wk =   0.1250000
        k(    8) = (   0.1250000   0.2639689   0.0000000), wk =   0.1250000
        k(    9) = (   0.1250000   0.3959534   0.0000000), wk =   0.1250000
        k(   10) = (   0.1250000  -0.5279378   0.0000000), wk =   0.0625000
        k(   11) = (   0.2500000   0.0000000   0.0000000), wk =   0.0625000
        k(   12) = (   0.2500000   0.1319845   0.0000000), wk =   0.1250000
        k(   13) = (   0.2500000   0.2639689   0.0000000), wk =   0.1250000
        k(   14) = (   0.2500000   0.3959534   0.0000000), wk =   0.1250000
        k(   15) = (   0.2500000  -0.5279378   0.0000000), wk =   0.0625000
        k(   16) = (   0.3750000   0.0000000   0.0000000), wk =   0.0625000
        k(   17) = (   0.3750000   0.1319845   0.0000000), wk =   0.1250000
        k(   18) = (   0.3750000   0.2639689   0.0000000), wk =   0.1250000
        k(   19) = (   0.3750000   0.3959534   0.0000000), wk =   0.1250000
        k(   20) = (   0.3750000  -0.5279378   0.0000000), wk =   0.0625000
        k(   21) = (  -0.5000000   0.0000000   0.0000000), wk =   0.0312500
        k(   22) = (  -0.5000000   0.1319845   0.0000000), wk =   0.0625000
        k(   23) = (  -0.5000000   0.2639689   0.0000000), wk =   0.0625000
        k(   24) = (  -0.5000000   0.3959534   0.0000000), wk =   0.0625000
        k(   25) = (  -0.5000000  -0.5279378   0.0000000), wk =   0.0312500

     Initial potential from superposition of free atoms

     starting charge  226.84630, renormalised to  227.00000

     negative rho (up, down):  3.550E-03 0.000E+00
     Starting wfcs are  195 randomized atomic wfcs

     Self-consistent Calculation

     iteration #  1     ecut=    60.00 Ry     beta= 0.50
     Davidson diagonalization with overlap
     ethr =  1.00E-02,  avg # of iterations =  2.0

     negative rho (up, down):  5.009E-04 0.000E+00

     total energy              =   -1840.98562436 Ry
     Harris-Foulkes estimate   =   -1845.33789306 Ry
     estimated scf accuracy    <      18.37968548 Ry

[...]

     iteration # 14     ecut=    60.00 Ry     beta= 0.50
     Davidson diagonalization with overlap
     c_bands:  1 eigenvalues not converged
     ethr =  7.88E-06,  avg # of iterations =  8.3

[...]

     iteration # 22     ecut=    60.00 Ry     beta= 0.50
     Davidson diagonalization with overlap
     c_bands:  1 eigenvalues not converged
     c_bands:  1 eigenvalues not converged
     ethr =  8.12E-08,  avg # of iterations =  7.7

[...]

     total energy              =   -1842.89194247 Ry
     Harris-Foulkes estimate   =   -1842.89194247 Ry
     estimated scf accuracy    <       0.00000001 Ry

     iteration # 34     ecut=    60.00 Ry     beta= 0.50
     Davidson diagonalization with overlap
     ethr =  4.60E-12,  avg # of iterations =  1.0

[...]

     End of self-consistent calculation

          k = 0.0000 0.0000 0.0000 ( 34019 PWs)   bands (ev):

   -36.0890 -35.5007 -22.7057 -22.6593 -22.4936 -22.4415 -17.3608 -17.1159
   -17.1143 -17.0052 -16.5519 -16.5405 -15.2160 -15.1772 -14.7762 -14.7282
   -14.5859 -14.5664 -14.4864 -14.0959 -14.0954 -13.8965 -13.8910 -13.7496
   -13.7379 -13.6553 -13.5426  -7.8370  -7.7995  -7.7704  -7.7594  -7.6797
    -7.6221  -7.6065  -7.5653  -7.5400  -7.4831  -7.3710  -7.3199  -2.2445
    -2.2383  -2.1706  -1.7672  -1.7444  -1.6810  -1.6508  -1.6057  -1.5826
    -1.4531  -1.4077  -1.3975  -1.3499  -1.1354  -1.1347  -0.9802  -0.9544
    -0.7532  -0.5088  -0.3730  -0.3674  -0.3619  -0.2911  -0.2753  -0.2221
    -0.1791  -0.1691  -0.1648  -0.1601  -0.1596  -0.1289  -0.1136  -0.0834
    -0.0625   0.0036   0.0483   0.0563   0.1832   0.1843   0.1846   0.2214
     0.2325   0.2371   0.2590   0.2675   0.3584   0.3692   0.3956   0.4098
     0.5078   0.8817   0.8883   0.9674   0.9774   1.0372   1.0719   1.2683
     1.2908   1.4155   1.4321   1.4704   1.4735   1.5329   1.5666   1.5950
     1.6191   1.6196   1.6262   1.8502   1.9230   1.9829   2.1220   2.1733
     2.2389   2.2691   2.2949   2.3672   2.3777   2.6145   2.6221   5.2833
     5.3024   5.7995   6.1436   6.4851   6.8486   6.8654   7.2175   7.3887
     8.0580   8.1791   8.3440   8.4057   8.5728   8.6971   8.7343   9.1706
     9.1828

[...]

          k = 0.3750-0.5279 0.0000 ( 34004 PWs)   bands (ev):

[...]

          k =-0.5000 0.0000 0.0000 ( 33930 PWs)   bands (ev):

[...]

          k =-0.5000-0.5279 0.0000 ( 34028 PWs)   bands (ev):

   -36.0717 -35.4811 -22.4328 -22.3860 -22.2300 -22.1799 -17.3868 -17.3631
   -17.0553 -16.9270 -16.9178 -16.5414 -14.5281 -14.5222 -14.3532 -14.3468
   -14.1923 -14.1806 -14.1596 -14.1550 -14.0095 -13.9921 -13.9693 -13.9685
   -13.9513 -13.8473 -13.7660  -8.6657  -8.6274  -8.4540  -8.4003  -8.3977
    -8.3611  -8.1912  -7.9842  -7.9312  -7.8617  -7.8400  -7.6319  -4.0037
    -3.9235  -3.7397  -3.6733  -3.5050  -3.0759  -3.0752  -2.6492  -2.6163
    -2.5242  -2.4819  -2.2121  -2.2012  -2.1921  -2.1603  -2.1285  -1.9315
    -1.8513  -1.6194  -1.2638  -1.2498  -1.1488  -1.0856  -1.0674  -0.9371
    -0.9132  -0.8970  -0.8955  -0.8736  -0.8719  -0.7965  -0.7885  -0.7129
    -0.4578  -0.2443  -0.2413   0.3184   0.4098   0.4777   0.8481   0.9633
     1.1798   1.3169   1.4320   1.4485   1.4488   1.4595   1.4886   1.4924
     1.5168   1.6668   1.6779   1.7219   1.7242   1.7589   1.9104   1.9411
     1.9764   1.9970   2.0519   2.0864   2.1393   2.1499   2.2145   2.2345
     2.2808   2.3019   2.4234   2.4257   2.4785   2.5153   2.6176   2.6235
     2.6360   2.6378   4.3106   4.7833   4.8077   4.8477   4.8680   5.5522
     6.0576   6.0632   6.8205   7.2083   8.9238   9.0083   9.1161   9.1407
     9.1855   9.2240   9.5398   9.6337   9.6591   9.6913   9.7940   9.9189
    10.0971

     the Fermi energy is     2.6527 ev

!    total energy              =   -1842.89194247 Ry
     Harris-Foulkes estimate   =   -1842.89194248 Ry
     estimated scf accuracy    <          2.2E-09 Ry

     The total energy is the sum of the following terms:

     one-electron contribution =  -30711.09457895 Ry
     hartree contribution      =   15509.24657176 Ry
     xc contribution           =    -621.75469686 Ry
     ewald contribution        =   13980.71884708 Ry
     smearing contrib. (-TS)   =      -0.00808550 Ry

     convergence has been achieved in  34 iterations

     negative rho (up, down):  1.494E-03 0.000E+00

     Forces acting on atoms (cartesian axes, Ry/au):

     atom    1 type  4   force =     0.00000000    0.00000000   -0.00013861
     atom    2 type  3   force =     0.00000000    0.00000000    0.00038642
     atom    3 type  4   force =     0.00000000    0.00000000   -0.00075139
     atom    4 type  1   force =     0.00000000    0.00000000   -0.00027571
     atom    5 type  3   force =     0.00000000    0.00000000    0.00051756
     atom    6 type  4   force =     0.00000000    0.00000000   -0.00001531
     atom    7 type  4   force =     0.00000000    0.00000000    0.00034520
     atom    8 type  2   force =     0.00000000    0.00000000   -0.00058814
     atom    9 type  4   force =     0.00000000    0.00000000    0.00023403
     atom   10 type  4   force =     0.00000000    0.00000000    0.00018272
     atom   11 type  3   force =     0.00000000    0.00000000    0.00023527
     atom   12 type  1   force =     0.00000000    0.00000000    0.00024556
     atom   13 type  4   force =     0.00000000    0.00000000    0.00131469
     atom   14 type  4   force =     0.00000000    0.00000000    0.00050261
     atom   15 type  3   force =     0.00000000    0.00000000   -0.00085996
     atom   16 type  4   force =     0.00000000    0.00000000   -0.00055668
     atom   17 type  1   force =     0.00000000    0.00000000   -0.00318747
     atom   18 type  3   force =     0.00000000    0.00000000    0.00062920
     atom   19 type  4   force =     0.00000000    0.00000000    0.01186523
     atom   20 type  4   force =     0.00000000    0.00000000    0.01338001
     atom   21 type  2   force =     0.00000000    0.00000000    0.02042901
     atom   22 type  4   force =     0.00000000    0.00000000   -0.01614639
     atom   23 type  4   force =     0.00000000    0.00000000   -0.01456245
     atom   24 type  3   force =     0.00000000    0.00000000   -0.00559995
     atom   25 type  1   force =     0.00000000    0.00000000   -0.00812389
     atom   26 type  4   force =     0.00000000    0.00000000    0.00080057
     atom   27 type  3   force =     0.00000000    0.00000000   -0.00053395
     atom   28 type  4   force =     0.00000000    0.00000000    0.00027181

     Total force =     0.036381     Total SCF correction =     0.000211

     Computing stress (Cartesian axis) and pressure

     negative rho (up, down):  1.494E-03 0.000E+00
          total   stress  (Ry/bohr**3)                   (kbar)     P=       -3.46
  -0.00000793   0.00000000   0.00000000           -1.17        0.00        0.00
   0.00000000  -0.00000390   0.00000000            0.00       -0.57        0.00
   0.00000000   0.00000000  -0.00005881            0.00        0.00       -8.65

     General routines

     Parallel routines

   This run was terminated on:  22:43:10  21May2021

   JOB DONE.
[1621651390.469127] [holy7c06108:22429:0]          mpool.c:43   UCX  WARN  object 0x2ef40c0 was not returned to mpool ucp_requests
[1621651390.469147] [holy7c06108:22429:0]          mpool.c:43   UCX  WARN  object 0x2ef4600 was not returned to mpool ucp_requests
[1621651390.471154] [holy7c06205:60098:0]          mpool.c:43   UCX  WARN  object 0x301da40 was not returned to mpool ucp_requests
[1621651390.472736] [holy7c04410:158868:0]          mpool.c:43   UCX  WARN  object 0x476db00 was not returned to mpool ucp_requests
[1621651390.476291] [holy7c06201:114565:0]          mpool.c:43   UCX  WARN  object 0x4440840 was not returned to mpool ucp_requests
[1621651390.474880] [holy7c04504:247849:0]          mpool.c:43   UCX  WARN  object 0x4447740 was not returned to mpool ucp_requests
[1621651390.477513] [holy7c06203:109483:0]          mpool.c:43   UCX  WARN  object 0x3868fc0 was not returned to mpool ucp_requests
[1621651390.477532] [holy7c06203:109483:0]          mpool.c:43   UCX  WARN  object 0x3869340 was not returned to mpool ucp_requests
[1621651390.485038] [holy7c04503:55930:0]          mpool.c:43   UCX  WARN  object 0x33d7980 was not returned to mpool ucp_requests
[1621651390.490817] [holy7c06302:230076:0]          mpool.c:43   UCX  WARN  object 0x2d58bc0 was not returned to mpool ucp_requests