     Program PWSCF v.6.5 starts on 21May2021 at 22:31:55

     R & G space division:  proc/nbgrp/npool/nimage =      20
     Reading input from CBCO_Y_cleave_1.75_sep.pwi
Warning: card &IONS ignored
Warning: card     ION_DYNAMICS = 'BFGS' ignored
Warning: card / ignored
Warning: card &CELL ignored
Warning: card     CELL_DYNAMICS = 'BFGS' ignored
Warning: card     PRESS_CONV_THR = 5 ignored
Warning: card / ignored

     Current dimensions of program PWSCF are:
     Max number of different atomic species (ntypx) = 10
     Max number of k-points (npk) =  40000
     Max angular momentum in pseudopotentials (lmaxx) =  3

     Message from routine setup:
     using ibrav=0 with symmetry is DISCOURAGED, use correct ibrav instead

     bravais-lattice index     =            0
     lattice parameter (alat)  =       7.4270  a.u.
     unit-cell volume          =    4475.0743 (a.u.)^3
     number of atoms/cell      =           28
     number of atomic types    =            4
     number of electrons       =       227.00
     number of Kohn-Sham states=          137
     kinetic-energy cutoff     =      60.0000  Ry
     charge density cutoff     =     720.0000  Ry
     convergence threshold     =      1.0E-08
     mixing beta               =       0.5000
     number of iterations used =           10  local-TF  mixing
     Exchange-correlation= SLA PW PBE PBE
                           (   1   4   3   4   0   0   0)

     celldm(1)=   7.427040  celldm(2)=   0.000000  celldm(3)=   0.000000
     celldm(4)=   0.000000  celldm(5)=   0.000000  celldm(6)=   0.000000

     crystal axes: (cart. coord. in units of alat)
               a(1) = (   1.000000   0.000000   0.000000 )
               a(2) = (   0.000000   0.947081   0.000000 )
               a(3) = (   0.000000   0.000000  11.533624 )

     reciprocal axes: (cart. coord. in units 2 pi/alat)
               b(1) = (  1.000000  0.000000  0.000000 )
               b(2) = (  0.000000  1.055876  0.000000 )
               b(3) = (  0.000000  0.000000  0.086703 )

     PseudoPot. # 1 for Ba read from file:
     ./pseudo/Ba.pbe-nsp-van.UPF
     MD5 check sum: 2b9c31dd849566dd297d80989662b7a0
     Pseudo is Ultrasoft + core correction, Zval = 10.0
     Generated by new atomic code, or converted to UPF format
     Using radial grid of  907 points,  6 beta functions with:
                l(1) =   0
                l(2) =   0
                l(3) =   1
                l(4) =   1
                l(5) =   2
                l(6) =   2
     Q(r) pseudized with  6 coefficients,  rinner =    1.200   1.200   1.200
                                                       1.200   1.200

     PseudoPot. # 2 for Ca read from file:
     ./pseudo/Ca.pbe-nsp-van.UPF
     MD5 check sum: 6471098428ff4fa451746d08035ff179
     Pseudo is Ultrasoft + core correction, Zval = 10.0
     Generated by new atomic code, or converted to UPF format
     Using radial grid of  845 points,  6 beta functions with:
                l(1) =   0
                l(2) =   0
                l(3) =   1
                l(4) =   1
                l(5) =   2
                l(6) =   2
     Q(r) pseudized with  6 coefficients,  rinner =    1.200   1.200   1.200
                                                       1.200   1.200

     PseudoPot. # 3 for Cu read from file:
     ./pseudo/Cu.pbe-n-van_ak.UPF
     MD5 check sum: 34e3282627ffb533726feb647e090d62
     Pseudo is Ultrasoft + core correction, Zval = 11.0
     Generated by new atomic code, or converted to UPF format
     Using radial grid of  867 points,  6 beta functions with:
                l(1) =   0
                l(2) =   0
                l(3) =   1
                l(4) =   1
                l(5) =   2
                l(6) =   2
     Q(r) pseudized with  8 coefficients,  rinner =    1.400   1.400   1.400
                                                       1.400   1.400

     PseudoPot. # 4 for O  read from file:
     ./pseudo/O.pbe-van_ak.UPF
     MD5 check sum: 783ce7fe4c79b6a4916957118fed0856
     Pseudo is Ultrasoft, Zval =  6.0
     Generated by new atomic code, or converted to UPF format
     Using radial grid of  737 points,  4 beta functions with:
                l(1) =   0
                l(2) =   0
                l(3) =   1
                l(4) =   1
     Q(r) pseudized with  8 coefficients,  rinner =    0.800   0.800   0.800

     atomic species   valence    mass     pseudopotential
        Ba            10.00   137.32700     Ba( 1.00)
        Ca            10.00    40.07800     Ca( 1.00)
        Cu            11.00    63.54600     Cu( 1.00)
        O              6.00    15.99900     O ( 1.00)

      4 Sym. Ops. (no inversion) found

   Cartesian axes

     site n.     atom                  positions (alat units)
         1           O   tau(   1) = (   0.0000000   0.4735409  -0.0469745  )
         2           Cu  tau(   2) = (   0.0000000   0.0000000   0.0264565  )
         3           O   tau(   3) = (   0.0000000   0.0000000   0.5030914  )
         4           Ba  tau(   4) = (   0.5000000   0.4735409   0.5690292  )
         5           Cu  tau(   5) = (   0.0000000   0.0000000   1.0374254  )
         6           O   tau(   6) = (   0.5000000   0.0000000   1.0768099  )
         7           O   tau(   7) = (   0.0000000   0.4735409   1.1116985  )
         8           Ca  tau(   8) = (   0.5000000   0.4735409   1.4976260  )
         9           O   tau(   9) = (   0.0000000   0.4735409   1.8667529  )
        10           O   tau(  10) = (   0.5000000   0.0000000   1.9044124  )
        11           Cu  tau(  11) = (   0.0000000   0.0000000   1.9512546  )
        12           Ba  tau(  12) = (   0.5000000   0.4735409   2.4295764  )
        13           O   tau(  13) = (   0.0000000   0.0000000   2.5115362  )
        14           O   tau(  14) = (   0.0000000   0.4735409   2.9918528  )
        15           Cu  tau(  15) = (   0.0000000   0.0000000   2.9919088  )
        16           O   tau(  16) = (   0.0000000   0.0000000   3.4722686  )
        17           Ba  tau(  17) = (   0.5000000   0.4735409   3.5542208  )
        18           Cu  tau(  18) = (   0.0000000   0.0000000   4.0325248  )
        19           O   tau(  19) = (   0.5000000   0.0000000   4.0793669  )
        20           O   tau(  20) = (   0.0000000   0.4735409   4.1170213  )
        21           Ca  tau(  21) = (   0.5000000   0.4735409   4.4861584  )
        22           O   tau(  22) = (   0.0000000   0.4735409   5.3173510  )
        23           O   tau(  23) = (   0.5000000   0.0000000   5.3522397  )
        24           Cu  tau(  24) = (   0.0000000   0.0000000   5.3916268  )
        25           Ba  tau(  25) = (   0.5000000   0.4735409   5.8600204  )
        26           O   tau(  26) = (   0.0000000   0.0000000   5.9259480  )
        27           Cu  tau(  27) = (   0.0000000   0.0000000   6.4025879  )
        28           O   tau(  28) = (   0.0000000   0.4735409   6.4760062  )

     number of k points=    25  Gaussian smearing, width (Ry)=  0.0100
                       cart. coord. in units 2pi/alat
        k(    1) = (   0.0000000   0.0000000   0.0000000), wk =   0.0312500
        k(    2) = (   0.0000000   0.1319845   0.0000000), wk =   0.0625000
        k(    3) = (   0.0000000   0.2639689   0.0000000), wk =   0.0625000
        k(    4) = (   0.0000000   0.3959534   0.0000000), wk =   0.0625000
        k(    5) = (   0.0000000  -0.5279378   0.0000000), wk =   0.0312500
        k(    6) = (   0.1250000   0.0000000   0.0000000), wk =   0.0625000
        k(    7) = (   0.1250000   0.1319845   0.0000000), wk =   0.1250000
        k(    8) = (   0.1250000   0.2639689   0.0000000), wk =   0.1250000
        k(    9) = (   0.1250000   0.3959534   0.0000000), wk =   0.1250000
        k(   10) = (   0.1250000  -0.5279378   0.0000000), wk =   0.0625000
        k(   11) = (   0.2500000   0.0000000   0.0000000), wk =   0.0625000
        k(   12) = (   0.2500000   0.1319845   0.0000000), wk =   0.1250000
        k(   13) = (   0.2500000   0.2639689   0.0000000), wk =   0.1250000
        k(   14) = (   0.2500000   0.3959534   0.0000000), wk =   0.1250000
        k(   15) = (   0.2500000  -0.5279378   0.0000000), wk =   0.0625000
        k(   16) = (   0.3750000   0.0000000   0.0000000), wk =   0.0625000
        k(   17) = (   0.3750000   0.1319845   0.0000000), wk =   0.1250000
        k(   18) = (   0.3750000   0.2639689   0.0000000), wk =   0.1250000
        k(   19) = (   0.3750000   0.3959534   0.0000000), wk =   0.1250000
        k(   20) = (   0.3750000  -0.5279378   0.0000000), wk =   0.0625000
        k(   21) = (  -0.5000000   0.0000000   0.0000000), wk =   0.0312500
        k(   22) = (  -0.5000000   0.1319845   0.0000000), wk =   0.0625000
        k(   23) = (  -0.5000000   0.2639689   0.0000000), wk =   0.0625000
        k(   24) = (  -0.5000000   0.3959534   0.0000000), wk =   0.0625000
        k(   25) = (  -0.5000000  -0.5279378   0.0000000), wk =   0.0312500

     Initial potential from superposition of free atoms

     starting charge  226.84630, renormalised to  227.00000

     negative rho (up, down):  3.501E-03 0.000E+00
     Starting wfcs are  195 randomized atomic wfcs

     Self-consistent Calculation

     iteration #  1     ecut=    60.00 Ry     beta= 0.50
     Davidson diagonalization with overlap
     ethr =  1.00E-02,  avg # of iterations =  2.0

     negative rho (up, down):  5.073E-04 0.000E+00

     total energy              =   -1840.97040899 Ry
     Harris-Foulkes estimate   =   -1845.30181831 Ry
     estimated scf accuracy    <      17.63161455 Ry

[...]

     iteration # 21     ecut=    60.00 Ry     beta= 0.50
     Davidson diagonalization with overlap
     c_bands:  1 eigenvalues not converged
     c_bands:  1 eigenvalues not converged
     ethr =  6.78E-07,  avg # of iterations =  6.5

[...]

     iteration # 23     ecut=    60.00 Ry     beta= 0.50
     Davidson diagonalization with overlap
     c_bands:  1 eigenvalues not converged
     ethr =  9.31E-08,  avg # of iterations =  4.5

[...]

     total energy              =   -1842.72054288 Ry
     Harris-Foulkes estimate   =   -1842.72054288 Ry
     estimated scf accuracy    <       0.00000001 Ry

     iteration # 35     ecut=    60.00 Ry     beta= 0.50
     Davidson diagonalization with overlap
     ethr =  5.75E-12,  avg # of iterations =  1.0

[...]

     End of self-consistent calculation

          k = 0.0000 0.0000 0.0000 ( 35217 PWs)   bands (ev):

   -38.5401 -35.6143 -22.8447 -22.8188 -22.6875 -22.5597 -19.5985 -19.5377
   -19.5201 -17.1186 -16.6655 -16.6541 -15.7009 -15.3291 -14.9957 -14.8855
   -14.6991 -14.6684 -14.5999 -14.5617 -14.2091 -14.1953 -14.0096 -13.8512
   -13.8019 -13.6766 -13.6672  -8.0588  -7.9501  -7.9126  -7.8698  -7.7979
    -7.7624  -7.7408  -7.7196  -7.7162  -7.6046  -7.6002  -7.4385  -2.3576
    -2.3368  -2.3239  -2.3179  -2.2329  -1.8576  -1.7942  -1.7559  -1.6958
    -1.5664  -1.5251  -1.5114  -1.2479  -1.2344  -1.1892  -1.1319  -1.0823
    -0.8887  -0.7171  -0.6501  -0.6225  -0.4862  -0.4623  -0.4042  -0.3508
    -0.3373  -0.2923  -0.2779  -0.2725  -0.2587  -0.2296  -0.2229  -0.2134
    -0.1963  -0.1382  -0.0648  -0.0280   0.0334   0.0712   0.0714   0.0814
     0.0841   0.1432   0.1458   0.1578   0.2059   0.2807   0.2960   0.3210
     0.3642   0.7095   0.7711   0.8410   0.8543   0.8854   0.9327   0.9679
     1.0253   1.1157   1.1566   1.3215   1.3392   1.4391   1.4551   1.4945
     1.5042   1.5463   1.6394   1.6813   1.7997   2.0062   2.0367   2.0721
     2.0861   2.1134   2.2117   2.2266   2.2427   2.4958   2.5083   3.5126
     5.1885   5.2184   5.7697   5.9460   6.1861   6.3731   6.7364   6.8730
     7.1346   7.1957   7.3060   7.5962   7.6425   7.9453   8.0822   8.1157
     8.3468

[...]

          k = 0.3750-0.5279 0.0000 ( 35168 PWs)   bands (ev):

[...]

          k =-0.5000 0.0000 0.0000 ( 35110 PWs)   bands (ev):

[...]

          k =-0.5000-0.5279 0.0000 ( 35180 PWs)   bands (ev):

   -38.5248 -35.5946 -22.5836 -22.5459 -22.4128 -22.2971 -19.7190 -19.6573
   -19.4809 -17.0406 -17.0313 -16.6549 -14.9830 -14.8309 -14.6412 -14.6321
   -14.4663 -14.2974 -14.2937 -14.2526 -14.1229 -14.0945 -14.0817 -14.0644
   -13.9664 -13.9604 -13.9051  -8.8044  -8.7788  -8.6537  -8.5198  -8.5109
    -8.4759  -8.3995  -8.1742  -8.1478  -8.0439  -7.8455  -7.7989  -4.3657
    -4.1157  -3.7968  -3.7196  -3.6346  -3.1890  -3.1717  -2.8168  -2.7623
    -2.6601  -2.6015  -2.5970  -2.3143  -2.3052  -2.2807  -2.2731  -1.9789
    -1.8751  -1.7735  -1.3786  -1.3374  -1.3040  -1.2921  -1.2792  -1.1980
    -1.0590  -1.0503  -1.0116  -1.0102  -0.9909  -0.9118  -0.8362  -0.8300
    -0.5992  -0.3574  -0.3381   0.2023   0.3313   0.3735   0.7070   0.8770
     1.0242   1.0627   1.2232   1.2408   1.2963   1.3152   1.3372   1.3800
     1.4448   1.4535   1.5440   1.5721   1.6061   1.6293   1.6535   1.8076
     1.8344   1.8828   1.8901   1.9185   2.0258   2.0571   2.0636   2.0879
     2.1107   2.1739   2.3125   2.3247   2.3268   2.4021   2.5045   2.5160
     2.5613   2.7901   4.0321   4.4758   4.6830   4.7506   4.7825   5.0854
     5.3702   5.8406   5.9446   6.1264   6.1810   7.0912   7.1901   8.0772
     8.5605   8.7909   8.7957   9.0094   9.0467   9.0993   9.2890   9.5388
     9.5649

     the Fermi energy is     2.5396 ev

!    total energy              =   -1842.72054287 Ry
     Harris-Foulkes estimate   =   -1842.72054288 Ry
     estimated scf accuracy    <          2.3E-09 Ry

     The total energy is the sum of the following terms:

     one-electron contribution =  -29393.56344610 Ry
     hartree contribution      =   14848.48318922 Ry
     xc contribution           =    -621.56079401 Ry
     ewald contribution        =   13323.92854494 Ry
     smearing contrib. (-TS)   =      -0.00803693 Ry

     convergence has been achieved in  35 iterations

     negative rho (up, down):  1.489E-03 0.000E+00

     Forces acting on atoms (cartesian axes, Ry/au):

     atom    1 type  4   force =     0.00000000    0.00000000   -0.00017439
     atom    2 type  3   force =     0.00000000    0.00000000    0.00035033
     atom    3 type  4   force =     0.00000000    0.00000000   -0.00078565
     atom    4 type  1   force =     0.00000000    0.00000000   -0.00029400
     atom    5 type  3   force =     0.00000000    0.00000000    0.00057814
     atom    6 type  4   force =     0.00000000    0.00000000   -0.00001350
     atom    7 type  4   force =     0.00000000    0.00000000    0.00032651
     atom    8 type  2   force =     0.00000000    0.00000000   -0.00059756
     atom    9 type  4   force =     0.00000000    0.00000000    0.00028625
     atom   10 type  4   force =     0.00000000    0.00000000    0.00034962
     atom   11 type  3   force =     0.00000000    0.00000000    0.00017732
     atom   12 type  1   force =     0.00000000    0.00000000    0.00010032
     atom   13 type  4   force =     0.00000000    0.00000000    0.00298764
     atom   14 type  4   force =     0.00000000    0.00000000    0.00333561
     atom   15 type  3   force =     0.00000000    0.00000000   -0.00570338
     atom   16 type  4   force =     0.00000000    0.00000000    0.00425247
     atom   17 type  1   force =     0.00000000    0.00000000   -0.01694169
     atom   18 type  3   force =     0.00000000    0.00000000    0.00520067
     atom   19 type  4   force =     0.00000000    0.00000000    0.05497255
     atom   20 type  4   force =     0.00000000    0.00000000    0.06156309
     atom   21 type  2   force =     0.00000000    0.00000000   -0.06354136
     atom   22 type  4   force =     0.00000000    0.00000000   -0.00769670
     atom   23 type  4   force =     0.00000000    0.00000000   -0.00027441
     atom   24 type  3   force =     0.00000000    0.00000000   -0.01986603
     atom   25 type  1   force =     0.00000000    0.00000000   -0.01733370
     atom   26 type  4   force =     0.00000000    0.00000000   -0.00127729
     atom   27 type  3   force =     0.00000000    0.00000000    0.00114090
     atom   28 type  4   force =     0.00000000    0.00000000   -0.00112175

     Total force =     0.109521     Total SCF correction =     0.000233

     Computing stress (Cartesian axis) and pressure

     negative rho (up, down):  1.489E-03 0.000E+00
          total   stress  (Ry/bohr**3)                   (kbar)     P=       -6.64
  -0.00000504   0.00000000   0.00000000           -0.74        0.00        0.00
   0.00000000   0.00001783   0.00000000            0.00        2.62        0.00
   0.00000000   0.00000000  -0.00014827            0.00        0.00      -21.81

     General routines

     Parallel routines

   This run was terminated on:  22:42: 4  21May2021

   JOB DONE.
[1621651324.301423] [holy7c08204:127932:0]          mpool.c:43   UCX  WARN  object 0x3adca00 was not returned to mpool ucp_requests
[1621651324.301440] [holy7c08204:127932:0]          mpool.c:43   UCX  WARN  object 0x3adcf40 was not returned to mpool ucp_requests
[1621651324.310109] [holy7c08109:277148:0]          mpool.c:43   UCX  WARN  object 0x304f040 was not returned to mpool ucp_requests
[1621651324.309781] [holy7c08101:254706:0]          mpool.c:43   UCX  WARN  object 0x37609c0 was not returned to mpool ucp_requests
[1621651324.309804] [holy7c08101:254706:0]          mpool.c:43   UCX  WARN  object 0x3761280 was not returned to mpool ucp_requests
[1621651324.313201] [holy7c08108:67150:0]          mpool.c:43   UCX  WARN  object 0x3eaa7c0 was not returned to mpool ucp_requests
[1621651324.313227] [holy7c08108:67150:0]          mpool.c:43   UCX  WARN  object 0x3eaab40 was not returned to mpool ucp_requests
[1621651324.310290] [holy7c08211:9531 :0]          mpool.c:43   UCX  WARN  object 0x309c440 was not returned to mpool ucp_requests
[1621651324.310316] [holy7c08211:9531 :0]          mpool.c:43   UCX  WARN  object 0x309cb40 was not returned to mpool ucp_requests
[1621651324.312676] [holy7c08211:9530 :0]          mpool.c:43   UCX  WARN  object 0x44a1980 was not returned to mpool ucp_requests
[1621651324.315221] [holy7c08104:268883:0]          mpool.c:43   UCX  WARN  object 0x29dd5c0 was not returned to mpool ucp_requests