     Program PWSCF v.6.5 starts on 21May2021 at 11:34:36

     R & G space division:  proc/nbgrp/npool/nimage =      20
     Reading input from CBCO_BaO_cleave_2.5_sep.pwi
Warning: card &IONS ignored
Warning: card     ION_DYNAMICS = 'BFGS' ignored
Warning: card / ignored
Warning: card &CELL ignored
Warning: card     CELL_DYNAMICS = 'BFGS' ignored
Warning: card     PRESS_CONV_THR = 5 ignored
Warning: card / ignored

     Current dimensions of program PWSCF are:
     Max number of different atomic species (ntypx) = 10
     Max number of k-points (npk) =  40000
     Max angular momentum in pseudopotentials (lmaxx) =  3

     Message from routine setup:
     using ibrav=0 with symmetry is DISCOURAGED, use correct ibrav instead

     bravais-lattice index     =            0
     lattice parameter (alat)  =       7.4270  a.u.
     unit-cell volume          =    4549.1164 (a.u.)^3
     number of atoms/cell      =           28
     number of atomic types    =            4
     number of electrons       =       227.00
     number of Kohn-Sham states=          137
     kinetic-energy cutoff     =      60.0000  Ry
     charge density cutoff     =     720.0000  Ry
     convergence threshold     =      1.0E-08
     mixing beta               =       0.5000
     number of iterations used =           10  local-TF  mixing
     Exchange-correlation= SLA PW PBE PBE
                           (   1   4   3   4   0   0   0)

     celldm(1)=   7.427040  celldm(2)=   0.000000  celldm(3)=   0.000000
     celldm(4)=   0.000000  celldm(5)=   0.000000  celldm(6)=   0.000000

     crystal axes: (cart. coord. in units of alat)
               a(1) = (   1.000000   0.000000   0.000000 )
               a(2) = (   0.000000   0.947081   0.000000 )
               a(3) = (   0.000000   0.000000  11.724453 )

     reciprocal axes: (cart. coord. in units 2 pi/alat)
               b(1) = (  1.000000  0.000000  0.000000 )
               b(2) = (  0.000000  1.055876  0.000000 )
               b(3) = (  0.000000  0.000000  0.085292 )

     PseudoPot. # 1 for Ba read from file:
     ./pseudo/Ba.pbe-nsp-van.UPF
     MD5 check sum: 2b9c31dd849566dd297d80989662b7a0
     Pseudo is Ultrasoft + core correction, Zval = 10.0
     Generated by new atomic code, or converted to UPF format
     Using radial grid of  907 points,  6 beta functions with:
                l(1) =   0
                l(2) =   0
                l(3) =   1
                l(4) =   1
                l(5) =   2
                l(6) =   2
     Q(r) pseudized with  6 coefficients,  rinner =    1.200   1.200   1.200
                                                       1.200   1.200

     PseudoPot. # 2 for Ca read from file:
     ./pseudo/Ca.pbe-nsp-van.UPF
     MD5 check sum: 6471098428ff4fa451746d08035ff179
     Pseudo is Ultrasoft + core correction, Zval = 10.0
     Generated by new atomic code, or converted to UPF format
     Using radial grid of  845 points,  6 beta functions with:
                l(1) =   0
                l(2) =   0
                l(3) =   1
                l(4) =   1
                l(5) =   2
                l(6) =   2
     Q(r) pseudized with  6 coefficients,  rinner =    1.200   1.200   1.200
                                                       1.200   1.200

     PseudoPot. # 3 for Cu read from file:
     ./pseudo/Cu.pbe-n-van_ak.UPF
     MD5 check sum: 34e3282627ffb533726feb647e090d62
     Pseudo is Ultrasoft + core correction, Zval = 11.0
     Generated by new atomic code, or converted to UPF format
     Using radial grid of  867 points,  6 beta functions with:
                l(1) =   0
                l(2) =   0
                l(3) =   1
                l(4) =   1
                l(5) =   2
                l(6) =   2
     Q(r) pseudized with  8 coefficients,  rinner =    1.400   1.400   1.400
                                                       1.400   1.400

     PseudoPot. # 4 for O  read from file:
     ./pseudo/O.pbe-van_ak.UPF
     MD5 check sum: 783ce7fe4c79b6a4916957118fed0856
     Pseudo is Ultrasoft, Zval =  6.0
     Generated by new atomic code, or converted to UPF format
     Using radial grid of  737 points,  4 beta functions with:
                l(1) =   0
                l(2) =   0
                l(3) =   1
                l(4) =   1
     Q(r) pseudized with  8 coefficients,  rinner =    0.800   0.800   0.800

     atomic species   valence    mass     pseudopotential
        Ba            10.00   137.32700     Ba( 1.00)
        Ca            10.00    40.07800     Ca( 1.00)
        Cu            11.00    63.54600     Cu( 1.00)
        O              6.00    15.99900     O ( 1.00)

      4 Sym. Ops. (no inversion) found

   Cartesian axes

     site n.     atom                  positions (alat units)
         1           O   tau(   1) = (   0.0000000   0.4735409  -0.0469745  )
         2           Cu  tau(   2) = (   0.0000000   0.0000000   0.0264565  )
         3           O   tau(   3) = (   0.0000000   0.0000000   0.5030914  )
         4           Ba  tau(   4) = (   0.5000000   0.4735409   0.5690292  )
         5           Cu  tau(   5) = (   0.0000000   0.0000000   1.0374254  )
         6           O   tau(   6) = (   0.5000000   0.0000000   1.0768099  )
         7           O   tau(   7) = (   0.0000000   0.4735409   1.1116985  )
         8           Ca  tau(   8) = (   0.5000000   0.4735409   1.4976260  )
         9           O   tau(   9) = (   0.0000000   0.4735409   1.8667529  )
        10           O   tau(  10) = (   0.5000000   0.0000000   1.9044124  )
        11           Cu  tau(  11) = (   0.0000000   0.0000000   1.9512546  )
        12           Ba  tau(  12) = (   0.5000000   0.4735409   2.4295764  )
        13           O   tau(  13) = (   0.0000000   0.0000000   2.5115362  )
        14           O   tau(  14) = (   0.0000000   0.4735409   2.9918528  )
        15           Cu  tau(  15) = (   0.0000000   0.0000000   2.9919088  )
        16           O   tau(  16) = (   0.0000000   0.0000000   3.4722686  )
        17           Ba  tau(  17) = (   0.5000000   0.4735409   3.5542208  )
        18           Cu  tau(  18) = (   0.0000000   0.0000000   4.6686215  )
        19           O   tau(  19) = (   0.5000000   0.0000000   4.7154636  )
        20           O   tau(  20) = (   0.0000000   0.4735409   4.7531180  )
        21           Ca  tau(  21) = (   0.5000000   0.4735409   5.1222551  )
        22           O   tau(  22) = (   0.0000000   0.4735409   5.5081800  )
        23           O   tau(  23) = (   0.5000000   0.0000000   5.5430687  )
        24           Cu  tau(  24) = (   0.0000000   0.0000000   5.5824558  )
        25           Ba  tau(  25) = (   0.5000000   0.4735409   6.0508494  )
        26           O   tau(  26) = (   0.0000000   0.0000000   6.1167770  )
        27           Cu  tau(  27) = (   0.0000000   0.0000000   6.5934170  )
        28           O   tau(  28) = (   0.0000000   0.4735409   6.6668352  )

     number of k points=    25  Gaussian smearing, width (Ry)=  0.0100
                       cart. coord. in units 2pi/alat
        k(    1) = (   0.0000000   0.0000000   0.0000000), wk =   0.0312500
        k(    2) = (   0.0000000   0.1319845   0.0000000), wk =   0.0625000
        k(    3) = (   0.0000000   0.2639689   0.0000000), wk =   0.0625000
        k(    4) = (   0.0000000   0.3959534   0.0000000), wk =   0.0625000
        k(    5) = (   0.0000000  -0.5279378   0.0000000), wk =   0.0312500
        k(    6) = (   0.1250000   0.0000000   0.0000000), wk =   0.0625000
        k(    7) = (   0.1250000   0.1319845   0.0000000), wk =   0.1250000
        k(    8) = (   0.1250000   0.2639689   0.0000000), wk =   0.1250000
        k(    9) = (   0.1250000   0.3959534   0.0000000), wk =   0.1250000
        k(   10) = (   0.1250000  -0.5279378   0.0000000), wk =   0.0625000
        k(   11) = (   0.2500000   0.0000000   0.0000000), wk =   0.0625000
        k(   12) = (   0.2500000   0.1319845   0.0000000), wk =   0.1250000
        k(   13) = (   0.2500000   0.2639689   0.0000000), wk =   0.1250000
        k(   14) = (   0.2500000   0.3959534   0.0000000), wk =   0.1250000
        k(   15) = (   0.2500000  -0.5279378   0.0000000), wk =   0.0625000
        k(   16) = (   0.3750000   0.0000000   0.0000000), wk =   0.0625000
        k(   17) = (   0.3750000   0.1319845   0.0000000), wk =   0.1250000
        k(   18) = (   0.3750000   0.2639689   0.0000000), wk =   0.1250000
        k(   19) = (   0.3750000   0.3959534   0.0000000), wk =   0.1250000
        k(   20) = (   0.3750000  -0.5279378   0.0000000), wk =   0.0625000
        k(   21) = (  -0.5000000   0.0000000   0.0000000), wk =   0.0312500
        k(   22) = (  -0.5000000   0.1319845   0.0000000), wk =   0.0625000
        k(   23) = (  -0.5000000   0.2639689   0.0000000), wk =   0.0625000
        k(   24) = (  -0.5000000   0.3959534   0.0000000), wk =   0.0625000
        k(   25) = (  -0.5000000  -0.5279378   0.0000000), wk =   0.0312500

     Initial potential from superposition of free atoms

     starting charge  226.84630, renormalised to  227.00000

     negative rho (up, down):  3.526E-03 0.000E+00
     Starting wfcs are  195 randomized atomic wfcs

     Self-consistent Calculation

     iteration #  1     ecut=    60.00 Ry     beta= 0.50
     Davidson diagonalization with overlap
     ethr =  1.00E-02,  avg # of iterations =  2.0

     negative rho (up, down):  5.104E-04 0.000E+00

     total energy              =   -1840.79555989 Ry
     Harris-Foulkes estimate   =   -1845.40575644 Ry
     estimated scf accuracy    <      19.56440285 Ry

[...]

     iteration # 11     ecut=    60.00 Ry     beta= 0.50
     Davidson diagonalization with overlap
     c_bands:  1 eigenvalues not converged
     c_bands:  1 eigenvalues not converged
     ethr =  3.28E-05,  avg # of iterations =  8.4

[...]

     iteration # 24     ecut=    60.00 Ry     beta= 0.50
     Davidson diagonalization with overlap
     c_bands:  1 eigenvalues not converged
     ethr =  1.70E-07,  avg # of iterations =  6.0

[...]

     total energy              =   -1842.81165516 Ry
     Harris-Foulkes estimate   =   -1842.81165519 Ry
     estimated scf accuracy    <       0.00000001 Ry

     iteration # 37     ecut=    60.00 Ry     beta= 0.50
     Davidson diagonalization with overlap
     ethr =  6.13E-12,  avg # of iterations =  1.2

[...]

     End of self-consistent calculation

          k = 0.0000 0.0000 0.0000 ( 35809 PWs)   bands (ev):

   -35.7847 -35.5960 -24.4622 -22.9775 -22.9754 -22.7832 -17.2886 -17.0761
   -16.8359 -16.8244 -16.6621 -16.6426 -15.4973 -15.3564 -15.2220 -14.8590
   -14.8498 -14.7695 -14.5217 -14.3674 -14.3615 -14.1731 -14.1405 -14.1052
   -14.0252 -13.9312 -13.6528  -9.7228  -9.2941  -9.2177  -8.1094  -8.1049
    -8.0712  -8.0698  -7.9706  -7.8783  -7.8762  -7.8266  -7.6604  -2.5173
    -2.5154  -2.3912  -2.0171  -2.0095  -1.9685  -1.8611  -1.8169  -1.7394
    -1.7163  -1.6808  -1.5943  -1.4272  -1.4085  -1.4078  -1.4062  -1.1752
    -1.0091  -0.9869  -0.6462  -0.6443  -0.5671  -0.5621  -0.5472  -0.4977
    -0.4759  -0.4581  -0.4523  -0.4504  -0.4431  -0.4275  -0.3475  -0.3285
    -0.2995  -0.2846  -0.2246  -0.2229  -0.0891  -0.0878  -0.0869  -0.0830
    -0.0703  -0.0214  -0.0156   0.0200   0.1003   0.1312   0.2154   0.2326
     0.4744   0.4747   0.5235   0.6951   0.6959   0.7504   0.7856   0.9720
     0.9907   1.0451   1.1541   1.1931   1.1990   1.2186   1.2682   1.2875
     1.3710   1.4162   1.4452   1.6047   1.6280   1.8090   1.8154   1.8356
     1.8504   1.8515   1.9957   1.9981   2.0077   2.3404   2.3474   4.3421
     4.9845   5.0310   5.0930   5.8056   6.1375   6.4710   6.5756   6.6094
     7.0807   7.4333   7.7882   7.9343   8.0791   8.2253   8.3482   8.4500
     8.4889

[...]

          k = 0.3750-0.5279 0.0000 ( 35732 PWs)   bands (ev):

[...]

          k =-0.5000 0.0000 0.0000 ( 35702 PWs)   bands (ev):

[...]

          k =-0.5000-0.5279 0.0000 ( 35804 PWs)   bands (ev):

   -35.7651 -35.5763 -24.2468 -22.7046 -22.7024 -22.5206 -17.2107 -17.2015
   -17.0426 -17.0181 -16.8252 -16.6056 -14.8012 -14.7990 -14.6404 -14.6174
   -14.5640 -14.4595 -14.3796 -14.3720 -14.2952 -14.2442 -14.2406 -14.1506
   -14.1338 -14.0332 -13.6789 -10.3354  -9.8512  -9.6011  -8.9375  -8.9347
    -8.7420  -8.6695  -8.6681  -8.3959  -8.2032  -8.1989  -8.0509  -4.2805
    -4.2255  -4.0011  -3.9015  -3.5990  -3.3494  -3.3474  -2.9214  -2.9208
    -2.7700  -2.5444  -2.4809  -2.4740  -2.4722  -2.4078  -2.3716  -2.1666
    -2.0678  -1.9943  -1.6584  -1.5371  -1.5298  -1.3604  -1.3425  -1.2130
    -1.1894  -1.1702  -1.1686  -1.0916  -1.0410  -0.9263  -0.8844  -0.7897
    -0.7254  -0.5177  -0.5156   0.0105   0.1057   0.1408   0.3209   0.6303
     0.8402   0.8404   1.0655   1.1584   1.1648   1.1712   1.1995   1.2312
     1.2572   1.3141   1.4278   1.4945   1.5023   1.5851   1.6436   1.6607
     1.7086   1.7142   1.7476   1.8133   1.8279   1.8848   1.9199   1.9453
     2.0026   2.0106   2.0743   2.1536   2.1564   2.1849   2.2314   2.3490
     2.3570   2.5841   3.9602   4.5216   4.5297   4.5405   4.5837   4.6961
     5.7860   5.7867   6.6294   6.7606   6.8347   6.9168   7.7950   7.9078
     8.8465   8.8608   8.8712   8.8967   9.2298   9.3359   9.3951   9.4886
     9.6328

     the Fermi energy is     2.3813 ev

!    total energy              =   -1842.81165513 Ry
     Harris-Foulkes estimate   =   -1842.81165516 Ry
     estimated scf accuracy    <          5.6E-09 Ry

     The total energy is the sum of the following terms:

     one-electron contribution =  -26574.05857791 Ry
     hartree contribution      =   13438.03482732 Ry
     xc contribution           =    -621.54879125 Ry
     ewald contribution        =   11914.76821370 Ry
     smearing contrib. (-TS)   =      -0.00732699 Ry

     convergence has been achieved in  37 iterations

     negative rho (up, down):  1.512E-03 0.000E+00

     Forces acting on atoms (cartesian axes, Ry/au):

     atom    1 type  4   force =     0.00000000    0.00000000   -0.00014698
     atom    2 type  3   force =     0.00000000    0.00000000    0.00033471
     atom    3 type  4   force =     0.00000000    0.00000000   -0.00077642
     atom    4 type  1   force =     0.00000000    0.00000000   -0.00031650
     atom    5 type  3   force =     0.00000000    0.00000000    0.00061797
     atom    6 type  4   force =     0.00000000    0.00000000    0.00016839
     atom    7 type  4   force =     0.00000000    0.00000000    0.00051472
     atom    8 type  2   force =     0.00000000    0.00000000   -0.00112547
     atom    9 type  4   force =     0.00000000    0.00000000    0.00055150
     atom   10 type  4   force =     0.00000000    0.00000000    0.00082110
     atom   11 type  3   force =     0.00000000    0.00000000    0.00052063
     atom   12 type  1   force =     0.00000000    0.00000000   -0.00284630
     atom   13 type  4   force =     0.00000000    0.00000000    0.00710604
     atom   14 type  4   force =     0.00000000    0.00000000    0.01968458
     atom   15 type  3   force =     0.00000000    0.00000000   -0.02224506
     atom   16 type  4   force =     0.00000000    0.00000000    0.03569388
     atom   17 type  1   force =     0.00000000    0.00000000   -0.02965276
     atom   18 type  3   force =     0.00000000    0.00000000   -0.01052566
     atom   19 type  4   force =     0.00000000    0.00000000    0.01178252
     atom   20 type  4   force =     0.00000000    0.00000000    0.00372889
     atom   21 type  2   force =     0.00000000    0.00000000   -0.01790824
     atom   22 type  4   force =     0.00000000    0.00000000    0.00069483
     atom   23 type  4   force =     0.00000000    0.00000000    0.00233456
     atom   24 type  3   force =     0.00000000    0.00000000    0.00003242
     atom   25 type  1   force =     0.00000000    0.00000000    0.00019162
     atom   26 type  4   force =     0.00000000    0.00000000    0.00111520
     atom   27 type  3   force =     0.00000000    0.00000000   -0.00067676
     atom   28 type  4   force =     0.00000000    0.00000000    0.00032658

     Total force =     0.060748     Total SCF correction =     0.000312

     Computing stress (Cartesian axis) and pressure

     negative rho (up, down):  1.512E-03 0.000E+00
          total   stress  (Ry/bohr**3)                   (kbar)     P=       -8.37
  -0.00009664   0.00000000   0.00000000          -14.22        0.00        0.00
   0.00000000  -0.00004028   0.00000000            0.00       -5.93        0.00
   0.00000000   0.00000000  -0.00003384            0.00        0.00       -4.98

     General routines

     Parallel routines

   This run was terminated on:  11:47:48  21May2021

   JOB DONE.
[1621612068.514739] [holy7c08504:118612:0]          mpool.c:43   UCX  WARN  object 0x3465000 was not returned to mpool ucp_requests
[1621612068.514754] [holy7c08504:118612:0]          mpool.c:43   UCX  WARN  object 0x3465380 was not returned to mpool ucp_requests
[1621612068.526745] [holy7c08503:109385:0]          mpool.c:43   UCX  WARN  object 0x46d1900 was not returned to mpool ucp_requests
[1621612068.514857] [holy7c08504:118613:0]          mpool.c:43   UCX  WARN  object 0x341f000 was not returned to mpool ucp_requests
[1621612068.514974] [holy7c08504:118614:0]          mpool.c:43   UCX  WARN  object 0x4066580 was not returned to mpool ucp_requests
[1621612068.527920] [holy7c08503:109389:0]          mpool.c:43   UCX  WARN  object 0x4419cc0 was not returned to mpool ucp_requests
[1621612068.527964] [holy7c08503:109389:0]          mpool.c:43   UCX  WARN  object 0x441a3c0 was not returned to mpool ucp_requests
[1621612068.540393] [holy7c08410:267048:0]          mpool.c:43   UCX  WARN  object 0x394c1c0 was not returned to mpool ucp_requests
[1621612068.540417] [holy7c08410:267048:0]          mpool.c:43   UCX  WARN  object 0x394c8c0 was not returned to mpool ucp_requests