     Program PWSCF v.6.5 starts on 21May2021 at 21:28:23

     R & G space division:  proc/nbgrp/npool/nimage =      20
     Reading input from CBCO_Y_cleave_2.0_sep.pwi
Warning: card &IONS ignored
Warning: card     ION_DYNAMICS = 'BFGS' ignored
Warning: card / ignored
Warning: card &CELL ignored
Warning: card     CELL_DYNAMICS = 'BFGS' ignored
Warning: card     PRESS_CONV_THR = 5 ignored
Warning: card / ignored

     Current dimensions of program PWSCF are:
     Max number of different atomic species (ntypx) = 10
     Max number of k-points (npk) =  40000
     Max angular momentum in pseudopotentials (lmaxx) =  3

     Message from routine setup:
     using ibrav=0 with symmetry is DISCOURAGED, use correct ibrav instead

     bravais-lattice index     =            0
     lattice parameter (alat)  =       7.4270  a.u.
     unit-cell volume          =    4499.7550 (a.u.)^3
     number of atoms/cell      =           28
     number of atomic types    =            4
     number of electrons       =       227.00
     number of Kohn-Sham states=          137
     kinetic-energy cutoff     =      60.0000  Ry
     charge density cutoff     =     720.0000  Ry
     convergence threshold     =      1.0E-08
     mixing beta               =       0.5000
     number of iterations used =           10  local-TF  mixing
     Exchange-correlation= SLA PW PBE PBE
                           (   1   4   3   4   0   0   0)

     celldm(1)=   7.427040  celldm(2)=   0.000000  celldm(3)=   0.000000
     celldm(4)=   0.000000  celldm(5)=   0.000000  celldm(6)=   0.000000

     crystal axes: (cart. coord. in units of alat)
               a(1) = (   1.000000   0.000000   0.000000 )
               a(2) = (   0.000000   0.947081   0.000000 )
               a(3) = (   0.000000   0.000000  11.597234 )

     reciprocal axes: (cart. coord. in units 2 pi/alat)
               b(1) = (  1.000000  0.000000  0.000000 )
               b(2) = (  0.000000  1.055876  0.000000 )
               b(3) = (  0.000000  0.000000  0.086227 )

     PseudoPot. # 1 for Ba read from file:
     ./pseudo/Ba.pbe-nsp-van.UPF
     MD5 check sum: 2b9c31dd849566dd297d80989662b7a0
     Pseudo is Ultrasoft + core correction, Zval = 10.0
     Generated by new atomic code, or converted to UPF format
     Using radial grid of  907 points,  6 beta functions with:
                l(1) =   0
                l(2) =   0
                l(3) =   1
                l(4) =   1
                l(5) =   2
                l(6) =   2
     Q(r) pseudized with  6 coefficients,  rinner =    1.200   1.200   1.200
                                                       1.200   1.200

     PseudoPot. # 2 for Ca read from file:
     ./pseudo/Ca.pbe-nsp-van.UPF
     MD5 check sum: 6471098428ff4fa451746d08035ff179
     Pseudo is Ultrasoft + core correction, Zval = 10.0
     Generated by new atomic code, or converted to UPF format
     Using radial grid of  845 points,  6 beta functions with:
                l(1) =   0
                l(2) =   0
                l(3) =   1
                l(4) =   1
                l(5) =   2
                l(6) =   2
     Q(r) pseudized with  6 coefficients,  rinner =    1.200   1.200   1.200
                                                       1.200   1.200

     PseudoPot. # 3 for Cu read from file:
     ./pseudo/Cu.pbe-n-van_ak.UPF
     MD5 check sum: 34e3282627ffb533726feb647e090d62
     Pseudo is Ultrasoft + core correction, Zval = 11.0
     Generated by new atomic code, or converted to UPF format
     Using radial grid of  867 points,  6 beta functions with:
                l(1) =   0
                l(2) =   0
                l(3) =   1
                l(4) =   1
                l(5) =   2
                l(6) =   2
     Q(r) pseudized with  8 coefficients,  rinner =    1.400   1.400   1.400
                                                       1.400   1.400

     PseudoPot. # 4 for O  read from file:
     ./pseudo/O.pbe-van_ak.UPF
     MD5 check sum: 783ce7fe4c79b6a4916957118fed0856
     Pseudo is Ultrasoft, Zval =  6.0
     Generated by new atomic code, or converted to UPF format
     Using radial grid of  737 points,  4 beta functions with:
                l(1) =   0
                l(2) =   0
                l(3) =   1
                l(4) =   1
     Q(r) pseudized with  8 coefficients,  rinner =    0.800   0.800   0.800

     atomic species   valence    mass     pseudopotential
        Ba            10.00   137.32700     Ba( 1.00)
        Ca            10.00    40.07800     Ca( 1.00)
        Cu            11.00    63.54600     Cu( 1.00)
        O              6.00    15.99900     O ( 1.00)

      4 Sym. Ops. (no inversion) found

   Cartesian axes

     site n.     atom                  positions (alat units)
         1           O   tau(   1) = (   0.0000000   0.4735409  -0.0469745  )
         2           Cu  tau(   2) = (   0.0000000   0.0000000   0.0264565  )
         3           O   tau(   3) = (   0.0000000   0.0000000   0.5030914  )
         4           Ba  tau(   4) = (   0.5000000   0.4735409   0.5690292  )
         5           Cu  tau(   5) = (   0.0000000   0.0000000   1.0374254  )
         6           O   tau(   6) = (   0.5000000   0.0000000   1.0768099  )
         7           O   tau(   7) = (   0.0000000   0.4735409   1.1116985  )
         8           Ca  tau(   8) = (   0.5000000   0.4735409   1.4976260  )
         9           O   tau(   9) = (   0.0000000   0.4735409   1.8667529  )
        10           O   tau(  10) = (   0.5000000   0.0000000   1.9044124  )
        11           Cu  tau(  11) = (   0.0000000   0.0000000   1.9512546  )
        12           Ba  tau(  12) = (   0.5000000   0.4735409   2.4295764  )
        13           O   tau(  13) = (   0.0000000   0.0000000   2.5115362  )
        14           O   tau(  14) = (   0.0000000   0.4735409   2.9918528  )
        15           Cu  tau(  15) = (   0.0000000   0.0000000   2.9919088  )
        16           O   tau(  16) = (   0.0000000   0.0000000   3.4722686  )
        17           Ba  tau(  17) = (   0.5000000   0.4735409   3.5542208  )
        18           Cu  tau(  18) = (   0.0000000   0.0000000   4.0325248  )
        19           O   tau(  19) = (   0.5000000   0.0000000   4.0793669  )
        20           O   tau(  20) = (   0.0000000   0.4735409   4.1170213  )
        21           Ca  tau(  21) = (   0.5000000   0.4735409   4.4861584  )
        22           O   tau(  22) = (   0.0000000   0.4735409   5.3809607  )
        23           O   tau(  23) = (   0.5000000   0.0000000   5.4158493  )
        24           Cu  tau(  24) = (   0.0000000   0.0000000   5.4552364  )
        25           Ba  tau(  25) = (   0.5000000   0.4735409   5.9236300  )
        26           O   tau(  26) = (   0.0000000   0.0000000   5.9895576  )
        27           Cu  tau(  27) = (   0.0000000   0.0000000   6.4661976  )
        28           O   tau(  28) = (   0.0000000   0.4735409   6.5396159  )

     number of k points=    25  Gaussian smearing, width (Ry)=  0.0100
                       cart. coord. in units 2pi/alat
        k(    1) = (   0.0000000   0.0000000   0.0000000), wk =   0.0312500
        k(    2) = (   0.0000000   0.1319845   0.0000000), wk =   0.0625000
        k(    3) = (   0.0000000   0.2639689   0.0000000), wk =   0.0625000
        k(    4) = (   0.0000000   0.3959534   0.0000000), wk =   0.0625000
        k(    5) = (   0.0000000  -0.5279378   0.0000000), wk =   0.0312500
        k(    6) = (   0.1250000   0.0000000   0.0000000), wk =   0.0625000
        k(    7) = (   0.1250000   0.1319845   0.0000000), wk =   0.1250000
        k(    8) = (   0.1250000   0.2639689   0.0000000), wk =   0.1250000
        k(    9) = (   0.1250000   0.3959534   0.0000000), wk =   0.1250000
        k(   10) = (   0.1250000  -0.5279378   0.0000000), wk =   0.0625000
        k(   11) = (   0.2500000   0.0000000   0.0000000), wk =   0.0625000
        k(   12) = (   0.2500000   0.1319845   0.0000000), wk =   0.1250000
        k(   13) = (   0.2500000   0.2639689   0.0000000), wk =   0.1250000
        k(   14) = (   0.2500000   0.3959534   0.0000000), wk =   0.1250000
        k(   15) = (   0.2500000  -0.5279378   0.0000000), wk =   0.0625000
        k(   16) = (   0.3750000   0.0000000   0.0000000), wk =   0.0625000
        k(   17) = (   0.3750000   0.1319845   0.0000000), wk =   0.1250000
        k(   18) = (   0.3750000   0.2639689   0.0000000), wk =   0.1250000
        k(   19) = (   0.3750000   0.3959534   0.0000000), wk =   0.1250000
        k(   20) = (   0.3750000  -0.5279378   0.0000000), wk =   0.0625000
        k(   21) = (  -0.5000000   0.0000000   0.0000000), wk =   0.0312500
        k(   22) = (  -0.5000000   0.1319845   0.0000000), wk =   0.0625000
        k(   23) = (  -0.5000000   0.2639689   0.0000000), wk =   0.0625000
        k(   24) = (  -0.5000000   0.3959534   0.0000000), wk =   0.0625000
        k(   25) = (  -0.5000000  -0.5279378   0.0000000), wk =   0.0312500

     Initial potential from superposition of free atoms

     starting charge  226.84630, renormalised to  227.00000

     negative rho (up, down):  3.491E-03 0.000E+00
     Starting wfcs are  195 randomized atomic wfcs

     Self-consistent Calculation

     iteration #  1     ecut=    60.00 Ry     beta= 0.50
     Davidson diagonalization with overlap
     ethr =  1.00E-02,  avg # of iterations =  2.0

     negative rho (up, down):  5.183E-04 0.000E+00

     total energy              =   -1840.97017199 Ry
     Harris-Foulkes estimate   =   -1845.30564814 Ry
     estimated scf accuracy    <      17.62122728 Ry

[...]

     iteration # 10     ecut=    60.00 Ry     beta= 0.50
     Davidson diagonalization with overlap
     c_bands:  1 eigenvalues not converged
     ethr =  5.53E-05,  avg # of iterations =  6.8

[...]

     iteration # 22     ecut=    60.00 Ry     beta= 0.50
     Davidson diagonalization with overlap
     c_bands:  1 eigenvalues not converged
     ethr =  5.89E-07,  avg # of iterations =  5.2

[...]

     total energy              =   -1842.70025626 Ry
     Harris-Foulkes estimate   =   -1842.70025625 Ry
     estimated scf accuracy    <       0.00000001 Ry

     iteration # 36     ecut=    60.00 Ry     beta= 0.50
     Davidson diagonalization with overlap
     ethr =  4.46E-12,  avg # of iterations =  2.3

[...]

     End of self-consistent calculation

          k = 0.0000 0.0000 0.0000 ( 35431 PWs)   bands (ev):

   -38.7505 -35.6350 -22.8931 -22.8392 -22.6945 -22.5806 -19.8177 -19.7442
   -19.7264 -17.1393 -16.6862 -16.6748 -15.7910 -15.3497 -14.9926 -14.9076
   -14.7196 -14.6842 -14.6475 -14.6205 -14.2295 -14.2112 -14.0302 -13.8720
   -13.8283 -13.6997 -13.6655  -8.1099  -7.9705  -7.9330  -7.9162  -7.8057
    -7.7677  -7.7641  -7.7618  -7.7401  -7.6256  -7.6074  -7.4595  -2.3974
    -2.3781  -2.3525  -2.3444  -2.3137  -1.8780  -1.8526  -1.8149  -1.7164
    -1.5871  -1.5322  -1.5222  -1.2684  -1.2506  -1.1817  -1.1586  -1.1043
    -0.9118  -0.7354  -0.6742  -0.6698  -0.5066  -0.4777  -0.4246  -0.3679
    -0.3582  -0.3127  -0.2988  -0.2933  -0.2734  -0.2524  -0.2370  -0.2341
    -0.2191  -0.1612  -0.0852  -0.0436  -0.0217   0.0507   0.0509   0.0533
     0.0646   0.1202   0.1253   0.1445   0.1931   0.2597   0.2753   0.3174
     0.3393   0.6791   0.7501   0.7586   0.8339   0.8690   0.9040   0.9116
     1.0239   1.0802   1.1358   1.3010   1.3178   1.4156   1.4615   1.4735
     1.4830   1.5326   1.6301   1.6553   1.7786   1.9840   2.0070   2.0495
     2.0701   2.0883   2.2040   2.2065   2.2201   2.4763   2.4878   3.1810
     5.1673   5.1792   5.5485   5.8172   6.0131   6.3149   6.7158   6.8603
     6.9868   7.0933   7.2342   7.3487   7.4032   7.9074   7.9904   8.0944
     8.3088

[...]

          k = 0.3750-0.5279 0.0000 ( 35336 PWs)   bands (ev):

[...]

          k =-0.5000 0.0000 0.0000 ( 35302 PWs)   bands (ev):

[...]

          k =-0.5000-0.5279 0.0000 ( 35396 PWs)   bands (ev):

   -38.7352 -35.6153 -22.6321 -22.5663 -22.4197 -22.3180 -19.9236 -19.8609
   -19.7052 -17.0613 -17.0521 -16.6756 -15.0713 -14.9208 -14.6617 -14.6487
   -14.4868 -14.3177 -14.3143 -14.2514 -14.1436 -14.1204 -14.1022 -14.0803
   -13.9811 -13.9619 -13.9295  -8.8527  -8.7992  -8.6598  -8.5408  -8.5313
    -8.5195  -8.4070  -8.2233  -8.1711  -8.0643  -7.8518  -7.8221  -4.4363
    -4.1364  -3.8179  -3.7191  -3.6564  -3.2095  -3.1877  -2.8644  -2.7828
    -2.6712  -2.6712  -2.6180  -2.3347  -2.3263  -2.2986  -2.2957  -1.9999
    -1.8736  -1.8014  -1.4074  -1.3902  -1.3482  -1.3165  -1.3156  -1.2186
    -1.0709  -1.0607  -1.0381  -1.0307  -1.0072  -0.9328  -0.8512  -0.8338
    -0.6232  -0.3779  -0.3539   0.1777   0.3089   0.3614   0.6759   0.8471
     1.0147   1.0203   1.1695   1.1881   1.2685   1.2942   1.3166   1.3590
     1.4096   1.4485   1.4906   1.5399   1.5853   1.6077   1.6554   1.7849
     1.8092   1.8676   1.8839   1.8924   2.0050   2.0552   2.0667   2.0685
     2.0880   2.1531   2.2921   2.2993   2.3104   2.3814   2.4812   2.4955
     2.5509   2.7885   3.9683   4.4289   4.6605   4.7275   4.7708   4.9216
     5.3409   5.5889   5.8384   5.9241   6.0223   6.8940   7.0703   7.8673
     8.4874   8.7042   8.7484   8.9882   9.0079   9.0644   9.1524   9.2619
     9.5099

     the Fermi energy is     2.5191 ev

!    total energy              =   -1842.70025625 Ry
     Harris-Foulkes estimate   =   -1842.70025626 Ry
     estimated scf accuracy    <          4.1E-09 Ry

     The total energy is the sum of the following terms:

     one-electron contribution =  -29218.95696428 Ry
     hartree contribution      =   14760.92181804 Ry
     xc contribution           =    -621.55239241 Ry
     ewald contribution        =   13236.89513580 Ry
     smearing contrib. (-TS)   =      -0.00785341 Ry

     convergence has been achieved in  36 iterations

     negative rho (up, down):  1.461E-03 0.000E+00

     Forces acting on atoms (cartesian axes, Ry/au):

     atom    1 type  4   force =     0.00000000    0.00000000   -0.00016600
     atom    2 type  3   force =     0.00000000    0.00000000    0.00034401
     atom    3 type  4   force =     0.00000000    0.00000000   -0.00077929
     atom    4 type  1   force =     0.00000000    0.00000000   -0.00027712
     atom    5 type  3   force =     0.00000000    0.00000000    0.00048465
     atom    6 type  4   force =     0.00000000    0.00000000   -0.00000872
     atom    7 type  4   force =     0.00000000    0.00000000    0.00032698
     atom    8 type  2   force =     0.00000000    0.00000000   -0.00058974
     atom    9 type  4   force =     0.00000000    0.00000000    0.00030482
     atom   10 type  4   force =     0.00000000    0.00000000    0.00036957
     atom   11 type  3   force =     0.00000000    0.00000000    0.00014830
     atom   12 type  1   force =     0.00000000    0.00000000    0.00011693
     atom   13 type  4   force =     0.00000000    0.00000000    0.00317049
     atom   14 type  4   force =     0.00000000    0.00000000    0.00367952
     atom   15 type  3   force =     0.00000000    0.00000000   -0.00639047
     atom   16 type  4   force =     0.00000000    0.00000000    0.00519314
     atom   17 type  1   force =     0.00000000    0.00000000   -0.01844842
     atom   18 type  3   force =     0.00000000    0.00000000    0.00670793
     atom   19 type  4   force =     0.00000000    0.00000000    0.05839702
     atom   20 type  4   force =     0.00000000    0.00000000    0.06493696
     atom   21 type  2   force =     0.00000000    0.00000000   -0.07796769
     atom   22 type  4   force =     0.00000000    0.00000000   -0.00406869
     atom   23 type  4   force =     0.00000000    0.00000000    0.00358262
     atom   24 type  3   force =     0.00000000    0.00000000   -0.01997973
     atom   25 type  1   force =     0.00000000    0.00000000   -0.01760060
     atom   26 type  4   force =     0.00000000    0.00000000   -0.00164473
     atom   27 type  3   force =     0.00000000    0.00000000    0.00145152
     atom   28 type  4   force =     0.00000000    0.00000000   -0.00129323

     Total force =     0.122186     Total SCF correction =     0.000307

     Computing stress (Cartesian axis) and pressure

     negative rho (up, down):  1.461E-03 0.000E+00
          total   stress  (Ry/bohr**3)                   (kbar)     P=       -6.40
  -0.00000430   0.00000000   0.00000000           -0.63        0.00        0.00
   0.00000000   0.00002032   0.00000000            0.00        2.99        0.00
   0.00000000   0.00000000  -0.00014652            0.00        0.00      -21.55

     General routines

     Parallel routines

   This run was terminated on:  21:38:45  21May2021

   JOB DONE.
[1621647525.226937] [holy7c04405:169143:0]          mpool.c:43   UCX  WARN  object 0x39b7080 was not returned to mpool ucp_requests
[1621647525.233302] [holy7c04201:95876:0]          mpool.c:43   UCX  WARN  object 0x371ae00 was not returned to mpool ucp_requests
[1621647525.234121] [holy7c04405:169142:0]          mpool.c:43   UCX  WARN  object 0x363e480 was not returned to mpool ucp_requests
[1621647525.234136] [holy7c04405:169142:0]          mpool.c:43   UCX  WARN  object 0x363eb80 was not returned to mpool ucp_requests
[1621647525.233900] [holy7c04405:169144:0]          mpool.c:43   UCX  WARN  object 0x37b8000 was not returned to mpool ucp_requests
[1621647525.233938] [holy7c04104:157046:0]          mpool.c:43   UCX  WARN  object 0x3b12940 was not returned to mpool ucp_requests
[1621647525.235634] [holy7c04201:95875:0]          mpool.c:43   UCX  WARN  object 0x32af500 was not returned to mpool ucp_requests
[1621647525.233711] [holy7c04205:150198:0]          mpool.c:43   UCX  WARN  object 0x424e800 was not returned to mpool ucp_requests
[1621647525.233736] [holy7c04205:150198:0]          mpool.c:43   UCX  WARN  object 0x424eb80 was not returned to mpool ucp_requests