     Program PWSCF v.6.5 starts on 21May2021 at 21:31:56

     R & G space division:  proc/nbgrp/npool/nimage =      20
     Reading input from CBCO_Y_cleave_1.5_sep.pwi
Warning: card &IONS ignored
Warning: card     ION_DYNAMICS = 'BFGS' ignored
Warning: card / ignored
Warning: card &CELL ignored
Warning: card     CELL_DYNAMICS = 'BFGS' ignored
Warning: card     PRESS_CONV_THR = 5 ignored
Warning: card / ignored

     Current dimensions of program PWSCF are:
     Max number of different atomic species (ntypx) = 10
     Max number of k-points (npk) =  40000
     Max angular momentum in pseudopotentials (lmaxx) =  3

     Message from routine setup:
     using ibrav=0 with symmetry is DISCOURAGED, use correct ibrav instead

     bravais-lattice index     =            0
     lattice parameter (alat)  =       7.4270  a.u.
     unit-cell volume          =    4450.3936 (a.u.)^3
     number of atoms/cell      =           28
     number of atomic types    =            4
     number of electrons       =       227.00
     number of Kohn-Sham states=          137
     kinetic-energy cutoff     =      60.0000  Ry
     charge density cutoff     =     720.0000  Ry
     convergence threshold     =      1.0E-08
     mixing beta               =       0.5000
     number of iterations used =           10  local-TF  mixing
     Exchange-correlation= SLA PW PBE PBE
                           (   1   4   3   4   0   0   0)

     celldm(1)=   7.427040  celldm(2)=   0.000000  celldm(3)=   0.000000
     celldm(4)=   0.000000  celldm(5)=   0.000000  celldm(6)=   0.000000

     crystal axes: (cart. coord. in units of alat)
               a(1) = (   1.000000   0.000000   0.000000 )
               a(2) = (   0.000000   0.947081   0.000000 )
               a(3) = (   0.000000   0.000000  11.470015 )

     reciprocal axes: (cart. coord. in units 2 pi/alat)
               b(1) = (  1.000000  0.000000  0.000000 )
               b(2) = (  0.000000  1.055876  0.000000 )
               b(3) = (  0.000000  0.000000  0.087184 )

     PseudoPot. # 1 for Ba read from file:
     ./pseudo/Ba.pbe-nsp-van.UPF
     MD5 check sum: 2b9c31dd849566dd297d80989662b7a0
     Pseudo is Ultrasoft + core correction, Zval = 10.0
     Generated by new atomic code, or converted to UPF format
     Using radial grid of  907 points,  6 beta functions with:
                l(1) =   0
                l(2) =   0
                l(3) =   1
                l(4) =   1
                l(5) =   2
                l(6) =   2
     Q(r) pseudized with  6 coefficients,  rinner =    1.200   1.200   1.200
                                                       1.200   1.200

     PseudoPot. # 2 for Ca read from file:
     ./pseudo/Ca.pbe-nsp-van.UPF
     MD5 check sum: 6471098428ff4fa451746d08035ff179
     Pseudo is Ultrasoft + core correction, Zval = 10.0
     Generated by new atomic code, or converted to UPF format
     Using radial grid of  845 points,  6 beta functions with:
                l(1) =   0
                l(2) =   0
                l(3) =   1
                l(4) =   1
                l(5) =   2
                l(6) =   2
     Q(r) pseudized with  6 coefficients,  rinner =    1.200   1.200   1.200
                                                       1.200   1.200

     PseudoPot. # 3 for Cu read from file:
     ./pseudo/Cu.pbe-n-van_ak.UPF
     MD5 check sum: 34e3282627ffb533726feb647e090d62
     Pseudo is Ultrasoft + core correction, Zval = 11.0
     Generated by new atomic code, or converted to UPF format
     Using radial grid of  867 points,  6 beta functions with:
                l(1) =   0
                l(2) =   0
                l(3) =   1
                l(4) =   1
                l(5) =   2
                l(6) =   2
     Q(r) pseudized with  8 coefficients,  rinner =    1.400   1.400   1.400
                                                       1.400   1.400

     PseudoPot. # 4 for O  read from file:
     ./pseudo/O.pbe-van_ak.UPF
     MD5 check sum: 783ce7fe4c79b6a4916957118fed0856
     Pseudo is Ultrasoft, Zval =  6.0
     Generated by new atomic code, or converted to UPF format
     Using radial grid of  737 points,  4 beta functions with:
                l(1) =   0
                l(2) =   0
                l(3) =   1
                l(4) =   1
     Q(r) pseudized with  8 coefficients,  rinner =    0.800   0.800   0.800

     atomic species   valence    mass     pseudopotential
        Ba            10.00   137.32700     Ba( 1.00)
        Ca            10.00    40.07800     Ca( 1.00)
        Cu            11.00    63.54600     Cu( 1.00)
        O              6.00    15.99900     O ( 1.00)

      4 Sym. Ops. (no inversion) found

   Cartesian axes

     site n.     atom                  positions (alat units)
         1           O   tau(   1) = (   0.0000000   0.4735409  -0.0469745  )
         2           Cu  tau(   2) = (   0.0000000   0.0000000   0.0264565  )
         3           O   tau(   3) = (   0.0000000   0.0000000   0.5030914  )
         4           Ba  tau(   4) = (   0.5000000   0.4735409   0.5690292  )
         5           Cu  tau(   5) = (   0.0000000   0.0000000   1.0374254  )
         6           O   tau(   6) = (   0.5000000   0.0000000   1.0768099  )
         7           O   tau(   7) = (   0.0000000   0.4735409   1.1116985  )
         8           Ca  tau(   8) = (   0.5000000   0.4735409   1.4976260  )
         9           O   tau(   9) = (   0.0000000   0.4735409   1.8667529  )
        10           O   tau(  10) = (   0.5000000   0.0000000   1.9044124  )
        11           Cu  tau(  11) = (   0.0000000   0.0000000   1.9512546  )
        12           Ba  tau(  12) = (   0.5000000   0.4735409   2.4295764  )
        13           O   tau(  13) = (   0.0000000   0.0000000   2.5115362  )
        14           O   tau(  14) = (   0.0000000   0.4735409   2.9918528  )
        15           Cu  tau(  15) = (   0.0000000   0.0000000   2.9919088  )
        16           O   tau(  16) = (   0.0000000   0.0000000   3.4722686  )
        17           Ba  tau(  17) = (   0.5000000   0.4735409   3.5542208  )
        18           Cu  tau(  18) = (   0.0000000   0.0000000   4.0325248  )
        19           O   tau(  19) = (   0.5000000   0.0000000   4.0793669  )
        20           O   tau(  20) = (   0.0000000   0.4735409   4.1170213  )
        21           Ca  tau(  21) = (   0.5000000   0.4735409   4.4861584  )
        22           O   tau(  22) = (   0.0000000   0.4735409   5.2537414  )
        23           O   tau(  23) = (   0.5000000   0.0000000   5.2886300  )
        24           Cu  tau(  24) = (   0.0000000   0.0000000   5.3280171  )
        25           Ba  tau(  25) = (   0.5000000   0.4735409   5.7964107  )
        26           O   tau(  26) = (   0.0000000   0.0000000   5.8623383  )
        27           Cu  tau(  27) = (   0.0000000   0.0000000   6.3389783  )
        28           O   tau(  28) = (   0.0000000   0.4735409   6.4123966  )

     number of k points=    25  Gaussian smearing, width (Ry)=  0.0100
                       cart. coord. in units 2pi/alat
        k(    1) = (   0.0000000   0.0000000   0.0000000), wk =   0.0312500
        k(    2) = (   0.0000000   0.1319845   0.0000000), wk =   0.0625000
        k(    3) = (   0.0000000   0.2639689   0.0000000), wk =   0.0625000
        k(    4) = (   0.0000000   0.3959534   0.0000000), wk =   0.0625000
        k(    5) = (   0.0000000  -0.5279378   0.0000000), wk =   0.0312500
        k(    6) = (   0.1250000   0.0000000   0.0000000), wk =   0.0625000
        k(    7) = (   0.1250000   0.1319845   0.0000000), wk =   0.1250000
        k(    8) = (   0.1250000   0.2639689   0.0000000), wk =   0.1250000
        k(    9) = (   0.1250000   0.3959534   0.0000000), wk =   0.1250000
        k(   10) = (   0.1250000  -0.5279378   0.0000000), wk =   0.0625000
        k(   11) = (   0.2500000   0.0000000   0.0000000), wk =   0.0625000
        k(   12) = (   0.2500000   0.1319845   0.0000000), wk =   0.1250000
        k(   13) = (   0.2500000   0.2639689   0.0000000), wk =   0.1250000
        k(   14) = (   0.2500000   0.3959534   0.0000000), wk =   0.1250000
        k(   15) = (   0.2500000  -0.5279378   0.0000000), wk =   0.0625000
        k(   16) = (   0.3750000   0.0000000   0.0000000), wk =   0.0625000
        k(   17) = (   0.3750000   0.1319845   0.0000000), wk =   0.1250000
        k(   18) = (   0.3750000   0.2639689   0.0000000), wk =   0.1250000
        k(   19) = (   0.3750000   0.3959534   0.0000000), wk =   0.1250000
        k(   20) = (   0.3750000  -0.5279378   0.0000000), wk =   0.0625000
        k(   21) = (  -0.5000000   0.0000000   0.0000000), wk =   0.0312500
        k(   22) = (  -0.5000000   0.1319845   0.0000000), wk =   0.0625000
        k(   23) = (  -0.5000000   0.2639689   0.0000000), wk =   0.0625000
        k(   24) = (  -0.5000000   0.3959534   0.0000000), wk =   0.0625000
        k(   25) = (  -0.5000000  -0.5279378   0.0000000), wk =   0.0312500

     Initial potential from superposition of free atoms

     starting charge  226.84630, renormalised to  227.00000

     negative rho (up, down):  3.488E-03 0.000E+00
     Starting wfcs are  195 randomized atomic wfcs

     Self-consistent Calculation

     iteration #  1     ecut=    60.00 Ry     beta= 0.50
     Davidson diagonalization with overlap
     ethr =  1.00E-02,  avg # of iterations =  2.0

     negative rho (up, down):  5.217E-04 0.000E+00

     total energy              =   -1840.97225163 Ry
     Harris-Foulkes estimate   =   -1845.29841148 Ry
     estimated scf accuracy    <      17.64955815 Ry

[...]

     iteration # 18     ecut=    60.00 Ry     beta= 0.50
     Davidson diagonalization with overlap
     c_bands:  1 eigenvalues not converged
     ethr =  5.68E-06,  avg # of iterations =  8.0

[...]

     iteration # 22     ecut=    60.00 Ry     beta= 0.50
     Davidson diagonalization with overlap
     c_bands:  1 eigenvalues not converged
     ethr =  2.14E-07,  avg # of iterations =  5.6

[...]

     total energy              =   -1842.74421526 Ry
     Harris-Foulkes estimate   =   -1842.74421523 Ry
     estimated scf accuracy    <       0.00000003 Ry

     iteration # 33     ecut=    60.00 Ry     beta= 0.50
     Davidson diagonalization with overlap
     ethr =  1.44E-11,  avg # of iterations =  2.6

[...]

     End of self-consistent calculation

          k = 0.0000 0.0000 0.0000 ( 35029 PWs)   bands (ev):

   -38.2843 -35.5945 -22.7991 -22.7942 -22.6814 -22.5395 -19.3366 -19.2861
   -19.2688 -17.0988 -16.6457 -16.6343 -15.6019 -15.3093 -15.0017 -14.8643
   -14.6793 -14.6529 -14.5800 -14.4688 -14.1893 -14.1798 -13.9899 -13.8312
   -13.7766 -13.6715 -13.6541  -8.0051  -7.9304  -7.8928  -7.8215  -7.7909
    -7.7587  -7.7205  -7.6999  -7.6663  -7.5938  -7.5843  -7.4183  -2.3379
    -2.3213  -2.2926  -2.2453  -2.1455  -1.8378  -1.7742  -1.6760  -1.6562
    -1.5464  -1.5316  -1.4915  -1.2282  -1.2186  -1.2022  -1.1060  -1.0610
    -0.8663  -0.7290  -0.6266  -0.5329  -0.4665  -0.4471  -0.3845  -0.3345
    -0.3171  -0.2725  -0.2578  -0.2525  -0.2443  -0.2114  -0.2093  -0.1928
    -0.1742  -0.1156  -0.0450  -0.0130   0.0881   0.0910   0.0911   0.0979
     0.1115   0.1655   0.1656   0.1700   0.2177   0.3009   0.3159   0.3226
     0.3883   0.7385   0.7913   0.8740   0.9011   0.9302   0.9530   1.0263
     1.0368   1.1502   1.1771   1.3414   1.3599   1.4473   1.4623   1.5148
     1.5247   1.5589   1.6464   1.7068   1.8203   2.0269   2.0669   2.0707
     2.1206   2.1380   2.2146   2.2486   2.2646   2.5134   2.5280   3.8723
     5.2083   5.2486   5.8475   6.1995   6.3661   6.5176   6.7563   6.8944
     7.1765   7.4014   7.4468   7.8829   7.9206   7.9704   8.1385   8.1770
     8.3959

[...]

          k = 0.3750-0.5279 0.0000 ( 34968 PWs)   bands (ev):

[...]

          k =-0.5000 0.0000 0.0000 ( 34926 PWs)   bands (ev):

[...]

          k =-0.5000-0.5279 0.0000 ( 35004 PWs)   bands (ev):

   -38.2690 -35.5748 -22.5329 -22.5262 -22.4069 -22.2769 -19.4703 -19.4099
   -19.2118 -17.0208 -17.0115 -16.6351 -14.8862 -14.7328 -14.6215 -14.6154
   -14.4465 -14.2778 -14.2739 -14.2561 -14.1031 -14.0697 -14.0620 -14.0491
   -13.9744 -13.9405 -13.8814  -8.7591  -8.7539  -8.6486  -8.4994  -8.4911
    -8.4311  -8.3929  -8.1245  -8.1232  -8.0241  -7.8409  -7.7756  -4.2905
    -4.0958  -3.7765  -3.7228  -3.6136  -3.1693  -3.1562  -2.7696  -2.7426
    -2.6499  -2.5769  -2.5282  -2.2946  -2.2846  -2.2660  -2.2485  -1.9586
    -1.8823  -1.7467  -1.3579  -1.2943  -1.2723  -1.2690  -1.2067  -1.1780
    -1.0592  -1.0306  -0.9905  -0.9864  -0.9751  -0.8917  -0.8426  -0.8096
    -0.5759  -0.3377  -0.3227   0.2256   0.3524   0.3851   0.7359   0.9052
     1.0350   1.1050   1.2748   1.2956   1.3244   1.3354   1.3571   1.4005
     1.4557   1.4819   1.5454   1.6259   1.6419   1.6503   1.6686   1.8295
     1.8590   1.8800   1.9125   1.9443   2.0430   2.0460   2.0727   2.1085
     2.1328   2.1940   2.3322   2.3426   2.3496   2.4219   2.5270   2.5358
     2.5711   2.7880   4.0898   4.5237   4.7039   4.7715   4.7922   5.2842
     5.3992   5.9466   5.9642   6.4375   6.5838   7.1113   7.5282   8.3312
     8.6327   8.8470   8.8750   9.0303   9.0767   9.1464   9.3213   9.5591
     9.6243

     the Fermi energy is     2.5594 ev

!    total energy              =   -1842.74421525 Ry
     Harris-Foulkes estimate   =   -1842.74421526 Ry
     estimated scf accuracy    <          8.0E-09 Ry

     The total energy is the sum of the following terms:

     one-electron contribution =  -29580.82849765 Ry
     hartree contribution      =   14942.38490314 Ry
     xc contribution           =    -621.57192323 Ry
     ewald contribution        =   13417.27951399 Ry
     smearing contrib. (-TS)   =      -0.00821151 Ry

     convergence has been achieved in  33 iterations

     negative rho (up, down):  1.486E-03 0.000E+00

     Forces acting on atoms (cartesian axes, Ry/au):

     atom    1 type  4   force =     0.00000000    0.00000000   -0.00018335
     atom    2 type  3   force =     0.00000000    0.00000000    0.00024858
     atom    3 type  4   force =     0.00000000    0.00000000   -0.00074146
     atom    4 type  1   force =     0.00000000    0.00000000   -0.00028787
     atom    5 type  3   force =     0.00000000    0.00000000    0.00064714
     atom    6 type  4   force =     0.00000000    0.00000000   -0.00001049
     atom    7 type  4   force =     0.00000000    0.00000000    0.00033366
     atom    8 type  2   force =     0.00000000    0.00000000   -0.00059995
     atom    9 type  4   force =     0.00000000    0.00000000    0.00027964
     atom   10 type  4   force =     0.00000000    0.00000000    0.00034352
     atom   11 type  3   force =     0.00000000    0.00000000    0.00026304
     atom   12 type  1   force =     0.00000000    0.00000000    0.00009544
     atom   13 type  4   force =     0.00000000    0.00000000    0.00280895
     atom   14 type  4   force =     0.00000000    0.00000000    0.00297613
     atom   15 type  3   force =     0.00000000    0.00000000   -0.00498286
     atom   16 type  4   force =     0.00000000    0.00000000    0.00327838
     atom   17 type  1   force =     0.00000000    0.00000000   -0.01520596
     atom   18 type  3   force =     0.00000000    0.00000000    0.00384519
     atom   19 type  4   force =     0.00000000    0.00000000    0.05067968
     atom   20 type  4   force =     0.00000000    0.00000000    0.05710076
     atom   21 type  2   force =     0.00000000    0.00000000   -0.04696133
     atom   22 type  4   force =     0.00000000    0.00000000   -0.01175591
     atom   23 type  4   force =     0.00000000    0.00000000   -0.00468902
     atom   24 type  3   force =     0.00000000    0.00000000   -0.01951869
     atom   25 type  1   force =     0.00000000    0.00000000   -0.01696540
     atom   26 type  4   force =     0.00000000    0.00000000   -0.00098076
     atom   27 type  3   force =     0.00000000    0.00000000    0.00088042
     atom   28 type  4   force =     0.00000000    0.00000000   -0.00089749

     Total force =     0.095739     Total SCF correction =     0.000438

     Computing stress (Cartesian axis) and pressure

     negative rho (up, down):  1.486E-03 0.000E+00
          total   stress  (Ry/bohr**3)                   (kbar)     P=       -6.88
  -0.00000658   0.00000000   0.00000000           -0.97        0.00        0.00
   0.00000000   0.00001444   0.00000000            0.00        2.12        0.00
   0.00000000   0.00000000  -0.00014823            0.00        0.00      -21.80

     General routines

     Parallel routines

   This run was terminated on:  21:42:23  21May2021

   JOB DONE.
[1621647743.193889] [holy7c10403:236336:0]          mpool.c:43   UCX  WARN  object 0x3cfda80 was not returned to mpool ucp_requests
[1621647743.193602] [holy7c08502:175154:0]          mpool.c:43   UCX  WARN  object 0x3891740 was not returned to mpool ucp_requests
[1621647743.193627] [holy7c08502:175154:0]          mpool.c:43   UCX  WARN  object 0x38921c0 was not returned to mpool ucp_requests
[1621647743.194766] [holy7c10403:236335:0]          mpool.c:43   UCX  WARN  object 0x4335080 was not returned to mpool ucp_requests
[1621647743.194789] [holy7c10403:236335:0]          mpool.c:43   UCX  WARN  object 0x43355c0 was not returned to mpool ucp_requests
[1621647743.196151] [holy7c10403:236337:0]          mpool.c:43   UCX  WARN  object 0x2b5bec0 was not returned to mpool ucp_requests
[1621647743.203777] [holy7c10309:50929:0]          mpool.c:43   UCX  WARN  object 0x374a200 was not returned to mpool ucp_requests
[1621647743.203935] [holy7c10309:50925:0]          mpool.c:43   UCX  WARN  object 0x29c04c0 was not returned to mpool ucp_requests