     Program PWSCF v.6.5 starts on 21May2021 at 11:35:47

     R & G space division:  proc/nbgrp/npool/nimage =      20
     Reading input from CBCO_BaO_cleave_3.0_sep.pwi
Warning: card &IONS ignored
Warning: card     ION_DYNAMICS = 'BFGS' ignored
Warning: card / ignored
Warning: card &CELL ignored
Warning: card     CELL_DYNAMICS = 'BFGS' ignored
Warning: card     PRESS_CONV_THR = 5 ignored
Warning: card / ignored

     Current dimensions of program PWSCF are:
     Max number of different atomic species (ntypx) = 10
     Max number of k-points (npk) =  40000
     Max angular momentum in pseudopotentials (lmaxx) =  3

     Message from routine setup:
     using ibrav=0 with symmetry is DISCOURAGED, use correct ibrav instead

     bravais-lattice index     =            0
     lattice parameter (alat)  =       7.4270  a.u.
     unit-cell volume          =    4598.4779 (a.u.)^3
     number of atoms/cell      =           28
     number of atomic types    =            4
     number of electrons       =       227.00
     number of Kohn-Sham states=          137
     kinetic-energy cutoff     =      60.0000  Ry
     charge density cutoff     =     720.0000  Ry
     convergence threshold     =      1.0E-08
     mixing beta               =       0.5000
     number of iterations used =           10  local-TF  mixing
     Exchange-correlation= SLA PW PBE PBE
                           (   1   4   3   4   0   0   0)

     celldm(1)=   7.427040  celldm(2)=   0.000000  celldm(3)=   0.000000
     celldm(4)=   0.000000  celldm(5)=   0.000000  celldm(6)=   0.000000

     crystal axes: (cart. coord. in units of alat)
               a(1) = (   1.000000   0.000000   0.000000 )
               a(2) = (   0.000000   0.947081   0.000000 )
               a(3) = (   0.000000   0.000000  11.851673 )

     reciprocal axes: (cart. coord. in units 2 pi/alat)
               b(1) = (  1.000000  0.000000  0.000000 )
               b(2) = (  0.000000  1.055876  0.000000 )
               b(3) = (  0.000000  0.000000  0.084376 )

     PseudoPot. # 1 for Ba read from file:
     ./pseudo/Ba.pbe-nsp-van.UPF
     MD5 check sum: 2b9c31dd849566dd297d80989662b7a0
     Pseudo is Ultrasoft + core correction, Zval = 10.0
     Generated by new atomic code, or converted to UPF format
     Using radial grid of  907 points,  6 beta functions with:
                l(1) =   0
                l(2) =   0
                l(3) =   1
                l(4) =   1
                l(5) =   2
                l(6) =   2
     Q(r) pseudized with  6 coefficients,  rinner =    1.200   1.200   1.200
                                                       1.200   1.200

     PseudoPot. # 2 for Ca read from file:
     ./pseudo/Ca.pbe-nsp-van.UPF
     MD5 check sum: 6471098428ff4fa451746d08035ff179
     Pseudo is Ultrasoft + core correction, Zval = 10.0
     Generated by new atomic code, or converted to UPF format
     Using radial grid of  845 points,  6 beta functions with:
                l(1) =   0
                l(2) =   0
                l(3) =   1
                l(4) =   1
                l(5) =   2
                l(6) =   2
     Q(r) pseudized with  6 coefficients,  rinner =    1.200   1.200   1.200
                                                       1.200   1.200

     PseudoPot. # 3 for Cu read from file:
     ./pseudo/Cu.pbe-n-van_ak.UPF
     MD5 check sum: 34e3282627ffb533726feb647e090d62
     Pseudo is Ultrasoft + core correction, Zval = 11.0
     Generated by new atomic code, or converted to UPF format
     Using radial grid of  867 points,  6 beta functions with:
                l(1) =   0
                l(2) =   0
                l(3) =   1
                l(4) =   1
                l(5) =   2
                l(6) =   2
     Q(r) pseudized with  8 coefficients,  rinner =    1.400   1.400   1.400
                                                       1.400   1.400

     PseudoPot. # 4 for O  read from file:
     ./pseudo/O.pbe-van_ak.UPF
     MD5 check sum: 783ce7fe4c79b6a4916957118fed0856
     Pseudo is Ultrasoft, Zval =  6.0
     Generated by new atomic code, or converted to UPF format
     Using radial grid of  737 points,  4 beta functions with:
                l(1) =   0
                l(2) =   0
                l(3) =   1
                l(4) =   1
     Q(r) pseudized with  8 coefficients,  rinner =    0.800   0.800   0.800

     atomic species   valence    mass     pseudopotential
        Ba            10.00   137.32700     Ba( 1.00)
        Ca            10.00    40.07800     Ca( 1.00)
        Cu            11.00    63.54600     Cu( 1.00)
        O              6.00    15.99900     O ( 1.00)

      4 Sym. Ops. (no inversion) found

   Cartesian axes

     site n.     atom                  positions (alat units)
         1           O   tau(   1) = (   0.0000000   0.4735409  -0.0469745  )
         2           Cu  tau(   2) = (   0.0000000   0.0000000   0.0264565  )
         3           O   tau(   3) = (   0.0000000   0.0000000   0.5030914  )
         4           Ba  tau(   4) = (   0.5000000   0.4735409   0.5690292  )
         5           Cu  tau(   5) = (   0.0000000   0.0000000   1.0374254  )
         6           O   tau(   6) = (   0.5000000   0.0000000   1.0768099  )
         7           O   tau(   7) = (   0.0000000   0.4735409   1.1116985  )
         8           Ca  tau(   8) = (   0.5000000   0.4735409   1.4976260  )
         9           O   tau(   9) = (   0.0000000   0.4735409   1.8667529  )
        10           O   tau(  10) = (   0.5000000   0.0000000   1.9044124  )
        11           Cu  tau(  11) = (   0.0000000   0.0000000   1.9512546  )
        12           Ba  tau(  12) = (   0.5000000   0.4735409   2.4295764  )
        13           O   tau(  13) = (   0.0000000   0.0000000   2.5115362  )
        14           O   tau(  14) = (   0.0000000   0.4735409   2.9918528  )
        15           Cu  tau(  15) = (   0.0000000   0.0000000   2.9919088  )
        16           O   tau(  16) = (   0.0000000   0.0000000   3.4722686  )
        17           Ba  tau(  17) = (   0.5000000   0.4735409   3.5542208  )
        18           Cu  tau(  18) = (   0.0000000   0.0000000   4.7958408  )
        19           O   tau(  19) = (   0.5000000   0.0000000   4.8426830  )
        20           O   tau(  20) = (   0.0000000   0.4735409   4.8803373  )
        21           Ca  tau(  21) = (   0.5000000   0.4735409   5.2494744  )
        22           O   tau(  22) = (   0.0000000   0.4735409   5.6353994  )
        23           O   tau(  23) = (   0.5000000   0.0000000   5.6702880  )
        24           Cu  tau(  24) = (   0.0000000   0.0000000   5.7096751  )
        25           Ba  tau(  25) = (   0.5000000   0.4735409   6.1780687  )
        26           O   tau(  26) = (   0.0000000   0.0000000   6.2439963  )
        27           Cu  tau(  27) = (   0.0000000   0.0000000   6.7206363  )
        28           O   tau(  28) = (   0.0000000   0.4735409   6.7940546  )

     number of k points=    25  Gaussian smearing, width (Ry)=  0.0100
                       cart. coord. in units 2pi/alat
        k(    1) = (   0.0000000   0.0000000   0.0000000), wk =   0.0312500
        k(    2) = (   0.0000000   0.1319845   0.0000000), wk =   0.0625000
        k(    3) = (   0.0000000   0.2639689   0.0000000), wk =   0.0625000
        k(    4) = (   0.0000000   0.3959534   0.0000000), wk =   0.0625000
        k(    5) = (   0.0000000  -0.5279378   0.0000000), wk =   0.0312500
        k(    6) = (   0.1250000   0.0000000   0.0000000), wk =   0.0625000
        k(    7) = (   0.1250000   0.1319845   0.0000000), wk =   0.1250000
        k(    8) = (   0.1250000   0.2639689   0.0000000), wk =   0.1250000
        k(    9) = (   0.1250000   0.3959534   0.0000000), wk =   0.1250000
        k(   10) = (   0.1250000  -0.5279378   0.0000000), wk =   0.0625000
        k(   11) = (   0.2500000   0.0000000   0.0000000), wk =   0.0625000
        k(   12) = (   0.2500000   0.1319845   0.0000000), wk =   0.1250000
        k(   13) = (   0.2500000   0.2639689   0.0000000), wk =   0.1250000
        k(   14) = (   0.2500000   0.3959534   0.0000000), wk =   0.1250000
        k(   15) = (   0.2500000  -0.5279378   0.0000000), wk =   0.0625000
        k(   16) = (   0.3750000   0.0000000   0.0000000), wk =   0.0625000
        k(   17) = (   0.3750000   0.1319845   0.0000000), wk =   0.1250000
        k(   18) = (   0.3750000   0.2639689   0.0000000), wk =   0.1250000
        k(   19) = (   0.3750000   0.3959534   0.0000000), wk =   0.1250000
        k(   20) = (   0.3750000  -0.5279378   0.0000000), wk =   0.0625000
        k(   21) = (  -0.5000000   0.0000000   0.0000000), wk =   0.0312500
        k(   22) = (  -0.5000000   0.1319845   0.0000000), wk =   0.0625000
        k(   23) = (  -0.5000000   0.2639689   0.0000000), wk =   0.0625000
        k(   24) = (  -0.5000000   0.3959534   0.0000000), wk =   0.0625000
        k(   25) = (  -0.5000000  -0.5279378   0.0000000), wk =   0.0312500

     Initial potential from superposition of free atoms

     starting charge  226.84630, renormalised to  227.00000

     negative rho (up, down):  3.419E-03 0.000E+00
     Starting wfcs are  195 randomized atomic wfcs

     Self-consistent Calculation

     iteration #  1     ecut=    60.00 Ry     beta= 0.50
     Davidson diagonalization with overlap
     ethr =  1.00E-02,  avg # of iterations =  2.0

     negative rho (up, down):  4.999E-04 0.000E+00

     total energy              =   -1840.77745951 Ry
     Harris-Foulkes estimate   =   -1845.41482589 Ry
     estimated scf accuracy    <      20.09977905 Ry

[...]

     iteration # 11     ecut=    60.00 Ry     beta= 0.50
     Davidson diagonalization with overlap
     c_bands:  1 eigenvalues not converged
     ethr =  2.68E-05,  avg # of iterations =  9.5

[...]

     iteration # 26     ecut=    60.00 Ry     beta= 0.50
     Davidson diagonalization with overlap
     c_bands:  1 eigenvalues not converged
     ethr =  2.04E-08,  avg # of iterations =  5.0

[...]

     total energy              =   -1842.80444807 Ry
     Harris-Foulkes estimate   =   -1842.80444807 Ry
     estimated scf accuracy    <       0.00000001 Ry

     iteration # 35     ecut=    60.00 Ry     beta= 0.50
     Davidson diagonalization with overlap
     ethr =  5.99E-12,  avg # of iterations =  1.1

[...]

     End of self-consistent calculation

          k = 0.0000 0.0000 0.0000 ( 36187 PWs)   bands (ev):

   -35.8384 -35.6380 -24.6665 -23.0290 -23.0262 -22.8502 -17.3422 -17.1187
   -16.8895 -16.8781 -16.7044 -16.6842 -15.5507 -15.4028 -15.3157 -14.9106
   -14.9011 -14.8229 -14.5623 -14.4187 -14.4119 -14.2412 -14.2241 -14.1902
   -14.0795 -14.0074 -13.6871  -9.9379  -9.4928  -9.4190  -8.1610  -8.1556
    -8.1226  -8.1207  -8.0378  -7.9298  -7.9270  -7.8937  -7.7271  -2.5687
    -2.5667  -2.4760  -2.0689  -2.0599  -2.0227  -1.9138  -1.8666  -1.7931
    -1.7554  -1.7346  -1.6346  -1.5166  -1.4598  -1.4574  -1.4440  -1.2454
    -1.1183  -1.0718  -0.6975  -0.6956  -0.6184  -0.6159  -0.6135  -0.5649
    -0.5313  -0.5054  -0.5036  -0.5016  -0.4960  -0.4822  -0.4009  -0.3727
    -0.3456  -0.3263  -0.2758  -0.2743  -0.1455  -0.1405  -0.1394  -0.1381
    -0.1339  -0.0980  -0.0674  -0.0298   0.0449   0.0783   0.1738   0.2006
     0.4347   0.4427   0.4777   0.6439   0.6446   0.6960   0.7428   0.8518
     0.9381   0.9955   1.0982   1.1430   1.1439   1.1681   1.1910   1.2018
     1.3053   1.3065   1.3603   1.5549   1.5749   1.7445   1.7684   1.7858
     1.7986   1.8202   1.9308   1.9442   1.9604   2.2895   2.2957   4.0786
     4.7944   4.9788   4.9937   5.7065   6.0184   6.3396   6.5232   6.5439
     6.9600   7.2174   7.7385   7.8786   7.9650   8.1199   8.2477   8.2564
     8.3604

[...]

          k = 0.3750-0.5279 0.0000 ( 36128 PWs)   bands (ev):

[...]

          k =-0.5000 0.0000 0.0000 ( 36070 PWs)   bands (ev):

[...]

          k =-0.5000-0.5279 0.0000 ( 36156 PWs)   bands (ev):

   -35.8187 -35.6182 -24.4516 -22.7561 -22.7533 -22.5877 -17.2643 -17.2552
   -17.0854 -17.0598 -16.8788 -16.6477 -14.8527 -14.8502 -14.7185 -14.6790
   -14.6132 -14.5141 -14.5123 -14.4204 -14.3489 -14.2955 -14.2919 -14.2336
   -14.1879 -14.0732 -13.7117 -10.5365 -10.0477  -9.8158  -8.9890  -8.9855
    -8.8086  -8.7209  -8.7190  -8.4638  -8.2548  -8.2496  -8.1187  -4.3333
    -4.2750  -4.0675  -3.9649  -3.6352  -3.4007  -3.3986  -2.9723  -2.9723
    -2.8243  -2.5828  -2.5349  -2.5253  -2.5235  -2.4557  -2.4554  -2.2225
    -2.1490  -2.0320  -1.7351  -1.5888  -1.5805  -1.4124  -1.3926  -1.2655
    -1.2392  -1.2216  -1.2198  -1.1466  -1.1081  -0.9977  -0.9144  -0.8948
    -0.7514  -0.5691  -0.5668  -0.0323   0.0345   0.0797   0.2785   0.5741
     0.7224   0.7921   1.0049   1.1065   1.1142   1.1185   1.1237   1.1818
     1.2073   1.2096   1.3727   1.4273   1.4316   1.5361   1.6022   1.6035
     1.6586   1.6620   1.6684   1.7478   1.7812   1.8312   1.8770   1.9195
     1.9345   1.9496   2.0247   2.0956   2.1023   2.1052   2.1780   2.2982
     2.3054   2.5442   3.8757   4.3900   4.4690   4.4795   4.5306   4.6554
     5.7346   5.7356   6.4988   6.6188   6.6245   6.8614   7.4999   7.7510
     8.7370   8.7946   8.8210   8.8386   9.1571   9.2667   9.2821   9.3537
     9.5674

     the Fermi energy is     2.3300 ev

!    total energy              =   -1842.80444807 Ry
     Harris-Foulkes estimate   =   -1842.80444807 Ry
     estimated scf accuracy    <          7.3E-09 Ry

     The total energy is the sum of the following terms:

     one-electron contribution =  -25875.30948745 Ry
     hartree contribution      =   13088.13969373 Ry
     xc contribution           =    -621.54838351 Ry
     ewald contribution        =   11565.92114256 Ry
     smearing contrib. (-TS)   =      -0.00741340 Ry

     convergence has been achieved in  35 iterations

     negative rho (up, down):  1.477E-03 0.000E+00

     Forces acting on atoms (cartesian axes, Ry/au):

     atom    1 type  4   force =     0.00000000    0.00000000   -0.00015792
     atom    2 type  3   force =     0.00000000    0.00000000    0.00034563
     atom    3 type  4   force =     0.00000000    0.00000000   -0.00078553
     atom    4 type  1   force =     0.00000000    0.00000000   -0.00033592
     atom    5 type  3   force =     0.00000000    0.00000000    0.00069508
     atom    6 type  4   force =     0.00000000    0.00000000    0.00020176
     atom    7 type  4   force =     0.00000000    0.00000000    0.00056749
     atom    8 type  2   force =     0.00000000    0.00000000   -0.00124845
     atom    9 type  4   force =     0.00000000    0.00000000    0.00071803
     atom   10 type  4   force =     0.00000000    0.00000000    0.00105223
     atom   11 type  3   force =     0.00000000    0.00000000    0.00043555
     atom   12 type  1   force =     0.00000000    0.00000000   -0.00351479
     atom   13 type  4   force =     0.00000000    0.00000000    0.00743641
     atom   14 type  4   force =     0.00000000    0.00000000    0.02130202
     atom   15 type  3   force =     0.00000000    0.00000000   -0.02490815
     atom   16 type  4   force =     0.00000000    0.00000000    0.04211898
     atom   17 type  1   force =     0.00000000    0.00000000   -0.03733326
     atom   18 type  3   force =     0.00000000    0.00000000   -0.01201095
     atom   19 type  4   force =     0.00000000    0.00000000    0.01430050
     atom   20 type  4   force =     0.00000000    0.00000000    0.00523676
     atom   21 type  2   force =     0.00000000    0.00000000   -0.01812802
     atom   22 type  4   force =     0.00000000    0.00000000    0.00080578
     atom   23 type  4   force =     0.00000000    0.00000000    0.00250356
     atom   24 type  3   force =     0.00000000    0.00000000   -0.00009490
     atom   25 type  1   force =     0.00000000    0.00000000    0.00015770
     atom   26 type  4   force =     0.00000000    0.00000000    0.00112197
     atom   27 type  3   force =     0.00000000    0.00000000   -0.00080571
     atom   28 type  4   force =     0.00000000    0.00000000    0.00032413

     Total force =     0.070912     Total SCF correction =     0.000391

     Computing stress (Cartesian axis) and pressure

     negative rho (up, down):  1.477E-03 0.000E+00
          total   stress  (Ry/bohr**3)                   (kbar)     P=       -8.49
  -0.00010085   0.00000000   0.00000000          -14.84        0.00        0.00
   0.00000000  -0.00004128   0.00000000            0.00       -6.07        0.00
   0.00000000   0.00000000  -0.00003100            0.00        0.00       -4.56

     General routines

     Parallel routines

   This run was terminated on:  11:47:44  21May2021

   JOB DONE.
[1621612064.393463] [holy7c08610:275306:0]          mpool.c:43   UCX  WARN  object 0x39c03c0 was not returned to mpool ucp_requests
[1621612064.396980] [holy7c08602:148674:0]          mpool.c:43   UCX  WARN  object 0x4001c80 was not returned to mpool ucp_requests
[1621612064.396996] [holy7c08602:148674:0]          mpool.c:43   UCX  WARN  object 0x4002000 was not returned to mpool ucp_requests
[1621612064.397656] [holy7c08407:163825:0]          mpool.c:43   UCX  WARN  object 0x3251980 was not returned to mpool ucp_requests
[1621612064.414757] [holy7c08606:177648:0]          mpool.c:43   UCX  WARN  object 0x3086640 was not returned to mpool ucp_requests
[1621612064.403073] [holy7c08407:163824:0]          mpool.c:43   UCX  WARN  object 0x3e24100 was not returned to mpool ucp_requests
[1621612064.424924] [holy7c08606:177645:0]          mpool.c:43   UCX  WARN  object 0x3381580 was not returned to mpool ucp_requests
[1621612064.426649] [holy7c08606:177647:0]          mpool.c:43   UCX  WARN  object 0x4629600 was not returned to mpool ucp_requests
[1621612064.426674] [holy7c08606:177647:0]          mpool.c:43   UCX  WARN  object 0x46297c0 was not returned to mpool ucp_requests