     Program PWSCF v.6.5 starts on 21May2021 at 21:28: 1

     R & G space division:  proc/nbgrp/npool/nimage =      20
     Reading input from CBCO_Y_cleave_3.0_sep.pwi
Warning: card &IONS ignored
Warning: card     ION_DYNAMICS = 'BFGS' ignored
Warning: card / ignored
Warning: card &CELL ignored
Warning: card     CELL_DYNAMICS = 'BFGS' ignored
Warning: card     PRESS_CONV_THR = 5 ignored
Warning: card / ignored

     Current dimensions of program PWSCF are:
     Max number of different atomic species (ntypx) = 10
     Max number of k-points (npk) =  40000
     Max angular momentum in pseudopotentials (lmaxx) =  3

     Message from routine setup:
     using ibrav=0 with symmetry is DISCOURAGED, use correct ibrav instead

     bravais-lattice index     =            0
     lattice parameter (alat)  =       7.4270  a.u.
     unit-cell volume          =    4598.4779 (a.u.)^3
     number of atoms/cell      =           28
     number of atomic types    =            4
     number of electrons       =       227.00
     number of Kohn-Sham states=          137
     kinetic-energy cutoff     =      60.0000  Ry
     charge density cutoff     =     720.0000  Ry
     convergence threshold     =      1.0E-08
     mixing beta               =       0.5000
     number of iterations used =           10  local-TF  mixing
     Exchange-correlation= SLA PW PBE PBE
                           (   1   4   3   4   0   0   0)

     celldm(1)=   7.427040  celldm(2)=   0.000000  celldm(3)=   0.000000
     celldm(4)=   0.000000  celldm(5)=   0.000000  celldm(6)=   0.000000

     crystal axes: (cart. coord. in units of alat)
               a(1) = (   1.000000   0.000000   0.000000 )
               a(2) = (   0.000000   0.947081   0.000000 )
               a(3) = (   0.000000   0.000000  11.851673 )

     reciprocal axes: (cart. coord. in units 2 pi/alat)
               b(1) = (  1.000000  0.000000  0.000000 )
               b(2) = (  0.000000  1.055876  0.000000 )
               b(3) = (  0.000000  0.000000  0.084376 )

     PseudoPot. # 1 for Ba read from file:
     ./pseudo/Ba.pbe-nsp-van.UPF
     MD5 check sum: 2b9c31dd849566dd297d80989662b7a0
     Pseudo is Ultrasoft + core correction, Zval = 10.0
     Generated by new atomic code, or converted to UPF format
     Using radial grid of  907 points,  6 beta functions with:
                l(1) =   0
                l(2) =   0
                l(3) =   1
                l(4) =   1
                l(5) =   2
                l(6) =   2
     Q(r) pseudized with  6 coefficients,  rinner =    1.200   1.200   1.200
                                                       1.200   1.200

     PseudoPot. # 2 for Ca read from file:
     ./pseudo/Ca.pbe-nsp-van.UPF
     MD5 check sum: 6471098428ff4fa451746d08035ff179
     Pseudo is Ultrasoft + core correction, Zval = 10.0
     Generated by new atomic code, or converted to UPF format
     Using radial grid of  845 points,  6 beta functions with:
                l(1) =   0
                l(2) =   0
                l(3) =   1
                l(4) =   1
                l(5) =   2
                l(6) =   2
     Q(r) pseudized with  6 coefficients,  rinner =    1.200   1.200   1.200
                                                       1.200   1.200

     PseudoPot. # 3 for Cu read from file:
     ./pseudo/Cu.pbe-n-van_ak.UPF
     MD5 check sum: 34e3282627ffb533726feb647e090d62
     Pseudo is Ultrasoft + core correction, Zval = 11.0
     Generated by new atomic code, or converted to UPF format
     Using radial grid of  867 points,  6 beta functions with:
                l(1) =   0
                l(2) =   0
                l(3) =   1
                l(4) =   1
                l(5) =   2
                l(6) =   2
     Q(r) pseudized with  8 coefficients,  rinner =    1.400   1.400   1.400
                                                       1.400   1.400

     PseudoPot. # 4 for O  read from file:
     ./pseudo/O.pbe-van_ak.UPF
     MD5 check sum: 783ce7fe4c79b6a4916957118fed0856
     Pseudo is Ultrasoft, Zval =  6.0
     Generated by new atomic code, or converted to UPF format
     Using radial grid of  737 points,  4 beta functions with:
                l(1) =   0
                l(2) =   0
                l(3) =   1
                l(4) =   1
     Q(r) pseudized with  8 coefficients,  rinner =    0.800   0.800   0.800

     atomic species   valence    mass     pseudopotential
        Ba            10.00   137.32700     Ba( 1.00)
        Ca            10.00    40.07800     Ca( 1.00)
        Cu            11.00    63.54600     Cu( 1.00)
        O              6.00    15.99900     O ( 1.00)

      4 Sym. Ops. (no inversion) found

   Cartesian axes

     site n.     atom                  positions (alat units)
         1           O   tau(   1) = (   0.0000000   0.4735409  -0.0469745  )
         2           Cu  tau(   2) = (   0.0000000   0.0000000   0.0264565  )
         3           O   tau(   3) = (   0.0000000   0.0000000   0.5030914  )
         4           Ba  tau(   4) = (   0.5000000   0.4735409   0.5690292  )
         5           Cu  tau(   5) = (   0.0000000   0.0000000   1.0374254  )
         6           O   tau(   6) = (   0.5000000   0.0000000   1.0768099  )
         7           O   tau(   7) = (   0.0000000   0.4735409   1.1116985  )
         8           Ca  tau(   8) = (   0.5000000   0.4735409   1.4976260  )
         9           O   tau(   9) = (   0.0000000   0.4735409   1.8667529  )
        10           O   tau(  10) = (   0.5000000   0.0000000   1.9044124  )
        11           Cu  tau(  11) = (   0.0000000   0.0000000   1.9512546  )
        12           Ba  tau(  12) = (   0.5000000   0.4735409   2.4295764  )
        13           O   tau(  13) = (   0.0000000   0.0000000   2.5115362  )
        14           O   tau(  14) = (   0.0000000   0.4735409   2.9918528  )
        15           Cu  tau(  15) = (   0.0000000   0.0000000   2.9919088  )
        16           O   tau(  16) = (   0.0000000   0.0000000   3.4722686  )
        17           Ba  tau(  17) = (   0.5000000   0.4735409   3.5542208  )
        18           Cu  tau(  18) = (   0.0000000   0.0000000   4.0325248  )
        19           O   tau(  19) = (   0.5000000   0.0000000   4.0793669  )
        20           O   tau(  20) = (   0.0000000   0.4735409   4.1170213  )
        21           Ca  tau(  21) = (   0.5000000   0.4735409   4.4861584  )
        22           O   tau(  22) = (   0.0000000   0.4735409   5.6353994  )
        23           O   tau(  23) = (   0.5000000   0.0000000   5.6702880  )
        24           Cu  tau(  24) = (   0.0000000   0.0000000   5.7096751  )
        25           Ba  tau(  25) = (   0.5000000   0.4735409   6.1780687  )
        26           O   tau(  26) = (   0.0000000   0.0000000   6.2439963  )
        27           Cu  tau(  27) = (   0.0000000   0.0000000   6.7206363  )
        28           O   tau(  28) = (   0.0000000   0.4735409   6.7940546  )

     number of k points=    25  Gaussian smearing, width (Ry)=  0.0100
                       cart. coord. in units 2pi/alat
        k(    1) = (   0.0000000   0.0000000   0.0000000), wk =   0.0312500
        k(    2) = (   0.0000000   0.1319845   0.0000000), wk =   0.0625000
        k(    3) = (   0.0000000   0.2639689   0.0000000), wk =   0.0625000
        k(    4) = (   0.0000000   0.3959534   0.0000000), wk =   0.0625000
        k(    5) = (   0.0000000  -0.5279378   0.0000000), wk =   0.0312500
        k(    6) = (   0.1250000   0.0000000   0.0000000), wk =   0.0625000
        k(    7) = (   0.1250000   0.1319845   0.0000000), wk =   0.1250000
        k(    8) = (   0.1250000   0.2639689   0.0000000), wk =   0.1250000
        k(    9) = (   0.1250000   0.3959534   0.0000000), wk =   0.1250000
        k(   10) = (   0.1250000  -0.5279378   0.0000000), wk =   0.0625000
        k(   11) = (   0.2500000   0.0000000   0.0000000), wk =   0.0625000
        k(   12) = (   0.2500000   0.1319845   0.0000000), wk =   0.1250000
        k(   13) = (   0.2500000   0.2639689   0.0000000), wk =   0.1250000
        k(   14) = (   0.2500000   0.3959534   0.0000000), wk =   0.1250000
        k(   15) = (   0.2500000  -0.5279378   0.0000000), wk =   0.0625000
        k(   16) = (   0.3750000   0.0000000   0.0000000), wk =   0.0625000
        k(   17) = (   0.3750000   0.1319845   0.0000000), wk =   0.1250000
        k(   18) = (   0.3750000   0.2639689   0.0000000), wk =   0.1250000
        k(   19) = (   0.3750000   0.3959534   0.0000000), wk =   0.1250000
        k(   20) = (   0.3750000  -0.5279378   0.0000000), wk =   0.0625000
        k(   21) = (  -0.5000000   0.0000000   0.0000000), wk =   0.0312500
        k(   22) = (  -0.5000000   0.1319845   0.0000000), wk =   0.0625000
        k(   23) = (  -0.5000000   0.2639689   0.0000000), wk =   0.0625000
        k(   24) = (  -0.5000000   0.3959534   0.0000000), wk =   0.0625000
        k(   25) = (  -0.5000000  -0.5279378   0.0000000), wk =   0.0312500

     Initial potential from superposition of free atoms

     starting charge  226.84630, renormalised to  227.00000

     negative rho (up, down):  3.380E-03 0.000E+00
     Starting wfcs are  195 randomized atomic wfcs

     Self-consistent Calculation

     iteration #  1     ecut=    60.00 Ry     beta= 0.50
     Davidson diagonalization with overlap
     ethr =  1.00E-02,  avg # of iterations =  2.1

     negative rho (up, down):  4.943E-04 0.000E+00

     total energy              =   -1840.97717270 Ry
     Harris-Foulkes estimate   =   -1845.31877685 Ry
     estimated scf accuracy    <      17.58013220 Ry

[...]

     iteration # 19     ecut=    60.00 Ry     beta= 0.50
     Davidson diagonalization with overlap
     c_bands:  1 eigenvalues not converged
     ethr =  4.40E-06,  avg # of iterations =  8.2

[...]

     iteration # 20     ecut=    60.00 Ry     beta= 0.50
     Davidson diagonalization with overlap
     c_bands:  1 eigenvalues not converged
     ethr =  1.75E-06,  avg # of iterations =  8.8

[...]

     total energy              =   -1842.64803813 Ry
     Harris-Foulkes estimate   =   -1842.64803813 Ry
     estimated scf accuracy    <       0.00000004 Ry

     iteration # 34     ecut=    60.00 Ry     beta= 0.50
     Davidson diagonalization with overlap
     ethr =  1.90E-11,  avg # of iterations =  1.5

[...]

     End of self-consistent calculation

          k = 0.0000 0.0000 0.0000 ( 36187 PWs)   bands (ev):

   -39.0642 -35.7654 -23.0522 -22.9693 -22.7675 -22.7104 -20.1679 -20.0451
   -20.0299 -17.2697 -16.8167 -16.8052 -15.9912 -15.4801 -15.0389 -15.0328
   -14.8497 -14.8419 -14.7907 -14.7509 -14.3596 -14.3192 -14.1604 -14.0026
   -13.9672 -13.8325 -13.7075  -8.2709  -8.1006  -8.0738  -8.0630  -7.9228
    -7.8917  -7.8814  -7.8701  -7.8364  -7.7553  -7.6809  -7.5893  -2.5787
    -2.5082  -2.5029  -2.4815  -2.4580  -2.0744  -2.0081  -1.9457  -1.8466
    -1.7176  -1.6628  -1.5630  -1.3984  -1.3606  -1.2966  -1.2349  -1.2123
    -1.0427  -0.9183  -0.8070  -0.6367  -0.6274  -0.5830  -0.5546  -0.4887
    -0.4803  -0.4428  -0.4293  -0.4242  -0.3939  -0.3759  -0.3657  -0.3491
    -0.3294  -0.2926  -0.2152  -0.1927  -0.1495  -0.0952  -0.0793  -0.0791
    -0.0485  -0.0132  -0.0049   0.0454   0.0961   0.1288   0.1448   0.2045
     0.2524   0.5352   0.5642   0.6196   0.7038   0.7280   0.7570   0.7807
     0.9278   0.9815   1.0053   1.1708   1.1866   1.2819   1.3432   1.3515
     1.4310   1.4428   1.5183   1.5428   1.6477   1.8486   1.8534   1.8677
     1.9532   2.0083   2.0726   2.0884   2.1363   2.2332   2.3579   2.4467
     4.7565   5.0386   5.1336   5.5716   5.7226   6.1619   6.5856   6.6717
     6.7805   6.8793   6.9345   6.9684   7.0300   7.5147   7.8245   7.9536
     8.1382

[...]

          k = 0.3750-0.5279 0.0000 ( 36128 PWs)   bands (ev):

[...]

          k =-0.5000 0.0000 0.0000 ( 36070 PWs)   bands (ev):

[...]

          k =-0.5000-0.5279 0.0000 ( 36156 PWs)   bands (ev):

   -39.0488 -35.7458 -22.7912 -22.6964 -22.4922 -22.4477 -20.2234 -20.1623
   -20.0607 -17.1918 -17.1825 -16.8060 -15.2699 -15.1184 -14.7917 -14.7567
   -14.6171 -14.4465 -14.4445 -14.2958 -14.2742 -14.2589 -14.2322 -14.1901
   -14.1115 -14.0644 -13.9967  -9.0115  -8.9293  -8.7297  -8.6743  -8.6707
    -8.6613  -8.4814  -8.3835  -8.3030  -8.1944  -7.9541  -7.9245  -4.6148
    -4.2667  -3.9485  -3.7861  -3.7666  -3.3395  -3.2973  -3.0265  -2.9128
    -2.8550  -2.7597  -2.7490  -2.4648  -2.4570  -2.4346  -2.3989  -2.1307
    -1.9389  -1.9339  -1.5726  -1.5258  -1.5251  -1.4473  -1.4141  -1.3489
    -1.2010  -1.1767  -1.1607  -1.1191  -1.1170  -1.0637  -0.9821  -0.8832
    -0.7558  -0.5079  -0.4611   0.0426   0.1769   0.2666   0.5307   0.7054
     0.8653   0.9380   0.9963   1.0229   1.1295   1.1635   1.1863   1.2283
     1.2650   1.2981   1.3730   1.4548   1.4664   1.4761   1.5973   1.6518
     1.6731   1.7354   1.7554   1.8293   1.8748   1.9369   1.9571   1.9905
     2.0228   2.0592   2.1620   2.1637   2.1975   2.2510   2.3476   2.3654
     2.4635   2.7272   3.7403   4.2676   4.5037   4.5605   4.6162   4.6994
     4.8693   5.1032   5.2024   5.7942   5.8937   6.2533   6.9397   7.5516
     8.2733   8.4547   8.4616   8.6243   8.8525   8.8573   8.9262   9.1558
     9.3115

     the Fermi energy is     2.3891 ev

!    total energy              =   -1842.64803813 Ry
     Harris-Foulkes estimate   =   -1842.64803813 Ry
     estimated scf accuracy    <          8.1E-09 Ry

     The total energy is the sum of the following terms:

     one-electron contribution =  -28643.33166133 Ry
     hartree contribution      =   14471.98715931 Ry
     xc contribution           =    -621.50466328 Ry
     ewald contribution        =   12950.20908368 Ry
     smearing contrib. (-TS)   =      -0.00795651 Ry

     convergence has been achieved in  34 iterations

     negative rho (up, down):  1.450E-03 0.000E+00

     Forces acting on atoms (cartesian axes, Ry/au):

     atom    1 type  4   force =     0.00000000    0.00000000   -0.00017241
     atom    2 type  3   force =     0.00000000    0.00000000    0.00036661
     atom    3 type  4   force =     0.00000000    0.00000000   -0.00079273
     atom    4 type  1   force =     0.00000000    0.00000000   -0.00029355
     atom    5 type  3   force =     0.00000000    0.00000000    0.00051401
     atom    6 type  4   force =     0.00000000    0.00000000   -0.00000902
     atom    7 type  4   force =     0.00000000    0.00000000    0.00033442
     atom    8 type  2   force =     0.00000000    0.00000000   -0.00063153
     atom    9 type  4   force =     0.00000000    0.00000000    0.00029040
     atom   10 type  4   force =     0.00000000    0.00000000    0.00038293
     atom   11 type  3   force =     0.00000000    0.00000000    0.00030015
     atom   12 type  1   force =     0.00000000    0.00000000    0.00014810
     atom   13 type  4   force =     0.00000000    0.00000000    0.00326993
     atom   14 type  4   force =     0.00000000    0.00000000    0.00403706
     atom   15 type  3   force =     0.00000000    0.00000000   -0.00708720
     atom   16 type  4   force =     0.00000000    0.00000000    0.00655624
     atom   17 type  1   force =     0.00000000    0.00000000   -0.02016110
     atom   18 type  3   force =     0.00000000    0.00000000    0.00962972
     atom   19 type  4   force =     0.00000000    0.00000000    0.05928803
     atom   20 type  4   force =     0.00000000    0.00000000    0.06616931
     atom   21 type  2   force =     0.00000000    0.00000000   -0.10543469
     atom   22 type  4   force =     0.00000000    0.00000000    0.00758394
     atom   23 type  4   force =     0.00000000    0.00000000    0.01538317
     atom   24 type  3   force =     0.00000000    0.00000000   -0.01872227
     atom   25 type  1   force =     0.00000000    0.00000000   -0.01836615
     atom   26 type  4   force =     0.00000000    0.00000000   -0.00311665
     atom   27 type  3   force =     0.00000000    0.00000000    0.00219645
     atom   28 type  4   force =     0.00000000    0.00000000   -0.00166318

     Total force =     0.143634     Total SCF correction =     0.000477

     Computing stress (Cartesian axis) and pressure

     negative rho (up, down):  1.450E-03 0.000E+00
          total   stress  (Ry/bohr**3)                   (kbar)     P=       -5.93
  -0.00001278   0.00000000   0.00000000           -1.88        0.00        0.00
   0.00000000   0.00001282   0.00000000            0.00        1.89        0.00
   0.00000000   0.00000000  -0.00012106            0.00        0.00      -17.81

     General routines

     Parallel routines

   This run was terminated on:  21:38:26  21May2021

   JOB DONE.
[1621647506.092366] [holy7c10209:191462:0]          mpool.c:43   UCX  WARN  object 0x3fecc80 was not returned to mpool ucp_requests
[1621647506.090076] [holy7c10209:191466:0]          mpool.c:43   UCX  WARN  object 0x33cf880 was not returned to mpool ucp_requests
[1621647506.090092] [holy7c10209:191466:0]          mpool.c:43   UCX  WARN  object 0x33cfc00 was not returned to mpool ucp_requests
[1621647506.096595] [holy7c10309:50103:0]          mpool.c:43   UCX  WARN  object 0x3029e40 was not returned to mpool ucp_requests
[1621647506.096614] [holy7c10309:50103:0]          mpool.c:43   UCX  WARN  object 0x302a1c0 was not returned to mpool ucp_requests
[1621647506.096328] [holy7c10209:191461:0]          mpool.c:43   UCX  WARN  object 0x467b180 was not returned to mpool ucp_requests
[1621647506.100505] [holy7c10309:50104:0]          mpool.c:43   UCX  WARN  object 0x36baf40 was not returned to mpool ucp_requests
[1621647506.095440] [holy7c10309:50105:0]          mpool.c:43   UCX  WARN  object 0x2a19d40 was not returned to mpool ucp_requests
[1621647506.095467] [holy7c10309:50105:0]          mpool.c:43   UCX  WARN  object 0x2a19f00 was not returned to mpool ucp_requests
[1621647506.100807] [holy7c10309:50101:0]          mpool.c:43   UCX  WARN  object 0x3e19040 was not returned to mpool ucp_requests