     Program PWSCF v.6.5 starts on 21May2021 at 22:37:58

     R & G space division:  proc/nbgrp/npool/nimage =      20
     Reading input from CBCO_CuO_cleave_0.75_sep.pwi
Warning: card &IONS ignored
Warning: card     ION_DYNAMICS = 'BFGS' ignored
Warning: card / ignored
Warning: card &CELL ignored
Warning: card     CELL_DYNAMICS = 'BFGS' ignored
Warning: card     PRESS_CONV_THR = 5 ignored
Warning: card / ignored

     Current dimensions of program PWSCF are:
     Max number of different atomic species (ntypx) = 10
     Max number of k-points (npk) =  40000
     Max angular momentum in pseudopotentials (lmaxx) =  3

     Message from routine setup:
     using ibrav=0 with symmetry is DISCOURAGED, use correct ibrav instead

     bravais-lattice index     =            0
     lattice parameter (alat)  =       7.4270  a.u.
     unit-cell volume          =    4376.3515 (a.u.)^3
     number of atoms/cell      =           28
     number of atomic types    =            4
     number of electrons       =       227.00
     number of Kohn-Sham states=          137
     kinetic-energy cutoff     =      60.0000  Ry
     charge density cutoff     =     720.0000  Ry
     convergence threshold     =      1.0E-08
     mixing beta               =       0.5000
     number of iterations used =           10  local-TF  mixing
     Exchange-correlation= SLA PW PBE PBE
                           (   1   4   3   4   0   0   0)

     celldm(1)=   7.427040  celldm(2)=   0.000000  celldm(3)=   0.000000
     celldm(4)=   0.000000  celldm(5)=   0.000000  celldm(6)=   0.000000

     crystal axes: (cart. coord. in units of alat)
               a(1) = (   1.000000   0.000000   0.000000 )
               a(2) = (   0.000000   0.947081   0.000000 )
               a(3) = (   0.000000   0.000000  11.279186 )

     reciprocal axes: (cart. coord. in units 2 pi/alat)
               b(1) = (  1.000000  0.000000  0.000000 )
               b(2) = (  0.000000  1.055876  0.000000 )
               b(3) = (  0.000000  0.000000  0.088659 )

     PseudoPot. # 1 for Ba read from file:
     ./pseudo/Ba.pbe-nsp-van.UPF
     MD5 check sum: 2b9c31dd849566dd297d80989662b7a0
     Pseudo is Ultrasoft + core correction, Zval = 10.0
     Generated by new atomic code, or converted to UPF format
     Using radial grid of  907 points,  6 beta functions with:
                l(1) =   0
                l(2) =   0
                l(3) =   1
                l(4) =   1
                l(5) =   2
                l(6) =   2
     Q(r) pseudized with  6 coefficients,  rinner =    1.200   1.200   1.200
                                                       1.200   1.200

     PseudoPot. # 2 for Ca read from file:
     ./pseudo/Ca.pbe-nsp-van.UPF
     MD5 check sum: 6471098428ff4fa451746d08035ff179
     Pseudo is Ultrasoft + core correction, Zval = 10.0
     Generated by new atomic code, or converted to UPF format
     Using radial grid of  845 points,  6 beta functions with:
                l(1) =   0
                l(2) =   0
                l(3) =   1
                l(4) =   1
                l(5) =   2
                l(6) =   2
     Q(r) pseudized with  6 coefficients,  rinner =    1.200   1.200   1.200
                                                       1.200   1.200

     PseudoPot. # 3 for Cu read from file:
     ./pseudo/Cu.pbe-n-van_ak.UPF
     MD5 check sum: 34e3282627ffb533726feb647e090d62
     Pseudo is Ultrasoft + core correction, Zval = 11.0
     Generated by new atomic code, or converted to UPF format
     Using radial grid of  867 points,  6 beta functions with:
                l(1) =   0
                l(2) =   0
                l(3) =   1
                l(4) =   1
                l(5) =   2
                l(6) =   2
     Q(r) pseudized with  8 coefficients,  rinner =    1.400   1.400   1.400
                                                       1.400   1.400

     PseudoPot. # 4 for O  read from file:
     ./pseudo/O.pbe-van_ak.UPF
     MD5 check sum: 783ce7fe4c79b6a4916957118fed0856
     Pseudo is Ultrasoft, Zval =  6.0
     Generated by new atomic code, or converted to UPF format
     Using radial grid of  737 points,  4 beta functions with:
                l(1) =   0
                l(2) =   0
                l(3) =   1
                l(4) =   1
     Q(r) pseudized with  8 coefficients,  rinner =    0.800   0.800   0.800

     atomic species   valence    mass     pseudopotential
        Ba            10.00   137.32700     Ba( 1.00)
        Ca            10.00    40.07800     Ca( 1.00)
        Cu            11.00    63.54600     Cu( 1.00)
        O              6.00    15.99900     O ( 1.00)

      4 Sym. Ops. (no inversion) found

   Cartesian axes

     site n.     atom                  positions (alat units)
         1           O   tau(   1) = (   0.0000000   0.4735409  -0.0469745  )
         2           Cu  tau(   2) = (   0.0000000   0.0000000   0.0264565  )
         3           O   tau(   3) = (   0.0000000   0.0000000   0.5030914  )
         4           Ba  tau(   4) = (   0.5000000   0.4735409   0.5690292  )
         5           Cu  tau(   5) = (   0.0000000   0.0000000   1.0374254  )
         6           O   tau(   6) = (   0.5000000   0.0000000   1.0768099  )
         7           O   tau(   7) = (   0.0000000   0.4735409   1.1116985  )
         8           Ca  tau(   8) = (   0.5000000   0.4735409   1.4976260  )
         9           O   tau(   9) = (   0.0000000   0.4735409   1.8667529  )
        10           O   tau(  10) = (   0.5000000   0.0000000   1.9044124  )
        11           Cu  tau(  11) = (   0.0000000   0.0000000   1.9512546  )
        12           Ba  tau(  12) = (   0.5000000   0.4735409   2.4295764  )
        13           O   tau(  13) = (   0.0000000   0.0000000   2.5115362  )
        14           O   tau(  14) = (   0.0000000   0.4735409   2.9918528  )
        15           Cu  tau(  15) = (   0.0000000   0.0000000   2.9919088  )
        16           O   tau(  16) = (   0.0000000   0.0000000   3.6630976  )
        17           Ba  tau(  17) = (   0.5000000   0.4735409   3.7450498  )
        18           Cu  tau(  18) = (   0.0000000   0.0000000   4.2233538  )
        19           O   tau(  19) = (   0.5000000   0.0000000   4.2701959  )
        20           O   tau(  20) = (   0.0000000   0.4735409   4.3078503  )
        21           Ca  tau(  21) = (   0.5000000   0.4735409   4.6769874  )
        22           O   tau(  22) = (   0.0000000   0.4735409   5.0629123  )
        23           O   tau(  23) = (   0.5000000   0.0000000   5.0978010  )
        24           Cu  tau(  24) = (   0.0000000   0.0000000   5.1371881  )
        25           Ba  tau(  25) = (   0.5000000   0.4735409   5.6055817  )
        26           O   tau(  26) = (   0.0000000   0.0000000   5.6715093  )
        27           Cu  tau(  27) = (   0.0000000   0.0000000   6.1481493  )
        28           O   tau(  28) = (   0.0000000   0.4735409   6.2215676  )

     number of k points=    25  Gaussian smearing, width (Ry)=  0.0100
                       cart. coord. in units 2pi/alat
        k(    1) = (   0.0000000   0.0000000   0.0000000), wk =   0.0312500
        k(    2) = (   0.0000000   0.1319845   0.0000000), wk =   0.0625000
        k(    3) = (   0.0000000   0.2639689   0.0000000), wk =   0.0625000
        k(    4) = (   0.0000000   0.3959534   0.0000000), wk =   0.0625000
        k(    5) = (   0.0000000  -0.5279378   0.0000000), wk =   0.0312500
        k(    6) = (   0.1250000   0.0000000   0.0000000), wk =   0.0625000
        k(    7) = (   0.1250000   0.1319845   0.0000000), wk =   0.1250000
        k(    8) = (   0.1250000   0.2639689   0.0000000), wk =   0.1250000
        k(    9) = (   0.1250000   0.3959534   0.0000000), wk =   0.1250000
        k(   10) = (   0.1250000  -0.5279378   0.0000000), wk =   0.0625000
        k(   11) = (   0.2500000   0.0000000   0.0000000), wk =   0.0625000
        k(   12) = (   0.2500000   0.1319845   0.0000000), wk =   0.1250000
        k(   13) = (   0.2500000   0.2639689   0.0000000), wk =   0.1250000
        k(   14) = (   0.2500000   0.3959534   0.0000000), wk =   0.1250000
        k(   15) = (   0.2500000  -0.5279378   0.0000000), wk =   0.0625000
        k(   16) = (   0.3750000   0.0000000   0.0000000), wk =   0.0625000
        k(   17) = (   0.3750000   0.1319845   0.0000000), wk =   0.1250000
        k(   18) = (   0.3750000   0.2639689   0.0000000), wk =   0.1250000
        k(   19) = (   0.3750000   0.3959534   0.0000000), wk =   0.1250000
        k(   20) = (   0.3750000  -0.5279378   0.0000000), wk =   0.0625000
        k(   21) = (  -0.5000000   0.0000000   0.0000000), wk =   0.0312500
        k(   22) = (  -0.5000000   0.1319845   0.0000000), wk =   0.0625000
        k(   23) = (  -0.5000000   0.2639689   0.0000000), wk =   0.0625000
        k(   24) = (  -0.5000000   0.3959534   0.0000000), wk =   0.0625000
        k(   25) = (  -0.5000000  -0.5279378   0.0000000), wk =   0.0312500

     Initial potential from superposition of free atoms

     starting charge  226.84630, renormalised to  227.00000

     negative rho (up, down):  3.451E-03 0.000E+00
     Starting wfcs are  195 randomized atomic wfcs

     Self-consistent Calculation

     iteration #  1     ecut=    60.00 Ry     beta= 0.50
     Davidson diagonalization with overlap
     ethr =  1.00E-02,  avg # of iterations =  2.0

     negative rho (up, down):  4.761E-04 0.000E+00

     total energy              =   -1840.84610281 Ry
     Harris-Foulkes estimate   =   -1845.32113890 Ry
     estimated scf accuracy    <      18.86405335 Ry

[...]

     iteration # 14     ecut=    60.00 Ry     beta= 0.50
     Davidson diagonalization with overlap
     c_bands:  1 eigenvalues not converged
     ethr =  1.42E-05,  avg # of iterations =  2.8

[...]

     iteration # 23     ecut=    60.00 Ry     beta= 0.50
     Davidson diagonalization with overlap
     c_bands:  1 eigenvalues not converged
     ethr =  2.66E-08,  avg # of iterations =  4.5

[...]

     total energy              =   -1842.83698949 Ry
     Harris-Foulkes estimate   =   -1842.83698948 Ry
     estimated scf accuracy    <       0.00000001 Ry

     iteration # 36     ecut=    60.00 Ry     beta= 0.50
     Davidson diagonalization with overlap
     ethr =  4.83E-12,  avg # of iterations =  1.0

[...]

     End of self-consistent calculation

          k = 0.0000 0.0000 0.0000 ( 34429 PWs)   bands (ev):

   -35.6472 -35.6267 -22.8199 -22.8174 -22.6210 -22.5107 -17.1494 -17.1314
   -16.6990 -16.6876 -16.6794 -16.6662 -15.3516 -15.3388 -14.7043 -14.6988
   -14.6704 -14.6256 -14.6111 -14.2083 -14.2060 -14.0241 -14.0143 -13.8913
   -13.8648 -13.8508 -12.9207  -7.9518  -7.9489  -7.9134  -7.9112  -7.7742
    -7.7254  -7.7206  -7.7182  -7.6784  -7.5076  -7.5034  -7.3151  -2.3556
    -2.3546  -1.9586  -1.8673  -1.8633  -1.8436  -1.8345  -1.7153  -1.7011
    -1.6005  -1.5792  -1.5442  -1.5328  -1.2466  -1.2436  -0.9034  -0.5154
    -0.4849  -0.4832  -0.4037  -0.4021  -0.3630  -0.3463  -0.3263  -0.3212
    -0.3093  -0.3022  -0.2912  -0.2895  -0.2743  -0.2729  -0.2130  -0.1717
    -0.0644  -0.0628   0.0648   0.0673   0.0706   0.0730   0.0753   0.0802
     0.0841   0.0934   0.1403   0.1429   0.2070   0.2336   0.2702   0.2950
     0.5825   0.7689   0.7699   0.8549   0.8570   0.9055   0.9445   1.1412
     1.1464   1.3073   1.3200   1.3378   1.3494   1.4517   1.4675   1.4811
     1.4980   1.4988   1.5128   1.7747   1.7909   1.8763   2.0061   2.0126
     2.1005   2.2033   2.2159   2.3077   2.3369   2.5064   2.5180   5.1793
     5.1924   5.4528   6.1466   6.2939   6.7257   6.7351   6.9835   7.0888
     7.9372   8.0510   8.2007   8.2560   8.5013   8.5847   8.6516   9.0011
     9.1640

[...]

          k = 0.3750-0.5279 0.0000 ( 34392 PWs)   bands (ev):

[...]

          k =-0.5000 0.0000 0.0000 ( 34370 PWs)   bands (ev):

[...]

          k =-0.5000-0.5279 0.0000 ( 34420 PWs)   bands (ev):

   -35.6275 -35.6071 -22.5470 -22.5445 -22.3564 -22.2651 -17.0737 -17.0644
   -17.0564 -17.0432 -16.6867 -16.6675 -14.6389 -14.6385 -14.4846 -14.4794
   -14.3122 -14.2948 -14.1977 -14.1643 -14.1491 -14.1003 -14.0819 -14.0788
   -13.9944 -13.9627 -13.0419  -8.7799  -8.7773  -8.5907  -8.5117  -8.5095
    -8.3573  -8.2574  -8.1114  -8.0457  -8.0427  -7.8595  -7.7428  -4.1333
    -4.1146  -3.8277  -3.7744  -3.4489  -3.1879  -3.1852  -2.7637  -2.7611
    -2.6383  -2.6184  -2.3266  -2.3127  -2.3115  -2.3027  -2.0033  -1.9662
    -1.9283  -1.4475  -1.3810  -1.3629  -1.2083  -1.1986  -1.1138  -1.0628
    -1.0520  -1.0091  -1.0068  -0.9730  -0.9568  -0.8895  -0.8434  -0.4925
    -0.3558  -0.3538  -0.2265   0.1954   0.3116   0.4432   0.7942   0.8841
     1.0965   1.3103   1.3162   1.3194   1.3227   1.3578   1.3665   1.4397
     1.5832   1.5879   1.5917   1.6095   1.6320   1.6555   1.8245   1.8450
     1.8662   1.8744   1.9997   2.0110   2.0354   2.0528   2.1444   2.1563
     2.2415   2.3119   2.3149   2.3346   2.3801   2.3881   2.4570   2.5037
     2.5317   2.5587   3.3410   4.6561   4.6639   4.7220   4.7240   5.7504
     5.9450   5.9468   7.0229   7.0835   8.5383   8.7684   9.0030   9.0113
     9.0167   9.0684   9.4349   9.4966   9.5095   9.6656   9.8215   9.9311
     9.9906

     the Fermi energy is     2.5409 ev

!    total energy              =   -1842.83698949 Ry
     Harris-Foulkes estimate   =   -1842.83698949 Ry
     estimated scf accuracy    <          3.7E-09 Ry

     The total energy is the sum of the following terms:

     one-electron contribution =  -29363.81954260 Ry
     hartree contribution      =   14834.96328413 Ry
     xc contribution           =    -621.64924394 Ry
     ewald contribution        =   13307.67876796 Ry
     smearing contrib. (-TS)   =      -0.01025504 Ry

     convergence has been achieved in  36 iterations

     negative rho (up, down):  1.552E-03 0.000E+00

     Forces acting on atoms (cartesian axes, Ry/au):

     atom    1 type  4   force =     0.00000000    0.00000000   -0.00022872
     atom    2 type  3   force =     0.00000000    0.00000000    0.00050823
     atom    3 type  4   force =     0.00000000    0.00000000   -0.00077833
     atom    4 type  1   force =     0.00000000    0.00000000   -0.00042154
     atom    5 type  3   force =     0.00000000    0.00000000    0.00054119
     atom    6 type  4   force =     0.00000000    0.00000000    0.00063872
     atom    7 type  4   force =     0.00000000    0.00000000    0.00092422
     atom    8 type  2   force =     0.00000000    0.00000000   -0.00212306
     atom    9 type  4   force =     0.00000000    0.00000000    0.00248903
     atom   10 type  4   force =     0.00000000    0.00000000    0.00230599
     atom   11 type  3   force =     0.00000000    0.00000000    0.00158752
     atom   12 type  1   force =     0.00000000    0.00000000    0.00768247
     atom   13 type  4   force =     0.00000000    0.00000000   -0.01132094
     atom   14 type  4   force =     0.00000000    0.00000000    0.02550826
     atom   15 type  3   force =     0.00000000    0.00000000    0.01584761
     atom   16 type  4   force =     0.00000000    0.00000000   -0.01210819
     atom   17 type  1   force =     0.00000000    0.00000000   -0.01702459
     atom   18 type  3   force =     0.00000000    0.00000000   -0.01578339
     atom   19 type  4   force =     0.00000000    0.00000000    0.00126251
     atom   20 type  4   force =     0.00000000    0.00000000   -0.00025507
     atom   21 type  2   force =     0.00000000    0.00000000    0.00171427
     atom   22 type  4   force =     0.00000000    0.00000000   -0.00106049
     atom   23 type  4   force =     0.00000000    0.00000000   -0.00017099
     atom   24 type  3   force =     0.00000000    0.00000000   -0.00047920
     atom   25 type  1   force =     0.00000000    0.00000000    0.00038060
     atom   26 type  4   force =     0.00000000    0.00000000    0.00051078
     atom   27 type  3   force =     0.00000000    0.00000000   -0.00021101
     atom   28 type  4   force =     0.00000000    0.00000000    0.00006412

     Total force =     0.042452     Total SCF correction =     0.000314

     Computing stress (Cartesian axis) and pressure

     negative rho (up, down):  1.552E-03 0.000E+00
          total   stress  (Ry/bohr**3)                   (kbar)     P=       -6.27
   0.00000386   0.00000000   0.00000000            0.57        0.00        0.00
   0.00000000  -0.00005894   0.00000000            0.00       -8.67        0.00
   0.00000000   0.00000000  -0.00007285            0.00        0.00      -10.72

     General routines

     Parallel routines

   This run was terminated on:  22:50:27  21May2021

   JOB DONE.
[1621651827.394063] [holy7c12311:164244:0]          mpool.c:43   UCX  WARN  object 0x29b1780 was not returned to mpool ucp_requests
[1621651827.394077] [holy7c12311:164244:0]          mpool.c:43   UCX  WARN  object 0x29b2040 was not returned to mpool ucp_requests
[1621651827.394196] [holy7c12404:81842:0]          mpool.c:43   UCX  WARN  object 0x2a7ec40 was not returned to mpool ucp_requests
[1621651827.394461] [holy7c12407:186702:0]          mpool.c:43   UCX  WARN  object 0x298a940 was not returned to mpool ucp_requests
[1621651827.394476] [holy7c12407:186702:0]          mpool.c:43   UCX  WARN  object 0x298b040 was not returned to mpool ucp_requests
[1621651827.394530] [holy7c10608:189335:0]          mpool.c:43   UCX  WARN  object 0x2d17c80 was not returned to mpool ucp_requests
[1621651827.405433] [holy7c12301:16523:0]          mpool.c:43   UCX  WARN  object 0x2952b00 was not returned to mpool ucp_requests
[1621651827.405465] [holy7c12301:16523:0]          mpool.c:43   UCX  WARN  object 0x2953040 was not returned to mpool ucp_requests
[1621651827.402221] [holy7c12310:273822:0]          mpool.c:43   UCX  WARN  object 0x44bf9c0 was not returned to mpool ucp_requests
[1621651827.415036] [holy7c12102:21099:0]          mpool.c:43   UCX  WARN  object 0x2f8a4c0 was not returned to mpool ucp_requests