     Program PWSCF v.6.5 starts on 21May2021 at 22:39:20

     R & G space division:  proc/nbgrp/npool/nimage =      20
     Reading input from CBCO_CuO_cleave_1.25_sep.pwi
Warning: card &IONS ignored
Warning: card     ION_DYNAMICS = 'BFGS' ignored
Warning: card / ignored
Warning: card &CELL ignored
Warning: card     CELL_DYNAMICS = 'BFGS' ignored
Warning: card     PRESS_CONV_THR = 5 ignored
Warning: card / ignored

     Current dimensions of program PWSCF are:
     Max number of different atomic species (ntypx) = 10
     Max number of k-points (npk) =  40000
     Max angular momentum in pseudopotentials (lmaxx) =  3

     Message from routine setup:
     using ibrav=0 with symmetry is DISCOURAGED, use correct ibrav instead

     bravais-lattice index     =            0
     lattice parameter (alat)  =       7.4270  a.u.
     unit-cell volume          =    4425.7129 (a.u.)^3
     number of atoms/cell      =           28
     number of atomic types    =            4
     number of electrons       =       227.00
     number of Kohn-Sham states=          137
     kinetic-energy cutoff     =      60.0000  Ry
     charge density cutoff     =     720.0000  Ry
     convergence threshold     =      1.0E-08
     mixing beta               =       0.5000
     number of iterations used =           10  local-TF  mixing
     Exchange-correlation= SLA PW PBE PBE
                           (   1   4   3   4   0   0   0)

     celldm(1)=   7.427040  celldm(2)=   0.000000  celldm(3)=   0.000000
     celldm(4)=   0.000000  celldm(5)=   0.000000  celldm(6)=   0.000000

     crystal axes: (cart. coord. in units of alat)
               a(1) = (   1.000000   0.000000   0.000000 )
               a(2) = (   0.000000   0.947081   0.000000 )
               a(3) = (   0.000000   0.000000  11.406405 )

     reciprocal axes: (cart. coord. in units 2 pi/alat)
               b(1) = (  1.000000  0.000000  0.000000 )
               b(2) = (  0.000000  1.055876  0.000000 )
               b(3) = (  0.000000  0.000000  0.087670 )

     PseudoPot. # 1 for Ba read from file:
     ./pseudo/Ba.pbe-nsp-van.UPF
     MD5 check sum: 2b9c31dd849566dd297d80989662b7a0
     Pseudo is Ultrasoft + core correction, Zval = 10.0
     Generated by new atomic code, or converted to UPF format
     Using radial grid of  907 points,  6 beta functions with:
                l(1) =   0
                l(2) =   0
                l(3) =   1
                l(4) =   1
                l(5) =   2
                l(6) =   2
     Q(r) pseudized with  6 coefficients,  rinner =    1.200   1.200   1.200
                                                       1.200   1.200

     PseudoPot. # 2 for Ca read from file:
     ./pseudo/Ca.pbe-nsp-van.UPF
     MD5 check sum: 6471098428ff4fa451746d08035ff179
     Pseudo is Ultrasoft + core correction, Zval = 10.0
     Generated by new atomic code, or converted to UPF format
     Using radial grid of  845 points,  6 beta functions with:
                l(1) =   0
                l(2) =   0
                l(3) =   1
                l(4) =   1
                l(5) =   2
                l(6) =   2
     Q(r) pseudized with  6 coefficients,  rinner =    1.200   1.200   1.200
                                                       1.200   1.200

     PseudoPot. # 3 for Cu read from file:
     ./pseudo/Cu.pbe-n-van_ak.UPF
     MD5 check sum: 34e3282627ffb533726feb647e090d62
     Pseudo is Ultrasoft + core correction, Zval = 11.0
     Generated by new atomic code, or converted to UPF format
     Using radial grid of  867 points,  6 beta functions with:
                l(1) =   0
                l(2) =   0
                l(3) =   1
                l(4) =   1
                l(5) =   2
                l(6) =   2
     Q(r) pseudized with  8 coefficients,  rinner =    1.400   1.400   1.400
                                                       1.400   1.400

     PseudoPot. # 4 for O  read from file:
     ./pseudo/O.pbe-van_ak.UPF
     MD5 check sum: 783ce7fe4c79b6a4916957118fed0856
     Pseudo is Ultrasoft, Zval =  6.0
     Generated by new atomic code, or converted to UPF format
     Using radial grid of  737 points,  4 beta functions with:
                l(1) =   0
                l(2) =   0
                l(3) =   1
                l(4) =   1
     Q(r) pseudized with  8 coefficients,  rinner =    0.800   0.800   0.800

     atomic species   valence    mass     pseudopotential
        Ba            10.00   137.32700     Ba( 1.00)
        Ca            10.00    40.07800     Ca( 1.00)
        Cu            11.00    63.54600     Cu( 1.00)
        O              6.00    15.99900     O ( 1.00)

      4 Sym. Ops. (no inversion) found

   Cartesian axes

     site n.     atom                  positions (alat units)
         1           O   tau(   1) = (   0.0000000   0.4735409  -0.0469745  )
         2           Cu  tau(   2) = (   0.0000000   0.0000000   0.0264565  )
         3           O   tau(   3) = (   0.0000000   0.0000000   0.5030914  )
         4           Ba  tau(   4) = (   0.5000000   0.4735409   0.5690292  )
         5           Cu  tau(   5) = (   0.0000000   0.0000000   1.0374254  )
         6           O   tau(   6) = (   0.5000000   0.0000000   1.0768099  )
         7           O   tau(   7) = (   0.0000000   0.4735409   1.1116985  )
         8           Ca  tau(   8) = (   0.5000000   0.4735409   1.4976260  )
         9           O   tau(   9) = (   0.0000000   0.4735409   1.8667529  )
        10           O   tau(  10) = (   0.5000000   0.0000000   1.9044124  )
        11           Cu  tau(  11) = (   0.0000000   0.0000000   1.9512546  )
        12           Ba  tau(  12) = (   0.5000000   0.4735409   2.4295764  )
        13           O   tau(  13) = (   0.0000000   0.0000000   2.5115362  )
        14           O   tau(  14) = (   0.0000000   0.4735409   2.9918528  )
        15           Cu  tau(  15) = (   0.0000000   0.0000000   2.9919088  )
        16           O   tau(  16) = (   0.0000000   0.0000000   3.7903170  )
        17           Ba  tau(  17) = (   0.5000000   0.4735409   3.8722691  )
        18           Cu  tau(  18) = (   0.0000000   0.0000000   4.3505731  )
        19           O   tau(  19) = (   0.5000000   0.0000000   4.3974153  )
        20           O   tau(  20) = (   0.0000000   0.4735409   4.4350697  )
        21           Ca  tau(  21) = (   0.5000000   0.4735409   4.8042067  )
        22           O   tau(  22) = (   0.0000000   0.4735409   5.1901317  )
        23           O   tau(  23) = (   0.5000000   0.0000000   5.2250203  )
        24           Cu  tau(  24) = (   0.0000000   0.0000000   5.2644074  )
        25           Ba  tau(  25) = (   0.5000000   0.4735409   5.7328010  )
        26           O   tau(  26) = (   0.0000000   0.0000000   5.7987286  )
        27           Cu  tau(  27) = (   0.0000000   0.0000000   6.2753686  )
        28           O   tau(  28) = (   0.0000000   0.4735409   6.3487869  )

     number of k points=    25  Gaussian smearing, width (Ry)=  0.0100
                       cart. coord. in units 2pi/alat
        k(    1) = (   0.0000000   0.0000000   0.0000000), wk =   0.0312500
        k(    2) = (   0.0000000   0.1319845   0.0000000), wk =   0.0625000
        k(    3) = (   0.0000000   0.2639689   0.0000000), wk =   0.0625000
        k(    4) = (   0.0000000   0.3959534   0.0000000), wk =   0.0625000
        k(    5) = (   0.0000000  -0.5279378   0.0000000), wk =   0.0312500
        k(    6) = (   0.1250000   0.0000000   0.0000000), wk =   0.0625000
        k(    7) = (   0.1250000   0.1319845   0.0000000), wk =   0.1250000
        k(    8) = (   0.1250000   0.2639689   0.0000000), wk =   0.1250000
        k(    9) = (   0.1250000   0.3959534   0.0000000), wk =   0.1250000
        k(   10) = (   0.1250000  -0.5279378   0.0000000), wk =   0.0625000
        k(   11) = (   0.2500000   0.0000000   0.0000000), wk =   0.0625000
        k(   12) = (   0.2500000   0.1319845   0.0000000), wk =   0.1250000
        k(   13) = (   0.2500000   0.2639689   0.0000000), wk =   0.1250000
        k(   14) = (   0.2500000   0.3959534   0.0000000), wk =   0.1250000
        k(   15) = (   0.2500000  -0.5279378   0.0000000), wk =   0.0625000
        k(   16) = (   0.3750000   0.0000000   0.0000000), wk =   0.0625000
        k(   17) = (   0.3750000   0.1319845   0.0000000), wk =   0.1250000
        k(   18) = (   0.3750000   0.2639689   0.0000000), wk =   0.1250000
        k(   19) = (   0.3750000   0.3959534   0.0000000), wk =   0.1250000
        k(   20) = (   0.3750000  -0.5279378   0.0000000), wk =   0.0625000
        k(   21) = (  -0.5000000   0.0000000   0.0000000), wk =   0.0312500
        k(   22) = (  -0.5000000   0.1319845   0.0000000), wk =   0.0625000
        k(   23) = (  -0.5000000   0.2639689   0.0000000), wk =   0.0625000
        k(   24) = (  -0.5000000   0.3959534   0.0000000), wk =   0.0625000
        k(   25) = (  -0.5000000  -0.5279378   0.0000000), wk =   0.0312500

     Initial potential from superposition of free atoms

     starting charge  226.84630, renormalised to  227.00000

     negative rho (up, down):  3.389E-03 0.000E+00
     Starting wfcs are  195 randomized atomic wfcs

     Self-consistent Calculation

     iteration #  1     ecut=    60.00 Ry     beta= 0.50
     Davidson diagonalization with overlap
     ethr =  1.00E-02,  avg # of iterations =  2.0

     negative rho (up, down):  4.781E-04 0.000E+00

     total energy              =   -1840.78329296 Ry
     Harris-Foulkes estimate   =   -1845.32732975 Ry
     estimated scf accuracy    <      18.66102309 Ry

[...]

     iteration # 15     ecut=    60.00 Ry     beta= 0.50
     Davidson diagonalization with overlap
     c_bands:  1 eigenvalues not converged
     ethr =  1.64E-05,  avg # of iterations =  6.5

[...]

     iteration # 23     ecut=    60.00 Ry     beta= 0.50
     Davidson diagonalization with overlap
     c_bands:  1 eigenvalues not converged
     ethr =  2.55E-08,  avg # of iterations =  6.0

[...]

     total energy              =   -1842.80768482 Ry
     Harris-Foulkes estimate   =   -1842.80768484 Ry
     estimated scf accuracy    <       0.00000001 Ry

     iteration # 34     ecut=    60.00 Ry     beta= 0.50
     Davidson diagonalization with overlap
     ethr =  6.13E-12,  avg # of iterations =  1.8

[...]

     End of self-consistent calculation

          k = 0.0000 0.0000 0.0000 ( 34843 PWs)   bands (ev):

   -35.7391 -35.7147 -22.9024 -22.8992 -22.7336 -22.6335 -17.2405 -17.2200
   -16.7909 -16.7800 -16.7677 -16.7540 -15.4398 -15.4271 -14.7875 -14.7815
   -14.7608 -14.7145 -14.7001 -14.2899 -14.2872 -14.1114 -14.0991 -13.9938
   -13.9682 -13.9544 -12.8668  -8.0346  -8.0309  -7.9958  -7.9930  -7.8779
    -7.8536  -7.8031  -7.8000  -7.7936  -7.6214  -7.6155  -7.4206  -2.4370
    -2.4361  -2.0779  -1.9565  -1.9532  -1.9340  -1.9287  -1.8041  -1.7870
    -1.6908  -1.6688  -1.6365  -1.6243  -1.3279  -1.3240  -0.9796  -0.5665
    -0.5643  -0.5022  -0.4866  -0.4830  -0.4530  -0.4251  -0.4123  -0.3949
    -0.3928  -0.3779  -0.3729  -0.3707  -0.3578  -0.3281  -0.2972  -0.1917
    -0.1469  -0.1442  -0.0357  -0.0212  -0.0172  -0.0120  -0.0082  -0.0052
     0.0320   0.0384   0.0575   0.0655   0.1052   0.1340   0.1798   0.2189
     0.4216   0.6744   0.7347   0.7731   0.7759   0.8190   0.8583   1.0550
     1.0603   1.2189   1.2382   1.2512   1.2662   1.3553   1.3756   1.3937
     1.4064   1.4204   1.4277   1.6869   1.7094   1.7718   1.9208   1.9314
     1.9879   2.1078   2.2023   2.2439   2.3149   2.4245   2.4379   5.0641
     5.1106   5.1730   6.0450   6.1555   6.6394   6.6502   6.8129   6.9649
     7.8583   7.9475   8.1041   8.1380   8.4206   8.4914   8.5727   8.7434
     9.0321

[...]

          k = 0.3750-0.5279 0.0000 ( 34780 PWs)   bands (ev):

[...]

          k =-0.5000 0.0000 0.0000 ( 34714 PWs)   bands (ev):

[...]

          k =-0.5000-0.5279 0.0000 ( 34796 PWs)   bands (ev):

   -35.7195 -35.6950 -22.6295 -22.6263 -22.4687 -22.3908 -17.1652 -17.1568
   -17.1455 -17.1312 -16.7783 -16.7558 -14.7203 -14.7200 -14.5711 -14.5682
   -14.4009 -14.3787 -14.3497 -14.2522 -14.2422 -14.1754 -14.1637 -14.1595
   -14.0868 -14.0495 -12.9824  -8.8624  -8.8591  -8.7048  -8.5941  -8.5913
    -8.4538  -8.3685  -8.2262  -8.1285  -8.1246  -7.9604  -7.8739  -4.2210
    -4.1990  -3.9193  -3.8636  -3.5105  -3.2693  -3.2657  -2.8471  -2.8423
    -2.7301  -2.7121  -2.4126  -2.3943  -2.3930  -2.3905  -2.0886  -2.0577
    -2.0432  -1.5140  -1.4636  -1.4390  -1.2926  -1.2834  -1.1630  -1.1508
    -1.1356  -1.0905  -1.0876  -1.0683  -1.0593  -0.9903  -0.9379  -0.4663
    -0.4370  -0.4346  -0.3011   0.1054   0.2416   0.3581   0.7190   0.8217
     1.0130   1.2268   1.2325   1.2338   1.2344   1.2687   1.2776   1.3515
     1.4957   1.4973   1.5006   1.5178   1.5422   1.7364   1.7622   1.7757
     1.7824   1.7927   1.8881   1.9058   1.9554   1.9600   2.0567   2.0683
     2.2300   2.2336   2.2468   2.2741   2.2949   2.3121   2.4178   2.4494
     2.4584   2.4601   2.9939   4.5666   4.5710   4.6356   4.6365   5.7941
     5.8636   5.8655   6.9296   6.9930   8.3325   8.5089   8.8997   8.9183
     8.9313   8.9779   9.2861   9.3360   9.3973   9.4903   9.7260   9.8186
     9.9038

     the Fermi energy is     2.4592 ev

!    total energy              =   -1842.80768481 Ry
     Harris-Foulkes estimate   =   -1842.80768482 Ry
     estimated scf accuracy    <          8.6E-09 Ry

     The total energy is the sum of the following terms:

     one-electron contribution =  -28374.21367034 Ry
     hartree contribution      =   14339.45006373 Ry
     xc contribution           =    -621.62292951 Ry
     ewald contribution        =   12813.59008863 Ry
     smearing contrib. (-TS)   =      -0.01123733 Ry

     convergence has been achieved in  34 iterations

     negative rho (up, down):  1.530E-03 0.000E+00

     Forces acting on atoms (cartesian axes, Ry/au):

     atom    1 type  4   force =     0.00000000    0.00000000   -0.00030866
     atom    2 type  3   force =     0.00000000    0.00000000    0.00039225
     atom    3 type  4   force =     0.00000000    0.00000000   -0.00076034
     atom    4 type  1   force =     0.00000000    0.00000000   -0.00048839
     atom    5 type  3   force =     0.00000000    0.00000000    0.00045009
     atom    6 type  4   force =     0.00000000    0.00000000    0.00081795
     atom    7 type  4   force =     0.00000000    0.00000000    0.00107510
     atom    8 type  2   force =     0.00000000    0.00000000   -0.00253915
     atom    9 type  4   force =     0.00000000    0.00000000    0.00368717
     atom   10 type  4   force =     0.00000000    0.00000000    0.00332132
     atom   11 type  3   force =     0.00000000    0.00000000    0.00155201
     atom   12 type  1   force =     0.00000000    0.00000000    0.00884715
     atom   13 type  4   force =     0.00000000    0.00000000   -0.01650462
     atom   14 type  4   force =     0.00000000    0.00000000    0.03387633
     atom   15 type  3   force =     0.00000000    0.00000000   -0.01275700
     atom   16 type  4   force =     0.00000000    0.00000000    0.01394116
     atom   17 type  1   force =     0.00000000    0.00000000   -0.01520543
     atom   18 type  3   force =     0.00000000    0.00000000   -0.01991274
     atom   19 type  4   force =     0.00000000    0.00000000    0.00046251
     atom   20 type  4   force =     0.00000000    0.00000000   -0.00078129
     atom   21 type  2   force =     0.00000000    0.00000000    0.00215286
     atom   22 type  4   force =     0.00000000    0.00000000   -0.00142035
     atom   23 type  4   force =     0.00000000    0.00000000   -0.00019421
     atom   24 type  3   force =     0.00000000    0.00000000   -0.00036252
     atom   25 type  1   force =     0.00000000    0.00000000    0.00038289
     atom   26 type  4   force =     0.00000000    0.00000000    0.00036595
     atom   27 type  3   force =     0.00000000    0.00000000   -0.00007798
     atom   28 type  4   force =     0.00000000    0.00000000   -0.00001209

     Total force =     0.050275     Total SCF correction =     0.000401

     Computing stress (Cartesian axis) and pressure

     negative rho (up, down):  1.530E-03 0.000E+00
          total   stress  (Ry/bohr**3)                   (kbar)     P=       -6.06
   0.00000677   0.00000000   0.00000000            1.00        0.00        0.00
   0.00000000  -0.00007426   0.00000000            0.00      -10.92        0.00
   0.00000000   0.00000000  -0.00005610            0.00        0.00       -8.25

     General routines

     Parallel routines

   This run was terminated on:  22:49:25  21May2021

   JOB DONE.
[1621651765.564827] [holy7c04201:101406:0]          mpool.c:43   UCX  WARN  object 0x3516c00 was not returned to mpool ucp_requests
[1621651765.565529] [holy7c04205:155674:0]          mpool.c:43   UCX  WARN  object 0x3d95300 was not returned to mpool ucp_requests
[1621651765.565552] [holy7c04205:155674:0]          mpool.c:43   UCX  WARN  object 0x3d95840 was not returned to mpool ucp_requests
[1621651765.564909] [holy7c04207:210915:0]          mpool.c:43   UCX  WARN  object 0x35ca000 was not returned to mpool ucp_requests
[1621651765.564928] [holy7c04207:210915:0]          mpool.c:43   UCX  WARN  object 0x35ca1c0 was not returned to mpool ucp_requests
[1621651765.561804] [holy7c04206:232310:0]          mpool.c:43   UCX  WARN  object 0x3f0ab80 was not returned to mpool ucp_requests
[1621651765.563906] [holy7c04104:162743:0]          mpool.c:43   UCX  WARN  object 0x3d1db40 was not returned to mpool ucp_requests
[1621651765.565820] [holy7c04201:101405:0]          mpool.c:43   UCX  WARN  object 0x3019e40 was not returned to mpool ucp_requests
[1621651765.567623] [holy7c04207:210916:0]          mpool.c:43   UCX  WARN  object 0x2fd0880 was not returned to mpool ucp_requests
[1621651765.563871] [holy7c04209:128494:0]          mpool.c:43   UCX  WARN  object 0x3f7b600 was not returned to mpool ucp_requests