     Program PWSCF v.6.5 starts on 21May2021 at 21:20:19

     R & G space division:  proc/nbgrp/npool/nimage =      20
     Reading input from CBCO_CuO_cleave_1.0_sep.pwi
Warning: card &IONS ignored
Warning: card     ION_DYNAMICS = 'BFGS' ignored
Warning: card / ignored
Warning: card &CELL ignored
Warning: card     CELL_DYNAMICS = 'BFGS' ignored
Warning: card     PRESS_CONV_THR = 5 ignored
Warning: card / ignored

     Current dimensions of program PWSCF are:
     Max number of different atomic species (ntypx) = 10
     Max number of k-points (npk) =  40000
     Max angular momentum in pseudopotentials (lmaxx) =  3

     Message from routine setup:
     using ibrav=0 with symmetry is DISCOURAGED, use correct ibrav instead

     bravais-lattice index     =            0
     lattice parameter (alat)  =       7.4270  a.u.
     unit-cell volume          =    4401.0322 (a.u.)^3
     number of atoms/cell      =           28
     number of atomic types    =            4
     number of electrons       =       227.00
     number of Kohn-Sham states=          137
     kinetic-energy cutoff     =      60.0000  Ry
     charge density cutoff     =     720.0000  Ry
     convergence threshold     =      1.0E-08
     mixing beta               =       0.5000
     number of iterations used =           10  local-TF  mixing
     Exchange-correlation= SLA PW PBE PBE
                           (   1   4   3   4   0   0   0)

     celldm(1)=   7.427040  celldm(2)=   0.000000  celldm(3)=   0.000000
     celldm(4)=   0.000000  celldm(5)=   0.000000  celldm(6)=   0.000000

     crystal axes: (cart. coord. in units of alat)
               a(1) = (   1.000000   0.000000   0.000000 )
               a(2) = (   0.000000   0.947081   0.000000 )
               a(3) = (   0.000000   0.000000  11.342795 )

     reciprocal axes: (cart. coord. in units 2 pi/alat)
               b(1) = (  1.000000  0.000000  0.000000 )
               b(2) = (  0.000000  1.055876  0.000000 )
               b(3) = (  0.000000  0.000000  0.088162 )

     PseudoPot. # 1 for Ba read from file:
     ./pseudo/Ba.pbe-nsp-van.UPF
     MD5 check sum: 2b9c31dd849566dd297d80989662b7a0
     Pseudo is Ultrasoft + core correction, Zval = 10.0
     Generated by new atomic code, or converted to UPF format
     Using radial grid of  907 points,  6 beta functions with:
                l(1) =   0
                l(2) =   0
                l(3) =   1
                l(4) =   1
                l(5) =   2
                l(6) =   2
     Q(r) pseudized with  6 coefficients,  rinner =    1.200   1.200   1.200
                                                       1.200   1.200

     PseudoPot. # 2 for Ca read from file:
     ./pseudo/Ca.pbe-nsp-van.UPF
     MD5 check sum: 6471098428ff4fa451746d08035ff179
     Pseudo is Ultrasoft + core correction, Zval = 10.0
     Generated by new atomic code, or converted to UPF format
     Using radial grid of  845 points,  6 beta functions with:
                l(1) =   0
                l(2) =   0
                l(3) =   1
                l(4) =   1
                l(5) =   2
                l(6) =   2
     Q(r) pseudized with  6 coefficients,  rinner =    1.200   1.200   1.200
                                                       1.200   1.200

     PseudoPot. # 3 for Cu read from file:
     ./pseudo/Cu.pbe-n-van_ak.UPF
     MD5 check sum: 34e3282627ffb533726feb647e090d62
     Pseudo is Ultrasoft + core correction, Zval = 11.0
     Generated by new atomic code, or converted to UPF format
     Using radial grid of  867 points,  6 beta functions with:
                l(1) =   0
                l(2) =   0
                l(3) =   1
                l(4) =   1
                l(5) =   2
                l(6) =   2
     Q(r) pseudized with  8 coefficients,  rinner =    1.400   1.400   1.400
                                                       1.400   1.400

     PseudoPot. # 4 for O  read from file:
     ./pseudo/O.pbe-van_ak.UPF
     MD5 check sum: 783ce7fe4c79b6a4916957118fed0856
     Pseudo is Ultrasoft, Zval =  6.0
     Generated by new atomic code, or converted to UPF format
     Using radial grid of  737 points,  4 beta functions with:
                l(1) =   0
                l(2) =   0
                l(3) =   1
                l(4) =   1
     Q(r) pseudized with  8 coefficients,  rinner =    0.800   0.800   0.800

     atomic species   valence    mass     pseudopotential
        Ba            10.00   137.32700     Ba( 1.00)
        Ca            10.00    40.07800     Ca( 1.00)
        Cu            11.00    63.54600     Cu( 1.00)
        O              6.00    15.99900     O ( 1.00)

      4 Sym. Ops. (no inversion) found

   Cartesian axes

     site n.     atom                  positions (alat units)
         1           O   tau(   1) = (   0.0000000   0.4735409  -0.0469745  )
         2           Cu  tau(   2) = (   0.0000000   0.0000000   0.0264565  )
         3           O   tau(   3) = (   0.0000000   0.0000000   0.5030914  )
         4           Ba  tau(   4) = (   0.5000000   0.4735409   0.5690292  )
         5           Cu  tau(   5) = (   0.0000000   0.0000000   1.0374254  )
         6           O   tau(   6) = (   0.5000000   0.0000000   1.0768099  )
         7           O   tau(   7) = (   0.0000000   0.4735409   1.1116985  )
         8           Ca  tau(   8) = (   0.5000000   0.4735409   1.4976260  )
         9           O   tau(   9) = (   0.0000000   0.4735409   1.8667529  )
        10           O   tau(  10) = (   0.5000000   0.0000000   1.9044124  )
        11           Cu  tau(  11) = (   0.0000000   0.0000000   1.9512546  )
        12           Ba  tau(  12) = (   0.5000000   0.4735409   2.4295764  )
        13           O   tau(  13) = (   0.0000000   0.0000000   2.5115362  )
        14           O   tau(  14) = (   0.0000000   0.4735409   2.9918528  )
        15           Cu  tau(  15) = (   0.0000000   0.0000000   2.9919088  )
        16           O   tau(  16) = (   0.0000000   0.0000000   3.7267073  )
        17           Ba  tau(  17) = (   0.5000000   0.4735409   3.8086594  )
        18           Cu  tau(  18) = (   0.0000000   0.0000000   4.2869634  )
        19           O   tau(  19) = (   0.5000000   0.0000000   4.3338056  )
        20           O   tau(  20) = (   0.0000000   0.4735409   4.3714600  )
        21           Ca  tau(  21) = (   0.5000000   0.4735409   4.7405971  )
        22           O   tau(  22) = (   0.0000000   0.4735409   5.1265220  )
        23           O   tau(  23) = (   0.5000000   0.0000000   5.1614106  )
        24           Cu  tau(  24) = (   0.0000000   0.0000000   5.2007978  )
        25           Ba  tau(  25) = (   0.5000000   0.4735409   5.6691914  )
        26           O   tau(  26) = (   0.0000000   0.0000000   5.7351190  )
        27           Cu  tau(  27) = (   0.0000000   0.0000000   6.2117589  )
        28           O   tau(  28) = (   0.0000000   0.4735409   6.2851772  )

     number of k points=    25  Gaussian smearing, width (Ry)=  0.0100
                       cart. coord. in units 2pi/alat
        k(    1) = (   0.0000000   0.0000000   0.0000000), wk =   0.0312500
        k(    2) = (   0.0000000   0.1319845   0.0000000), wk =   0.0625000
        k(    3) = (   0.0000000   0.2639689   0.0000000), wk =   0.0625000
        k(    4) = (   0.0000000   0.3959534   0.0000000), wk =   0.0625000
        k(    5) = (   0.0000000  -0.5279378   0.0000000), wk =   0.0312500
        k(    6) = (   0.1250000   0.0000000   0.0000000), wk =   0.0625000
        k(    7) = (   0.1250000   0.1319845   0.0000000), wk =   0.1250000
        k(    8) = (   0.1250000   0.2639689   0.0000000), wk =   0.1250000
        k(    9) = (   0.1250000   0.3959534   0.0000000), wk =   0.1250000
        k(   10) = (   0.1250000  -0.5279378   0.0000000), wk =   0.0625000
        k(   11) = (   0.2500000   0.0000000   0.0000000), wk =   0.0625000
        k(   12) = (   0.2500000   0.1319845   0.0000000), wk =   0.1250000
        k(   13) = (   0.2500000   0.2639689   0.0000000), wk =   0.1250000
        k(   14) = (   0.2500000   0.3959534   0.0000000), wk =   0.1250000
        k(   15) = (   0.2500000  -0.5279378   0.0000000), wk =   0.0625000
        k(   16) = (   0.3750000   0.0000000   0.0000000), wk =   0.0625000
        k(   17) = (   0.3750000   0.1319845   0.0000000), wk =   0.1250000
        k(   18) = (   0.3750000   0.2639689   0.0000000), wk =   0.1250000
        k(   19) = (   0.3750000   0.3959534   0.0000000), wk =   0.1250000
        k(   20) = (   0.3750000  -0.5279378   0.0000000), wk =   0.0625000
        k(   21) = (  -0.5000000   0.0000000   0.0000000), wk =   0.0312500
        k(   22) = (  -0.5000000   0.1319845   0.0000000), wk =   0.0625000
        k(   23) = (  -0.5000000   0.2639689   0.0000000), wk =   0.0625000
        k(   24) = (  -0.5000000   0.3959534   0.0000000), wk =   0.0625000
        k(   25) = (  -0.5000000  -0.5279378   0.0000000), wk =   0.0312500

     Initial potential from superposition of free atoms

     starting charge  226.84630, renormalised to  227.00000

     negative rho (up, down):  3.456E-03 0.000E+00
     Starting wfcs are  195 randomized atomic wfcs

     Self-consistent Calculation

     iteration #  1     ecut=    60.00 Ry     beta= 0.50
     Davidson diagonalization with overlap
     ethr =  1.00E-02,  avg # of iterations =  2.0

     negative rho (up, down):  4.992E-04 0.000E+00

     total energy              =   -1840.81496301 Ry
     Harris-Foulkes estimate   =   -1845.32197917 Ry
     estimated scf accuracy    <      18.67838136 Ry

[...]

     iteration # 19     ecut=    60.00 Ry     beta= 0.50
     Davidson diagonalization with overlap
     c_bands:  1 eigenvalues not converged
     ethr =  1.11E-06,  avg # of iterations =  7.6

[...]

     iteration # 24     ecut=    60.00 Ry     beta= 0.50
     Davidson diagonalization with overlap
     c_bands:  1 eigenvalues not converged
     c_bands:  1 eigenvalues not converged
     ethr =  3.22E-08,  avg # of iterations =  7.2

[...]

     total energy              =   -1842.81968415 Ry
     Harris-Foulkes estimate   =   -1842.81968415 Ry
     estimated scf accuracy    <       0.00000001 Ry

     iteration # 34     ecut=    60.00 Ry     beta= 0.50
     Davidson diagonalization with overlap
     ethr =  5.55E-12,  avg # of iterations =  1.6

[...]

     End of self-consistent calculation

          k = 0.0000 0.0000 0.0000 ( 34661 PWs)   bands (ev):

   -35.6951 -35.6721 -22.8622 -22.8593 -22.6807 -22.5703 -17.1969 -17.1771
   -16.7469 -16.7358 -16.7250 -16.7115 -15.3975 -15.3843 -14.7470 -14.7411
   -14.7146 -14.6719 -14.6571 -14.2502 -14.2476 -14.0693 -14.0579 -13.9432
   -13.9165 -13.9103 -12.8769  -7.9943  -7.9909  -7.9557  -7.9531  -7.8283
    -7.7881  -7.7629  -7.7601  -7.7396  -7.5680  -7.5568  -7.3645  -2.3973
    -2.3963  -2.0202  -1.9134  -1.9091  -1.8912  -1.8843  -1.7614  -1.7453
    -1.6476  -1.6256  -1.5924  -1.5803  -1.2882  -1.2847  -0.9400  -0.5267
    -0.5247  -0.4873  -0.4462  -0.4436  -0.4098  -0.3783  -0.3692  -0.3635
    -0.3493  -0.3403  -0.3331  -0.3311  -0.3138  -0.3026  -0.2564  -0.1865
    -0.1067  -0.1045   0.0119   0.0238   0.0260   0.0282   0.0314   0.0341
     0.0655   0.0664   0.0979   0.1028   0.1529   0.1813   0.2232   0.2558
     0.4942   0.7198   0.7595   0.8130   0.8155   0.8606   0.9001   1.0966
     1.1020   1.2616   1.2782   1.2932   1.3068   1.4012   1.4200   1.4360
     1.4507   1.4594   1.4695   1.7297   1.7492   1.8214   1.9624   1.9711
     2.0402   2.1525   2.2165   2.2782   2.3321   2.4644   2.4773   5.1286
     5.1505   5.2951   6.0943   6.2194   6.6815   6.6916   6.8906   7.0243
     7.8980   8.0006   8.1507   8.1987   8.4610   8.5373   8.6116   8.8867
     9.0918

[...]

          k = 0.3750-0.5279 0.0000 ( 34580 PWs)   bands (ev):

[...]

          k =-0.5000 0.0000 0.0000 ( 34514 PWs)   bands (ev):

[...]

          k =-0.5000-0.5279 0.0000 ( 34620 PWs)   bands (ev):

   -35.6755 -35.6524 -22.5893 -22.5865 -22.4159 -22.3264 -17.1214 -17.1126
   -17.1024 -17.0886 -16.7344 -16.7130 -14.6805 -14.6803 -14.5295 -14.5252
   -14.3581 -14.3379 -14.2810 -14.2100 -14.1973 -14.1358 -14.1238 -14.1201
   -14.0426 -14.0073 -12.9941  -8.8222  -8.8192  -8.6513  -8.5540  -8.5514
    -8.4013  -8.3156  -8.1671  -8.0882  -8.0847  -7.9117  -7.8067  -4.1788
    -4.1580  -3.8756  -3.8202  -3.4765  -3.2296  -3.2264  -2.8065  -2.8028
    -2.6865  -2.6673  -2.3710  -2.3545  -2.3532  -2.3479  -2.0472  -2.0135
    -1.9872  -1.4776  -1.4234  -1.4009  -1.2516  -1.2422  -1.1357  -1.1083
    -1.0950  -1.0508  -1.0481  -1.0230  -1.0111  -0.9429  -0.8929  -0.4640
    -0.3975  -0.3951  -0.2610   0.1490   0.2769   0.4001   0.7571   0.8545
     1.0540   1.2675   1.2743   1.2744   1.2767   1.3116   1.3205   1.3965
     1.5378   1.5405   1.5444   1.5618   1.5856   1.7263   1.7792   1.8028
     1.8233   1.8325   1.9412   1.9571   1.9946   2.0032   2.0989   2.1110
     2.2511   2.2699   2.2733   2.3087   2.3371   2.3463   2.4597   2.4613
     2.4939   2.5104   3.1421   4.6096   4.6155   4.6771   4.6784   5.7789
     5.9032   5.9052   6.9741   7.0360   8.4253   8.6281   8.9537   8.9594
     8.9724   9.0215   9.3589   9.4087   9.4497   9.5769   9.7713   9.8749
     9.9458

     the Fermi energy is     2.4990 ev

!    total energy              =   -1842.81968413 Ry
     Harris-Foulkes estimate   =   -1842.81968415 Ry
     estimated scf accuracy    <          8.4E-09 Ry

     The total energy is the sum of the following terms:

     one-electron contribution =  -28860.74328929 Ry
     hartree contribution      =   14583.06839697 Ry
     xc contribution           =    -621.63146681 Ry
     ewald contribution        =   13056.49752899 Ry
     smearing contrib. (-TS)   =      -0.01085398 Ry

     convergence has been achieved in  34 iterations

     negative rho (up, down):  1.543E-03 0.000E+00

     Forces acting on atoms (cartesian axes, Ry/au):

     atom    1 type  4   force =     0.00000000    0.00000000   -0.00026862
     atom    2 type  3   force =     0.00000000    0.00000000    0.00041057
     atom    3 type  4   force =     0.00000000    0.00000000   -0.00078280
     atom    4 type  1   force =     0.00000000    0.00000000   -0.00045202
     atom    5 type  3   force =     0.00000000    0.00000000    0.00041765
     atom    6 type  4   force =     0.00000000    0.00000000    0.00073674
     atom    7 type  4   force =     0.00000000    0.00000000    0.00102001
     atom    8 type  2   force =     0.00000000    0.00000000   -0.00235564
     atom    9 type  4   force =     0.00000000    0.00000000    0.00312398
     atom   10 type  4   force =     0.00000000    0.00000000    0.00286306
     atom   11 type  3   force =     0.00000000    0.00000000    0.00164334
     atom   12 type  1   force =     0.00000000    0.00000000    0.00843506
     atom   13 type  4   force =     0.00000000    0.00000000   -0.01437582
     atom   14 type  4   force =     0.00000000    0.00000000    0.03058213
     atom   15 type  3   force =     0.00000000    0.00000000   -0.00039958
     atom   16 type  4   force =     0.00000000    0.00000000    0.00314268
     atom   17 type  1   force =     0.00000000    0.00000000   -0.01664334
     atom   18 type  3   force =     0.00000000    0.00000000   -0.01842412
     atom   19 type  4   force =     0.00000000    0.00000000    0.00093800
     atom   20 type  4   force =     0.00000000    0.00000000   -0.00048145
     atom   21 type  2   force =     0.00000000    0.00000000    0.00197709
     atom   22 type  4   force =     0.00000000    0.00000000   -0.00126509
     atom   23 type  4   force =     0.00000000    0.00000000   -0.00018210
     atom   24 type  3   force =     0.00000000    0.00000000   -0.00043195
     atom   25 type  1   force =     0.00000000    0.00000000    0.00038804
     atom   26 type  4   force =     0.00000000    0.00000000    0.00043459
     atom   27 type  3   force =     0.00000000    0.00000000   -0.00008934
     atom   28 type  4   force =     0.00000000    0.00000000    0.00003894

     Total force =     0.043310     Total SCF correction =     0.000400

     Computing stress (Cartesian axis) and pressure

     negative rho (up, down):  1.543E-03 0.000E+00
          total   stress  (Ry/bohr**3)                   (kbar)     P=       -6.01
   0.00000687   0.00000000   0.00000000            1.01        0.00        0.00
   0.00000000  -0.00006644   0.00000000            0.00       -9.77        0.00
   0.00000000   0.00000000  -0.00006307            0.00        0.00       -9.28

     General routines

     Parallel routines

   This run was terminated on:  21:31:59  21May2021

   JOB DONE.
[1621647119.707135] [holy7c16109:249158:0]          mpool.c:43   UCX  WARN  object 0x308de80 was not returned to mpool ucp_requests
[1621647119.711071] [holy7c12501:122095:0]          mpool.c:43   UCX  WARN  object 0x297d940 was not returned to mpool ucp_requests
[1621647119.706782] [holy7c16203:181952:0]          mpool.c:43   UCX  WARN  object 0x3ae5a80 was not returned to mpool ucp_requests
[1621647119.726526] [holy7c06505:200530:0]          mpool.c:43   UCX  WARN  object 0x4512e40 was not returned to mpool ucp_requests
[1621647119.726546] [holy7c06505:200530:0]          mpool.c:43   UCX  WARN  object 0x4513380 was not returned to mpool ucp_requests
[1621647119.733263] [holy7c06505:200531:0]          mpool.c:43   UCX  WARN  object 0x4338900 was not returned to mpool ucp_requests
[1621647119.733381] [holy7c06505:200535:0]          mpool.c:43   UCX  WARN  object 0x323a600 was not returned to mpool ucp_requests
[1621647119.733404] [holy7c06505:200535:0]          mpool.c:43   UCX  WARN  object 0x323ab40 was not returned to mpool ucp_requests
[1621647119.724168] [holy7c16103:96848:0]          mpool.c:43   UCX  WARN  object 0x3c4eb80 was not returned to mpool ucp_requests
[1621647119.724181] [holy7c16103:96848:0]          mpool.c:43   UCX  WARN  object 0x3c4f280 was not returned to mpool ucp_requests