     Program PWSCF v.6.5 starts on 21May2021 at 11:31:35

     R & G space division:  proc/nbgrp/npool/nimage =      20
     Reading input from CBCO_BaO_cleave_1.0_sep.pwi
Warning: card &IONS ignored
Warning: card     ION_DYNAMICS = 'BFGS' ignored
Warning: card / ignored
Warning: card &CELL ignored
Warning: card     CELL_DYNAMICS = 'BFGS' ignored
Warning: card     PRESS_CONV_THR = 5 ignored
Warning: card / ignored

     Current dimensions of program PWSCF are:
     Max number of different atomic species (ntypx) = 10
     Max number of k-points (npk) =  40000
     Max angular momentum in pseudopotentials (lmaxx) =  3

     Message from routine setup:
     using ibrav=0 with symmetry is DISCOURAGED, use correct ibrav instead

     bravais-lattice index     =            0
     lattice parameter (alat)  =       7.4270  a.u.
     unit-cell volume          =    4401.0322 (a.u.)^3
     number of atoms/cell      =           28
     number of atomic types    =            4
     number of electrons       =       227.00
     number of Kohn-Sham states=          137
     kinetic-energy cutoff     =      60.0000  Ry
     charge density cutoff     =     720.0000  Ry
     convergence threshold     =      1.0E-08
     mixing beta               =       0.5000
     number of iterations used =           10  local-TF  mixing
     Exchange-correlation= SLA PW PBE PBE
                           (   1   4   3   4   0   0   0)

     celldm(1)=   7.427040  celldm(2)=   0.000000  celldm(3)=   0.000000
     celldm(4)=   0.000000  celldm(5)=   0.000000  celldm(6)=   0.000000

     crystal axes: (cart. coord. in units of alat)
               a(1) = (   1.000000   0.000000   0.000000 )
               a(2) = (   0.000000   0.947081   0.000000 )
               a(3) = (   0.000000   0.000000  11.342795 )

     reciprocal axes: (cart. coord. in units 2 pi/alat)
               b(1) = (  1.000000  0.000000  0.000000 )
               b(2) = (  0.000000  1.055876  0.000000 )
               b(3) = (  0.000000  0.000000  0.088162 )

     PseudoPot. # 1 for Ba read from file:
     ./pseudo/Ba.pbe-nsp-van.UPF
     MD5 check sum: 2b9c31dd849566dd297d80989662b7a0
     Pseudo is Ultrasoft + core correction, Zval = 10.0
     Generated by new atomic code, or converted to UPF format
     Using radial grid of  907 points,  6 beta functions with:
                l(1) =   0
                l(2) =   0
                l(3) =   1
                l(4) =   1
                l(5) =   2
                l(6) =   2
     Q(r) pseudized with  6 coefficients,  rinner =    1.200   1.200   1.200
                                                       1.200   1.200

     PseudoPot. # 2 for Ca read from file:
     ./pseudo/Ca.pbe-nsp-van.UPF
     MD5 check sum: 6471098428ff4fa451746d08035ff179
     Pseudo is Ultrasoft + core correction, Zval = 10.0
     Generated by new atomic code, or converted to UPF format
     Using radial grid of  845 points,  6 beta functions with:
                l(1) =   0
                l(2) =   0
                l(3) =   1
                l(4) =   1
                l(5) =   2
                l(6) =   2
     Q(r) pseudized with  6 coefficients,  rinner =    1.200   1.200   1.200
                                                       1.200   1.200

     PseudoPot. # 3 for Cu read from file:
     ./pseudo/Cu.pbe-n-van_ak.UPF
     MD5 check sum: 34e3282627ffb533726feb647e090d62
     Pseudo is Ultrasoft + core correction, Zval = 11.0
     Generated by new atomic code, or converted to UPF format
     Using radial grid of  867 points,  6 beta functions with:
                l(1) =   0
                l(2) =   0
                l(3) =   1
                l(4) =   1
                l(5) =   2
                l(6) =   2
     Q(r) pseudized with  8 coefficients,  rinner =    1.400   1.400   1.400
                                                       1.400   1.400

     PseudoPot. # 4 for O  read from file:
     ./pseudo/O.pbe-van_ak.UPF
     MD5 check sum: 783ce7fe4c79b6a4916957118fed0856
     Pseudo is Ultrasoft, Zval =  6.0
     Generated by new atomic code, or converted to UPF format
     Using radial grid of  737 points,  4 beta functions with:
                l(1) =   0
                l(2) =   0
                l(3) =   1
                l(4) =   1
     Q(r) pseudized with  8 coefficients,  rinner =    0.800   0.800   0.800

     atomic species   valence    mass     pseudopotential
        Ba            10.00   137.32700     Ba( 1.00)
        Ca            10.00    40.07800     Ca( 1.00)
        Cu            11.00    63.54600     Cu( 1.00)
        O              6.00    15.99900     O ( 1.00)

      4 Sym. Ops. (no inversion) found

   Cartesian axes

     site n.     atom                  positions (alat units)
         1           O   tau(   1) = (   0.0000000   0.4735409  -0.0469745  )
         2           Cu  tau(   2) = (   0.0000000   0.0000000   0.0264565  )
         3           O   tau(   3) = (   0.0000000   0.0000000   0.5030914  )
         4           Ba  tau(   4) = (   0.5000000   0.4735409   0.5690292  )
         5           Cu  tau(   5) = (   0.0000000   0.0000000   1.0374254  )
         6           O   tau(   6) = (   0.5000000   0.0000000   1.0768099  )
         7           O   tau(   7) = (   0.0000000   0.4735409   1.1116985  )
         8           Ca  tau(   8) = (   0.5000000   0.4735409   1.4976260  )
         9           O   tau(   9) = (   0.0000000   0.4735409   1.8667529  )
        10           O   tau(  10) = (   0.5000000   0.0000000   1.9044124  )
        11           Cu  tau(  11) = (   0.0000000   0.0000000   1.9512546  )
        12           Ba  tau(  12) = (   0.5000000   0.4735409   2.4295764  )
        13           O   tau(  13) = (   0.0000000   0.0000000   2.5115362  )
        14           O   tau(  14) = (   0.0000000   0.4735409   2.9918528  )
        15           Cu  tau(  15) = (   0.0000000   0.0000000   2.9919088  )
        16           O   tau(  16) = (   0.0000000   0.0000000   3.4722686  )
        17           Ba  tau(  17) = (   0.5000000   0.4735409   3.5542208  )
        18           Cu  tau(  18) = (   0.0000000   0.0000000   4.2869634  )
        19           O   tau(  19) = (   0.5000000   0.0000000   4.3338056  )
        20           O   tau(  20) = (   0.0000000   0.4735409   4.3714600  )
        21           Ca  tau(  21) = (   0.5000000   0.4735409   4.7405971  )
        22           O   tau(  22) = (   0.0000000   0.4735409   5.1265220  )
        23           O   tau(  23) = (   0.5000000   0.0000000   5.1614106  )
        24           Cu  tau(  24) = (   0.0000000   0.0000000   5.2007978  )
        25           Ba  tau(  25) = (   0.5000000   0.4735409   5.6691914  )
        26           O   tau(  26) = (   0.0000000   0.0000000   5.7351190  )
        27           Cu  tau(  27) = (   0.0000000   0.0000000   6.2117589  )
        28           O   tau(  28) = (   0.0000000   0.4735409   6.2851772  )

     number of k points=    25  Gaussian smearing, width (Ry)=  0.0100
                       cart. coord. in units 2pi/alat
        k(    1) = (   0.0000000   0.0000000   0.0000000), wk =   0.0312500
        k(    2) = (   0.0000000   0.1319845   0.0000000), wk =   0.0625000
        k(    3) = (   0.0000000   0.2639689   0.0000000), wk =   0.0625000
        k(    4) = (   0.0000000   0.3959534   0.0000000), wk =   0.0625000
        k(    5) = (   0.0000000  -0.5279378   0.0000000), wk =   0.0312500
        k(    6) = (   0.1250000   0.0000000   0.0000000), wk =   0.0625000
        k(    7) = (   0.1250000   0.1319845   0.0000000), wk =   0.1250000
        k(    8) = (   0.1250000   0.2639689   0.0000000), wk =   0.1250000
        k(    9) = (   0.1250000   0.3959534   0.0000000), wk =   0.1250000
        k(   10) = (   0.1250000  -0.5279378   0.0000000), wk =   0.0625000
        k(   11) = (   0.2500000   0.0000000   0.0000000), wk =   0.0625000
        k(   12) = (   0.2500000   0.1319845   0.0000000), wk =   0.1250000
        k(   13) = (   0.2500000   0.2639689   0.0000000), wk =   0.1250000
        k(   14) = (   0.2500000   0.3959534   0.0000000), wk =   0.1250000
        k(   15) = (   0.2500000  -0.5279378   0.0000000), wk =   0.0625000
        k(   16) = (   0.3750000   0.0000000   0.0000000), wk =   0.0625000
        k(   17) = (   0.3750000   0.1319845   0.0000000), wk =   0.1250000
        k(   18) = (   0.3750000   0.2639689   0.0000000), wk =   0.1250000
        k(   19) = (   0.3750000   0.3959534   0.0000000), wk =   0.1250000
        k(   20) = (   0.3750000  -0.5279378   0.0000000), wk =   0.0625000
        k(   21) = (  -0.5000000   0.0000000   0.0000000), wk =   0.0312500
        k(   22) = (  -0.5000000   0.1319845   0.0000000), wk =   0.0625000
        k(   23) = (  -0.5000000   0.2639689   0.0000000), wk =   0.0625000
        k(   24) = (  -0.5000000   0.3959534   0.0000000), wk =   0.0625000
        k(   25) = (  -0.5000000  -0.5279378   0.0000000), wk =   0.0312500

     Initial potential from superposition of free atoms

     starting charge  226.84630, renormalised to  227.00000

     negative rho (up, down):  3.506E-03 0.000E+00
     Starting wfcs are  195 randomized atomic wfcs

     Self-consistent Calculation

     iteration #  1     ecut=    60.00 Ry     beta= 0.50
     Davidson diagonalization with overlap
     ethr =  1.00E-02,  avg # of iterations =  2.0

     negative rho (up, down):  5.083E-04 0.000E+00

     total energy              =   -1840.91303498 Ry
     Harris-Foulkes estimate   =   -1845.35776498 Ry
     estimated scf accuracy    <      17.73351969 Ry

[...]

     iteration # 19     ecut=    60.00 Ry     beta= 0.50
     Davidson diagonalization with overlap
     c_bands:  1 eigenvalues not converged
     ethr =  2.54E-06,  avg # of iterations =  9.6

[...]

     iteration # 23     ecut=    60.00 Ry     beta= 0.50
     Davidson diagonalization with overlap
     c_bands:  1 eigenvalues not converged
     ethr =  1.63E-08,  avg # of iterations =  5.8

[...]

     total energy              =   -1842.85714526 Ry
     Harris-Foulkes estimate   =   -1842.85714524 Ry
     estimated scf accuracy    <       0.00000002 Ry

     iteration # 32     ecut=    60.00 Ry     beta= 0.50
     Davidson diagonalization with overlap
     ethr =  8.47E-12,  avg # of iterations =  2.6

[...]

     End of self-consistent calculation

          k = 0.0000 0.0000 0.0000 ( 34661 PWs)   bands (ev):

   -35.6125 -35.4851 -23.4922 -22.8150 -22.8147 -22.5699 -17.1168 -16.9649
   -16.6636 -16.6522 -16.5475 -16.5324 -15.3269 -15.2233 -14.9176 -14.6956
   -14.6882 -14.5978 -14.4225 -14.2054 -14.2027 -14.0064 -13.9850 -13.8508
   -13.7389 -13.5890 -13.5620  -8.7188  -8.3746  -8.2694  -7.9464  -7.9447
    -7.9089  -7.9087  -7.7543  -7.7158  -7.7155  -7.6142  -7.4477  -2.3548
    -2.3536  -2.1094  -1.8535  -1.8508  -1.7918  -1.6933  -1.6624  -1.6051
    -1.5663  -1.5073  -1.4823  -1.3302  -1.2460  -1.2443  -1.1274  -0.9114
    -0.6759  -0.6712  -0.4839  -0.4824  -0.4045  -0.3999  -0.3312  -0.3193
    -0.2900  -0.2884  -0.2812  -0.2712  -0.2384  -0.2295  -0.1903  -0.1646
    -0.1612  -0.1500  -0.0627  -0.0607   0.0735   0.0751   0.0751   0.0778
     0.1286   0.1489   0.1759   0.2819   0.2888   0.3001   0.3375   0.3525
     0.5507   0.5644   0.7547   0.8571   0.8580   0.9195   0.9408   1.1580
     1.1996   1.3241   1.3249   1.3503   1.3770   1.4074   1.4861   1.4908
     1.6362   1.7563   1.7975   1.7991   1.9065   1.9119   1.9265   1.9849
     2.0143   2.0844   2.0868   2.2170   2.2222   2.5021   2.5112   5.1593
     5.1930   5.3378   5.9883   6.1109   6.5541   6.7401   6.7484   7.0895
     7.7570   7.9502   8.1014   8.2474   8.3065   8.5102   8.5756   8.7506
     9.0545

[...]

          k = 0.3750-0.5279 0.0000 ( 34580 PWs)   bands (ev):

[...]

          k =-0.5000 0.0000 0.0000 ( 34514 PWs)   bands (ev):

[...]

          k =-0.5000-0.5279 0.0000 ( 34620 PWs)   bands (ev):

   -35.5928 -35.4653 -23.2709 -22.5421 -22.5418 -22.3073 -17.0385 -17.0296
   -16.9250 -16.9071 -16.6531 -16.4974 -14.6384 -14.6374 -14.4631 -14.4126
   -14.3467 -14.2917 -14.2251 -14.1209 -14.0822 -14.0781 -14.0216 -13.9609
   -13.9301 -13.7556 -13.6304  -9.3951  -8.9553  -8.7750  -8.7743  -8.5953
    -8.5290  -8.5071  -8.5070  -8.1775  -8.0402  -8.0387  -7.8275  -4.1127
    -4.0719  -3.7989  -3.6660  -3.5157  -3.1871  -3.1854  -2.7606  -2.7582
    -2.5944  -2.4371  -2.3117  -2.3104  -2.3086  -2.2747  -2.0902  -1.9874
    -1.9141  -1.7792  -1.3741  -1.3734  -1.3708  -1.1952  -1.1869  -1.0471
    -1.0351  -1.0080  -1.0065  -0.9108  -0.8356  -0.8159  -0.7058  -0.6248
    -0.4829  -0.3552  -0.3537   0.1629   0.2893   0.3917   0.5315   0.8135
     1.0044   1.2377   1.2767   1.3238   1.3257   1.3393   1.3812   1.3830
     1.4143   1.6043   1.6246   1.7351   1.7408   1.7779   1.7951   1.8617
     1.8756   1.8827   1.9639   1.9798   2.0186   2.0348   2.0557   2.0728
     2.1727   2.2272   2.3046   2.3161   2.3181   2.4032   2.5075   2.5099
     2.5210   2.6723   4.2300   4.6852   4.6926   4.7549   4.8281   5.1159
     5.9481   5.9482   6.7788   7.0959   7.8086   7.8748   8.4386   9.0111
     9.0140   9.0281   9.0690   9.2468   9.4805   9.5332   9.8455   9.9217
    10.0799

     the Fermi energy is     2.5434 ev

!    total energy              =   -1842.85714527 Ry
     Harris-Foulkes estimate   =   -1842.85714526 Ry
     estimated scf accuracy    <          3.6E-09 Ry

     The total energy is the sum of the following terms:

     one-electron contribution =  -29026.42834048 Ry
     hartree contribution      =   14665.97854208 Ry
     xc contribution           =    -621.59167691 Ry
     ewald contribution        =   13139.19205446 Ry
     smearing contrib. (-TS)   =      -0.00772443 Ry

     convergence has been achieved in  32 iterations

     negative rho (up, down):  1.519E-03 0.000E+00

     Forces acting on atoms (cartesian axes, Ry/au):

     atom    1 type  4   force =     0.00000000    0.00000000   -0.00016937
     atom    2 type  3   force =     0.00000000    0.00000000    0.00050429
     atom    3 type  4   force =     0.00000000    0.00000000   -0.00078415
     atom    4 type  1   force =     0.00000000    0.00000000   -0.00026844
     atom    5 type  3   force =     0.00000000    0.00000000    0.00052693
     atom    6 type  4   force =     0.00000000    0.00000000    0.00001870
     atom    7 type  4   force =     0.00000000    0.00000000    0.00028949
     atom    8 type  2   force =     0.00000000    0.00000000   -0.00066909
     atom    9 type  4   force =     0.00000000    0.00000000    0.00020326
     atom   10 type  4   force =     0.00000000    0.00000000    0.00019619
     atom   11 type  3   force =     0.00000000    0.00000000    0.00030945
     atom   12 type  1   force =     0.00000000    0.00000000   -0.00084623
     atom   13 type  4   force =     0.00000000    0.00000000    0.00490385
     atom   14 type  4   force =     0.00000000    0.00000000    0.01071374
     atom   15 type  3   force =     0.00000000    0.00000000   -0.00811372
     atom   16 type  4   force =     0.00000000    0.00000000    0.00982115
     atom   17 type  1   force =     0.00000000    0.00000000    0.00888563
     atom   18 type  3   force =     0.00000000    0.00000000   -0.00359003
     atom   19 type  4   force =     0.00000000    0.00000000   -0.00405707
     atom   20 type  4   force =     0.00000000    0.00000000   -0.00471068
     atom   21 type  2   force =     0.00000000    0.00000000   -0.01582212
     atom   22 type  4   force =     0.00000000    0.00000000    0.00031521
     atom   23 type  4   force =     0.00000000    0.00000000    0.00147880
     atom   24 type  3   force =     0.00000000    0.00000000   -0.00014025
     atom   25 type  1   force =     0.00000000    0.00000000    0.00028956
     atom   26 type  4   force =     0.00000000    0.00000000    0.00107193
     atom   27 type  3   force =     0.00000000    0.00000000   -0.00065949
     atom   28 type  4   force =     0.00000000    0.00000000    0.00030245

     Total force =     0.026243     Total SCF correction =     0.000264

     Computing stress (Cartesian axis) and pressure

     negative rho (up, down):  1.519E-03 0.000E+00
          total   stress  (Ry/bohr**3)                   (kbar)     P=       -7.89
  -0.00007120   0.00000000   0.00000000          -10.47        0.00        0.00
   0.00000000  -0.00003815   0.00000000            0.00       -5.61        0.00
   0.00000000   0.00000000  -0.00005149            0.00        0.00       -7.57

     General routines

     Parallel routines

   This run was terminated on:  11:41:34  21May2021

   JOB DONE.
[1621611694.722718] [holy7c02502:276042:0]          mpool.c:43   UCX  WARN  object 0x3fe72c0 was not returned to mpool ucp_requests
[1621611694.722792] [holy7c06201:10056:0]          mpool.c:43   UCX  WARN  object 0x2a2dc40 was not returned to mpool ucp_requests
[1621611694.722811] [holy7c06201:10056:0]          mpool.c:43   UCX  WARN  object 0x2a2e180 was not returned to mpool ucp_requests
[1621611694.725596] [holy7c06303:57338:0]          mpool.c:43   UCX  WARN  object 0x3c1c7c0 was not returned to mpool ucp_requests
[1621611694.724662] [holy7c06204:145916:0]          mpool.c:43   UCX  WARN  object 0x3610f80 was not returned to mpool ucp_requests
[1621611694.733554] [holy7c06302:119248:0]          mpool.c:43   UCX  WARN  object 0x34d78c0 was not returned to mpool ucp_requests
[1621611694.724507] [holy7c06303:57339:0]          mpool.c:43   UCX  WARN  object 0x3aa2e40 was not returned to mpool ucp_requests
[1621611694.734393] [holy7c06302:119246:0]          mpool.c:43   UCX  WARN  object 0x29f2340 was not returned to mpool ucp_requests
[1621611694.734411] [holy7c06302:119246:0]          mpool.c:43   UCX  WARN  object 0x29f2500 was not returned to mpool ucp_requests
[1621611694.735793] [holy7c06302:119251:0]          mpool.c:43   UCX  WARN  object 0x3a21300 was not returned to mpool ucp_requests
[1621611694.735814] [holy7c06302:119251:0]          mpool.c:43   UCX  WARN  object 0x3a214c0 was not returned to mpool ucp_requests