     Program PWSCF v.6.5 starts on 21May2021 at 22:39:29

     R & G space division:  proc/nbgrp/npool/nimage =      20
     Reading input from CBCO_CuO_cleave_2.25_sep.pwi
Warning: card &IONS ignored
Warning: card     ION_DYNAMICS = 'BFGS' ignored
Warning: card / ignored
Warning: card &CELL ignored
Warning: card     CELL_DYNAMICS = 'BFGS' ignored
Warning: card     PRESS_CONV_THR = 5 ignored
Warning: card / ignored

     Current dimensions of program PWSCF are:
     Max number of different atomic species (ntypx) = 10
     Max number of k-points (npk) =  40000
     Max angular momentum in pseudopotentials (lmaxx) =  3

     Message from routine setup:
     using ibrav=0 with symmetry is DISCOURAGED, use correct ibrav instead

     bravais-lattice index     =            0
     lattice parameter (alat)  =       7.4270  a.u.
     unit-cell volume          =    4524.4357 (a.u.)^3
     number of atoms/cell      =           28
     number of atomic types    =            4
     number of electrons       =       227.00
     number of Kohn-Sham states=          137
     kinetic-energy cutoff     =      60.0000  Ry
     charge density cutoff     =     720.0000  Ry
     convergence threshold     =      1.0E-08
     mixing beta               =       0.5000
     number of iterations used =           10  local-TF  mixing
     Exchange-correlation= SLA PW PBE PBE
                           (   1   4   3   4   0   0   0)

     celldm(1)=   7.427040  celldm(2)=   0.000000  celldm(3)=   0.000000
     celldm(4)=   0.000000  celldm(5)=   0.000000  celldm(6)=   0.000000

     crystal axes: (cart. coord. in units of alat)
               a(1) = (   1.000000   0.000000   0.000000 )
               a(2) = (   0.000000   0.947081   0.000000 )
               a(3) = (   0.000000   0.000000  11.660844 )

     reciprocal axes: (cart. coord. in units 2 pi/alat)
               b(1) = (  1.000000  0.000000  0.000000 )
               b(2) = (  0.000000  1.055876  0.000000 )
               b(3) = (  0.000000  0.000000  0.085757 )

     PseudoPot. # 1 for Ba read from file:
     ./pseudo/Ba.pbe-nsp-van.UPF
     MD5 check sum: 2b9c31dd849566dd297d80989662b7a0
     Pseudo is Ultrasoft + core correction, Zval = 10.0
     Generated by new atomic code, or converted to UPF format
     Using radial grid of  907 points,  6 beta functions with:
                l(1) =   0
                l(2) =   0
                l(3) =   1
                l(4) =   1
                l(5) =   2
                l(6) =   2
     Q(r) pseudized with  6 coefficients,  rinner =    1.200   1.200   1.200
                                                       1.200   1.200

     PseudoPot. # 2 for Ca read from file:
     ./pseudo/Ca.pbe-nsp-van.UPF
     MD5 check sum: 6471098428ff4fa451746d08035ff179
     Pseudo is Ultrasoft + core correction, Zval = 10.0
     Generated by new atomic code, or converted to UPF format
     Using radial grid of  845 points,  6 beta functions with:
                l(1) =   0
                l(2) =   0
                l(3) =   1
                l(4) =   1
                l(5) =   2
                l(6) =   2
     Q(r) pseudized with  6 coefficients,  rinner =    1.200   1.200   1.200
                                                       1.200   1.200

     PseudoPot. # 3 for Cu read from file:
     ./pseudo/Cu.pbe-n-van_ak.UPF
     MD5 check sum: 34e3282627ffb533726feb647e090d62
     Pseudo is Ultrasoft + core correction, Zval = 11.0
     Generated by new atomic code, or converted to UPF format
     Using radial grid of  867 points,  6 beta functions with:
                l(1) =   0
                l(2) =   0
                l(3) =   1
                l(4) =   1
                l(5) =   2
                l(6) =   2
     Q(r) pseudized with  8 coefficients,  rinner =    1.400   1.400   1.400
                                                       1.400   1.400

     PseudoPot. # 4 for O  read from file:
     ./pseudo/O.pbe-van_ak.UPF
     MD5 check sum: 783ce7fe4c79b6a4916957118fed0856
     Pseudo is Ultrasoft, Zval =  6.0
     Generated by new atomic code, or converted to UPF format
     Using radial grid of  737 points,  4 beta functions with:
                l(1) =   0
                l(2) =   0
                l(3) =   1
                l(4) =   1
     Q(r) pseudized with  8 coefficients,  rinner =    0.800   0.800   0.800

     atomic species   valence    mass     pseudopotential
        Ba            10.00   137.32700     Ba( 1.00)
        Ca            10.00    40.07800     Ca( 1.00)
        Cu            11.00    63.54600     Cu( 1.00)
        O              6.00    15.99900     O ( 1.00)

      4 Sym. Ops. (no inversion) found

   Cartesian axes

     site n.     atom                  positions (alat units)
         1           O   tau(   1) = (   0.0000000   0.4735409  -0.0469745  )
         2           Cu  tau(   2) = (   0.0000000   0.0000000   0.0264565  )
         3           O   tau(   3) = (   0.0000000   0.0000000   0.5030914  )
         4           Ba  tau(   4) = (   0.5000000   0.4735409   0.5690292  )
         5           Cu  tau(   5) = (   0.0000000   0.0000000   1.0374254  )
         6           O   tau(   6) = (   0.5000000   0.0000000   1.0768099  )
         7           O   tau(   7) = (   0.0000000   0.4735409   1.1116985  )
         8           Ca  tau(   8) = (   0.5000000   0.4735409   1.4976260  )
         9           O   tau(   9) = (   0.0000000   0.4735409   1.8667529  )
        10           O   tau(  10) = (   0.5000000   0.0000000   1.9044124  )
        11           Cu  tau(  11) = (   0.0000000   0.0000000   1.9512546  )
        12           Ba  tau(  12) = (   0.5000000   0.4735409   2.4295764  )
        13           O   tau(  13) = (   0.0000000   0.0000000   2.5115362  )
        14           O   tau(  14) = (   0.0000000   0.4735409   2.9918528  )
        15           Cu  tau(  15) = (   0.0000000   0.0000000   2.9919088  )
        16           O   tau(  16) = (   0.0000000   0.0000000   4.0447556  )
        17           Ba  tau(  17) = (   0.5000000   0.4735409   4.1267078  )
        18           Cu  tau(  18) = (   0.0000000   0.0000000   4.6050118  )
        19           O   tau(  19) = (   0.5000000   0.0000000   4.6518539  )
        20           O   tau(  20) = (   0.0000000   0.4735409   4.6895083  )
        21           Ca  tau(  21) = (   0.5000000   0.4735409   5.0586454  )
        22           O   tau(  22) = (   0.0000000   0.4735409   5.4445704  )
        23           O   tau(  23) = (   0.5000000   0.0000000   5.4794590  )
        24           Cu  tau(  24) = (   0.0000000   0.0000000   5.5188461  )
        25           Ba  tau(  25) = (   0.5000000   0.4735409   5.9872397  )
        26           O   tau(  26) = (   0.0000000   0.0000000   6.0531673  )
        27           Cu  tau(  27) = (   0.0000000   0.0000000   6.5298073  )
        28           O   tau(  28) = (   0.0000000   0.4735409   6.6032256  )

     number of k points=    25  Gaussian smearing, width (Ry)=  0.0100
                       cart. coord. in units 2pi/alat
        k(    1) = (   0.0000000   0.0000000   0.0000000), wk =   0.0312500
        k(    2) = (   0.0000000   0.1319845   0.0000000), wk =   0.0625000
        k(    3) = (   0.0000000   0.2639689   0.0000000), wk =   0.0625000
        k(    4) = (   0.0000000   0.3959534   0.0000000), wk =   0.0625000
        k(    5) = (   0.0000000  -0.5279378   0.0000000), wk =   0.0312500
        k(    6) = (   0.1250000   0.0000000   0.0000000), wk =   0.0625000
        k(    7) = (   0.1250000   0.1319845   0.0000000), wk =   0.1250000
        k(    8) = (   0.1250000   0.2639689   0.0000000), wk =   0.1250000
        k(    9) = (   0.1250000   0.3959534   0.0000000), wk =   0.1250000
        k(   10) = (   0.1250000  -0.5279378   0.0000000), wk =   0.0625000
        k(   11) = (   0.2500000   0.0000000   0.0000000), wk =   0.0625000
        k(   12) = (   0.2500000   0.1319845   0.0000000), wk =   0.1250000
        k(   13) = (   0.2500000   0.2639689   0.0000000), wk =   0.1250000
        k(   14) = (   0.2500000   0.3959534   0.0000000), wk =   0.1250000
        k(   15) = (   0.2500000  -0.5279378   0.0000000), wk =   0.0625000
        k(   16) = (   0.3750000   0.0000000   0.0000000), wk =   0.0625000
        k(   17) = (   0.3750000   0.1319845   0.0000000), wk =   0.1250000
        k(   18) = (   0.3750000   0.2639689   0.0000000), wk =   0.1250000
        k(   19) = (   0.3750000   0.3959534   0.0000000), wk =   0.1250000
        k(   20) = (   0.3750000  -0.5279378   0.0000000), wk =   0.0625000
        k(   21) = (  -0.5000000   0.0000000   0.0000000), wk =   0.0312500
        k(   22) = (  -0.5000000   0.1319845   0.0000000), wk =   0.0625000
        k(   23) = (  -0.5000000   0.2639689   0.0000000), wk =   0.0625000
        k(   24) = (  -0.5000000   0.3959534   0.0000000), wk =   0.0625000
        k(   25) = (  -0.5000000  -0.5279378   0.0000000), wk =   0.0312500

     Initial potential from superposition of free atoms

     starting charge  226.84630, renormalised to  227.00000

     negative rho (up, down):  3.444E-03 0.000E+00
     Starting wfcs are  195 randomized atomic wfcs

     Self-consistent Calculation

     iteration #  1     ecut=    60.00 Ry     beta= 0.50
     Davidson diagonalization with overlap
     ethr =  1.00E-02,  avg # of iterations =  2.0

     negative rho (up, down):  4.927E-04 0.000E+00

     total energy              =   -1840.72926135 Ry
     Harris-Foulkes estimate   =   -1845.35364892 Ry
     estimated scf accuracy    <      19.14328682 Ry

[...]

     iteration # 18     ecut=    60.00 Ry     beta= 0.50
     Davidson diagonalization with overlap
     c_bands:  1 eigenvalues not converged
     ethr =  2.74E-06,  avg # of iterations =  8.0

[...]

     iteration # 24     ecut=    60.00 Ry     beta= 0.50
     Davidson diagonalization with overlap
     c_bands:  1 eigenvalues not converged
     c_bands:  1 eigenvalues not converged
     ethr =  5.82E-08,  avg # of iterations =  6.3

[...]

     total energy              =   -1842.78901332 Ry
     Harris-Foulkes estimate   =   -1842.78901332 Ry
     estimated scf accuracy    <       0.00000002 Ry

     iteration # 35     ecut=    60.00 Ry     beta= 0.50
     Davidson diagonalization with overlap
     ethr =  1.08E-11,  avg # of iterations =  1.0

[...]

     End of self-consistent calculation

          k = 0.0000 0.0000 0.0000 ( 35607 PWs)   bands (ev):

   -35.8989 -35.8742 -23.0567 -23.0533 -22.9073 -22.8608 -17.3997 -17.3802
   -16.9506 -16.9403 -16.9273 -16.9134 -15.5969 -15.5872 -14.9425 -14.9372
   -14.9295 -14.8716 -14.8602 -14.4436 -14.4410 -14.2686 -14.2559 -14.1723
   -14.1329 -14.1164 -12.9612  -8.1891  -8.1858  -8.1501  -8.1470  -8.0940
    -8.0450  -7.9688  -7.9573  -7.9540  -7.8340  -7.7958  -7.6347  -2.5905
    -2.5903  -2.2650  -2.1183  -2.1151  -2.0913  -2.0871  -1.9619  -1.9449
    -1.8492  -1.8289  -1.7963  -1.7861  -1.4812  -1.4772  -1.1389  -0.7201
    -0.7181  -0.6415  -0.6410  -0.6356  -0.6115  -0.5895  -0.5694  -0.5523
    -0.5520  -0.5333  -0.5267  -0.5264  -0.5245  -0.4679  -0.4524  -0.3014
    -0.2978  -0.2807  -0.2012  -0.1836  -0.1730  -0.1664  -0.1614  -0.1586
    -0.1192  -0.1047  -0.0977  -0.0855  -0.0599  -0.0327   0.0208   0.0692
     0.2244   0.5126   0.5962   0.6193   0.6223   0.6628   0.7010   0.8989
     0.9031   1.0600   1.0831   1.0939   1.1104   1.1918   1.2143   1.2355
     1.2446   1.2626   1.2674   1.5267   1.5553   1.6038   1.7629   1.7775
     1.8162   1.9514   2.0753   2.0867   2.1823   2.2708   2.2833   4.7455
     4.9564   4.9664   5.8631   5.9535   6.4737   6.4910   6.5751   6.7529
     7.5303   7.7031   7.8699   7.9328   8.1919   8.2662   8.3205   8.4129
     8.8418

[...]

          k = 0.3750-0.5279 0.0000 ( 35528 PWs)   bands (ev):

[...]

          k =-0.5000 0.0000 0.0000 ( 35494 PWs)   bands (ev):

[...]

          k =-0.5000-0.5279 0.0000 ( 35564 PWs)   bands (ev):

   -35.8793 -35.8545 -22.7838 -22.7804 -22.6421 -22.6201 -17.3245 -17.3171
   -17.3056 -17.2906 -16.9378 -16.9156 -14.8748 -14.8734 -14.7283 -14.7267
   -14.5592 -14.5469 -14.5351 -14.4087 -14.4059 -14.3339 -14.3176 -14.3127
   -14.2471 -14.2090 -13.0752  -9.0167  -9.0132  -8.8794  -8.7484  -8.7454
    -8.6618  -8.5432  -8.4446  -8.2830  -8.2790  -8.1284  -8.1153  -4.3783
    -4.3553  -4.0786  -4.0253  -3.6638  -3.4227  -3.4190  -3.0021  -2.9953
    -2.8882  -2.8746  -2.5689  -2.5511  -2.5480  -2.5470  -2.2446  -2.2282
    -2.2211  -1.6702  -1.6185  -1.5941  -1.4491  -1.4396  -1.3089  -1.3002
    -1.2908  -1.2439  -1.2410  -1.2323  -1.2242  -1.1546  -1.1003  -0.5903
    -0.5883  -0.5812  -0.4657  -0.0561   0.0931   0.1977   0.5641   0.6756
     0.8553   1.0712   1.0741   1.0761   1.0802   1.1104   1.1184   1.1847
     1.3368   1.3390   1.3397   1.3575   1.3811   1.5771   1.6063   1.6264
     1.6387   1.7127   1.7317   1.7560   1.8021   1.8032   1.8997   1.9082
     2.0762   2.0796   2.1225   2.1347   2.1391   2.1728   2.2601   2.2778
     2.3152   2.3251   2.6826   4.4065   4.4116   4.4796   4.4802   5.7083
     5.7115   5.7529   6.7696   6.8360   8.0861   8.1936   8.7268   8.7623
     8.7757   8.8257   9.0539   9.1226   9.2206   9.2277   9.5640   9.5921
     9.6824

     the Fermi energy is     2.3053 ev

!    total energy              =   -1842.78901332 Ry
     Harris-Foulkes estimate   =   -1842.78901332 Ry
     estimated scf accuracy    <          1.8E-09 Ry

     The total energy is the sum of the following terms:

     one-electron contribution =  -26587.95465269 Ry
     hartree contribution      =   13444.99076802 Ry
     xc contribution           =    -621.62024782 Ry
     ewald contribution        =   11921.80683090 Ry
     smearing contrib. (-TS)   =      -0.01171174 Ry

     convergence has been achieved in  35 iterations

     negative rho (up, down):  1.535E-03 0.000E+00

     Forces acting on atoms (cartesian axes, Ry/au):

     atom    1 type  4   force =     0.00000000    0.00000000   -0.00035975
     atom    2 type  3   force =     0.00000000    0.00000000    0.00046541
     atom    3 type  4   force =     0.00000000    0.00000000   -0.00075032
     atom    4 type  1   force =     0.00000000    0.00000000   -0.00053551
     atom    5 type  3   force =     0.00000000    0.00000000    0.00043930
     atom    6 type  4   force =     0.00000000    0.00000000    0.00093965
     atom    7 type  4   force =     0.00000000    0.00000000    0.00114947
     atom    8 type  2   force =     0.00000000    0.00000000   -0.00277234
     atom    9 type  4   force =     0.00000000    0.00000000    0.00479596
     atom   10 type  4   force =     0.00000000    0.00000000    0.00413171
     atom   11 type  3   force =     0.00000000    0.00000000    0.00123059
     atom   12 type  1   force =     0.00000000    0.00000000    0.00937262
     atom   13 type  4   force =     0.00000000    0.00000000   -0.01964458
     atom   14 type  4   force =     0.00000000    0.00000000    0.03743427
     atom   15 type  3   force =     0.00000000    0.00000000   -0.03219595
     atom   16 type  4   force =     0.00000000    0.00000000    0.02801951
     atom   17 type  1   force =     0.00000000    0.00000000   -0.00844545
     atom   18 type  3   force =     0.00000000    0.00000000   -0.02130295
     atom   19 type  4   force =     0.00000000    0.00000000   -0.00101343
     atom   20 type  4   force =     0.00000000    0.00000000   -0.00185606
     atom   21 type  2   force =     0.00000000    0.00000000    0.00257625
     atom   22 type  4   force =     0.00000000    0.00000000   -0.00174623
     atom   23 type  4   force =     0.00000000    0.00000000   -0.00022049
     atom   24 type  3   force =     0.00000000    0.00000000   -0.00028260
     atom   25 type  1   force =     0.00000000    0.00000000    0.00038917
     atom   26 type  4   force =     0.00000000    0.00000000    0.00026605
     atom   27 type  3   force =     0.00000000    0.00000000   -0.00000571
     atom   28 type  4   force =     0.00000000    0.00000000   -0.00007861

     Total force =     0.065493     Total SCF correction =     0.000212

     Computing stress (Cartesian axis) and pressure

     negative rho (up, down):  1.535E-03 0.000E+00
          total   stress  (Ry/bohr**3)                   (kbar)     P=       -5.73
   0.00000807   0.00000000   0.00000000            1.19        0.00        0.00
   0.00000000  -0.00008668   0.00000000            0.00      -12.75        0.00
   0.00000000   0.00000000  -0.00003820            0.00        0.00       -5.62

     General routines

     Parallel routines

   This run was terminated on:  22:52:39  21May2021

   JOB DONE.
[1621651959.215638] [holy7c16405:257940:0]          mpool.c:43   UCX  WARN  object 0x3f48c40 was not returned to mpool ucp_requests
[1621651959.215652] [holy7c16405:257940:0]          mpool.c:43   UCX  WARN  object 0x3f48e00 was not returned to mpool ucp_requests
[1621651959.216985] [holy7c16203:189202:0]          mpool.c:43   UCX  WARN  object 0x3f71240 was not returned to mpool ucp_requests
[1621651959.217493] [holy7c16206:230189:0]          mpool.c:43   UCX  WARN  object 0x2e55d00 was not returned to mpool ucp_requests
[1621651959.217508] [holy7c16206:230189:0]          mpool.c:43   UCX  WARN  object 0x2e55ec0 was not returned to mpool ucp_requests
[1621651959.215193] [holy7c16505:273542:0]          mpool.c:43   UCX  WARN  object 0x3437980 was not returned to mpool ucp_requests
[1621651959.215207] [holy7c16505:273542:0]          mpool.c:43   UCX  WARN  object 0x3437d00 was not returned to mpool ucp_requests
[1621651959.219847] [holy7c16211:190940:0]          mpool.c:43   UCX  WARN  object 0x426ad00 was not returned to mpool ucp_requests
[1621651959.215754] [holy7c16203:189203:0]          mpool.c:43   UCX  WARN  object 0x42588c0 was not returned to mpool ucp_requests
[1621651959.222855] [holy7c16410:217732:0]          mpool.c:43   UCX  WARN  object 0x3369240 was not returned to mpool ucp_requests