     Program PWSCF v.6.5 starts on 20May2021 at 20:26:42

     R & G space division:  proc/nbgrp/npool/nimage =      20
     Reading input from CBCO_112_20vac_NOcleave_0sep.pwi

     Current dimensions of program PWSCF are:
     Max number of different atomic species (ntypx) = 10
     Max number of k-points (npk) =  40000
     Max angular momentum in pseudopotentials (lmaxx) =  3

     Message from routine setup:
     using ibrav=0 with symmetry is DISCOURAGED, use correct ibrav instead

     bravais-lattice index     =            0
     lattice parameter (alat)  =       7.1727  a.u.
     unit-cell volume          =    4323.8363 (a.u.)^3
     number of atoms/cell      =           28
     number of atomic types    =            4
     number of electrons       =       227.00
     number of Kohn-Sham states=          137
     kinetic-energy cutoff     =      60.0000  Ry
     charge density cutoff     =     720.0000  Ry
     convergence threshold     =      1.0E-08
     mixing beta               =       0.5000
     number of iterations used =           10  local-TF  mixing
     Exchange-correlation= SLA PW PBE PBE
                           (   1   4   3   4   0   0   0)
     nstep                     =          300

     celldm(1)=   7.172744  celldm(2)=   0.000000  celldm(3)=   0.000000
     celldm(4)=   0.000000  celldm(5)=   0.000000  celldm(6)=   0.000000

     crystal axes: (cart. coord. in units of alat)
               a(1) = (   1.000000   0.000000   0.000000 )
               a(2) = (   0.000000   1.018583   0.000000 )
               a(3) = (   0.000000   0.000000  11.503157 )

     reciprocal axes: (cart. coord. in units 2 pi/alat)
               b(1) = (  1.000000  0.000000  0.000000 )
               b(2) = (  0.000000  0.981756  0.000000 )
               b(3) = (  0.000000  0.000000  0.086933 )

     PseudoPot. # 1 for Ba read from file:
     ./pseudo/Ba.pbe-nsp-van.UPF
     MD5 check sum: 2b9c31dd849566dd297d80989662b7a0
     Pseudo is Ultrasoft + core correction, Zval = 10.0
     Generated by new atomic code, or converted to UPF format
     Using radial grid of  907 points,  6 beta functions with:
                l(1) =   0
                l(2) =   0
                l(3) =   1
                l(4) =   1
                l(5) =   2
                l(6) =   2
     Q(r) pseudized with  6 coefficients,  rinner =    1.200   1.200   1.200
                                                       1.200   1.200

     PseudoPot. # 2 for Ca read from file:
     ./pseudo/Ca.pbe-nsp-van.UPF
     MD5 check sum: 6471098428ff4fa451746d08035ff179
     Pseudo is Ultrasoft + core correction, Zval = 10.0
     Generated by new atomic code, or converted to UPF format
     Using radial grid of  845 points,  6 beta functions with:
                l(1) =   0
                l(2) =   0
                l(3) =   1
                l(4) =   1
                l(5) =   2
                l(6) =   2
     Q(r) pseudized with  6 coefficients,  rinner =    1.200   1.200   1.200
                                                       1.200   1.200

     PseudoPot. # 3 for Cu read from file:
     ./pseudo/Cu.pbe-n-van_ak.UPF
     MD5 check sum: 34e3282627ffb533726feb647e090d62
     Pseudo is Ultrasoft + core correction, Zval = 11.0
     Generated by new atomic code, or converted to UPF format
     Using radial grid of  867 points,  6 beta functions with:
                l(1) =   0
                l(2) =   0
                l(3) =   1
                l(4) =   1
                l(5) =   2
                l(6) =   2
     Q(r) pseudized with  8 coefficients,  rinner =    1.400   1.400   1.400
                                                       1.400   1.400

     PseudoPot. # 4 for O  read from file:
     ./pseudo/O.pbe-van_ak.UPF
     MD5 check sum: 783ce7fe4c79b6a4916957118fed0856
     Pseudo is Ultrasoft, Zval =  6.0
     Generated by new atomic code, or converted to UPF format
     Using radial grid of  737 points,  4 beta functions with:
                l(1) =   0
                l(2) =   0
                l(3) =   1
                l(4) =   1
     Q(r) pseudized with  8 coefficients,  rinner =    0.800   0.800   0.800

     atomic species   valence    mass     pseudopotential
        Ba            10.00   137.32700     Ba( 1.00)
        Ca            10.00    40.07800     Ca( 1.00)
        Cu            11.00    63.54600     Cu( 1.00)
        O              6.00    15.99900     O ( 1.00)

      4 Sym. Ops. (no inversion) found

   Cartesian axes

     site n.     atom                  positions (alat units)
         1           Cu  tau(   1) = (   0.0000000   0.0000000   0.0000000  )
         2           O   tau(   2) = (   0.0000000   0.5092906   0.0000000  )
         3           O   tau(   3) = (   0.0000000   0.0000000   0.4912199  )
         4           Ba  tau(   4) = (   0.5000010   0.5092906   0.5767441  )
         5           Cu  tau(   5) = (   0.0000000   0.0000000   1.0769743  )
         6           O   tau(   6) = (   0.0000000   0.5092906   1.1393983  )
         7           O   tau(   7) = (   0.5000010   0.0000000   1.1432685  )
         8           Ca  tau(   8) = (   0.5000010   0.5092906   1.5519071  )
         9           O   tau(   9) = (   0.5000010   0.0000000   1.9605457  )
        10           O   tau(  10) = (   0.0000000   0.5092906   1.9644132  )
        11           Cu  tau(  11) = (   0.0000000   0.0000000   2.0268399  )
        12           Ba  tau(  12) = (   0.5000010   0.5092906   2.5270701  )
        13           O   tau(  13) = (   0.0000000   0.0000000   2.6125943  )
        14           Cu  tau(  14) = (   0.0000000   0.0000000   3.1038116  )
        15           O   tau(  15) = (   0.0000000   0.5092906   3.1038116  )
        16           O   tau(  16) = (   0.0000000   0.0000000   3.5950314  )
        17           Ba  tau(  17) = (   0.5000010   0.5092906   3.6805556  )
        18           Cu  tau(  18) = (   0.0000000   0.0000000   4.1807858  )
        19           O   tau(  19) = (   0.0000000   0.5092906   4.2432125  )
        20           O   tau(  20) = (   0.5000010   0.0000000   4.2470801  )
        21           Ca  tau(  21) = (   0.5000010   0.5092906   4.6557186  )
        22           O   tau(  22) = (   0.5000010   0.0000000   5.0643572  )
        23           O   tau(  23) = (   0.0000000   0.5092906   5.0682274  )
        24           Cu  tau(  24) = (   0.0000000   0.0000000   5.1306515  )
        25           Ba  tau(  25) = (   0.5000010   0.5092906   5.6308817  )
        26           O   tau(  26) = (   0.0000000   0.0000000   5.7164058  )
        27           Cu  tau(  27) = (   0.0000000   0.0000000   6.2076257  )
        28           O   tau(  28) = (   0.0000000   0.5092906   6.2076257  )

     number of k points=    25  Gaussian smearing, width (Ry)=  0.0100
                       cart. coord. in units 2pi/alat
        k(    1) = (   0.0000000   0.0000000   0.0000000), wk =   0.0312500
        k(    2) = (   0.0000000   0.1227195   0.0000000), wk =   0.0625000
        k(    3) = (   0.0000000   0.2454391   0.0000000), wk =   0.0625000
        k(    4) = (   0.0000000   0.3681586   0.0000000), wk =   0.0625000
        k(    5) = (   0.0000000  -0.4908782   0.0000000), wk =   0.0312500
        k(    6) = (   0.1250000   0.0000000   0.0000000), wk =   0.0625000
        k(    7) = (   0.1250000   0.1227195   0.0000000), wk =   0.1250000
        k(    8) = (   0.1250000   0.2454391   0.0000000), wk =   0.1250000
        k(    9) = (   0.1250000   0.3681586   0.0000000), wk =   0.1250000
        k(   10) = (   0.1250000  -0.4908782   0.0000000), wk =   0.0625000
        k(   11) = (   0.2500000   0.0000000   0.0000000), wk =   0.0625000
        k(   12) = (   0.2500000   0.1227195   0.0000000), wk =   0.1250000
        k(   13) = (   0.2500000   0.2454391   0.0000000), wk =   0.1250000
        k(   14) = (   0.2500000   0.3681586   0.0000000), wk =   0.1250000
        k(   15) = (   0.2500000  -0.4908782   0.0000000), wk =   0.0625000
        k(   16) = (   0.3750000   0.0000000   0.0000000), wk =   0.0625000
        k(   17) = (   0.3750000   0.1227195   0.0000000), wk =   0.1250000
        k(   18) = (   0.3750000   0.2454391   0.0000000), wk =   0.1250000
        k(   19) = (   0.3750000   0.3681586   0.0000000), wk =   0.1250000
        k(   20) = (   0.3750000  -0.4908782   0.0000000), wk =   0.0625000
        k(   21) = (  -0.5000000   0.0000000   0.0000000), wk =   0.0312500
        k(   22) = (  -0.5000000   0.1227195   0.0000000), wk =   0.0625000
        k(   23) = (  -0.5000000   0.2454391   0.0000000), wk =   0.0625000
        k(   24) = (  -0.5000000   0.3681586   0.0000000), wk =   0.0625000
        k(   25) = (  -0.5000000  -0.4908782   0.0000000), wk =   0.0312500

     Initial potential from superposition of free atoms

     starting charge  226.84630, renormalised to  227.00000

     negative rho (up, down):  3.558E-03 0.000E+00
     Starting wfcs are  195 randomized atomic wfcs

     Self-consistent Calculation

     iteration #  1     ecut=    60.00 Ry     beta= 0.50
     Davidson diagonalization with overlap
     ethr =  1.00E-02,  avg # of iterations =  2.0

     negative rho (up, down):  4.576E-04 0.000E+00

     total energy              =   -1840.91662563 Ry
     Harris-Foulkes estimate   =   -1845.39085510 Ry
     estimated scf accuracy    <      19.60528439 Ry

[...]

     iteration # 13     ecut=    60.00 Ry     beta= 0.50
     Davidson diagonalization with overlap
     c_bands:  1 eigenvalues not converged
     ethr =  7.79E-06,  avg # of iterations = 10.3

[...]

     End of self-consistent calculation

          k = 0.0000 0.0000 0.0000 ( 33829 PWs)   bands (ev):

   -35.3339 -35.3339 -22.3004 -22.3004 -22.2204 -22.1987 -16.8267 -16.8263
   -16.3897 -16.3897 -16.3721 -16.3721 -15.0035 -14.9999 -14.3776 -14.3046
   -14.2962 -14.2056 -14.2056 -13.7104 -13.7103 -13.5836 -13.5835 -13.5339
   -13.5331 -13.5274 -13.3826  -7.4312  -7.4250  -7.4038  -7.3680  -7.3680
    -7.3365  -7.2760  -7.2532  -7.2261  -7.2260  -7.1414  -7.1027  -2.0530
    -1.7660  -1.7659  -1.4990  -1.4989  -1.4444  -1.4435  -1.4117  -1.4100
    -1.3636  -1.3599  -1.1341  -1.1308  -0.7532  -0.6352  -0.5880  -0.4822
    -0.4822  -0.3719  -0.1480  -0.1480  -0.0684  -0.0684  -0.0651  -0.0639
    -0.0213  -0.0213   0.0415   0.0640   0.0640   0.1120   0.1813   0.2051
     0.2907   0.2908   0.3046   0.3053   0.3938   0.3952   0.3990   0.4026
     0.4163   0.4396   0.4442   0.4444   0.4886   0.4886   0.8588   0.8788
     0.8976   1.0703   1.1045   1.1573   1.1682   1.3763   1.3830   1.3844
     1.3851   1.5675   1.6404   1.6506   1.6508   1.7237   1.7848   1.8150
     1.8184   1.8294   1.8371   2.0641   2.1425   2.1644   2.2506   2.2519
     2.2572   2.2699   2.3209   2.3471   2.3783   2.4802   2.4912   5.2092
     5.2119   6.0795   6.4178   6.6570   7.1270   7.1321   7.5015   7.7311
     7.9325   7.9909   8.3789   8.5629   8.5816   8.7892   8.8571   9.0932
     9.4744

[...]

          k =-0.5000 0.0000 0.0000 ( 33842 PWs)   bands (ev):

[...]

     the Fermi energy is     2.7231 ev

!    total energy              =   -1842.86941687 Ry
[...]
Ca            1.9651139596        1.8611160999        5.8860044452
O             1.9651139596        0.0000000000        7.4847626718
O             0.0000000000        1.8611160999        7.3367526207
Cu            0.0000000000        0.0000000000        7.6688568359
Ba            1.9651139596        1.8611160999        9.5487745622
O             0.0000000000        0.0000000000        9.8708940944
Cu            0.0000000000        0.0000000000       11.7588565524
O             0.0000000000        1.8611160999       11.7586397795
O             0.0000000000        0.0000000000       13.6467815464
Ba            1.9651139596        1.8611160999       13.9688737310
Cu            0.0000000000        0.0000000000       15.8487090242
O             0.0000000000        1.8611160999       16.1808014858
O             1.9651139596        0.0000000000       16.0328093374
Ca            1.9651139596        1.8611160999       17.6315924534
O             1.9651139596        0.0000000000       19.2854757043
O             0.0000000000        1.8611160999       19.1483615702
Cu            0.0000000000        0.0000000000       19.4402822329
Ba            1.9651139596        1.8611160999       21.2811725528
O             0.0000000000        0.0000000000       21.5402790378
Cu            0.0000000000        0.0000000000       23.4135765480
O             0.0000000000        1.8611160999       23.7021314220
End final coordinates

     Final scf calculation at the relaxed structure.
     The G-vectors are recalculated for the final unit cell
     Results may differ from those at the preceding step.

     bravais-lattice index     =            0
     lattice parameter (alat)  =       7.1727  a.u.
     unit-cell volume          =    4302.3094 (a.u.)^3
     number of atoms/cell      =           28
     number of atomic types    =            4
     number of electrons       =       227.00
     number of Kohn-Sham states=          137
     kinetic-energy cutoff     =      60.0000  Ry
     charge density cutoff     =     720.0000  Ry
     convergence threshold     =      1.0E-10
     mixing beta               =       0.5000
     number of iterations used =           10  local-TF  mixing
     Exchange-correlation= SLA PW PBE PBE
                           (   1   4   3   4   0   0   0)

     celldm(1)=   7.172744  celldm(2)=   0.000000  celldm(3)=   0.000000
     celldm(4)=   0.000000  celldm(5)=   0.000000  celldm(6)=   0.000000

     crystal axes: (cart. coord. in units of alat)
               a(1) = (   1.035453   0.000000   0.000000 )
               a(2) = (   0.000000   0.980658   0.000000 )
               a(3) = (   0.000000   0.000000  11.481473 )

     reciprocal axes: (cart. coord. in units 2 pi/alat)
               b(1) = (  0.965761  0.000000  0.000000 )
               b(2) = (  0.000000  1.019723  0.000000 )
               b(3) = (  0.000000  0.000000  0.087097 )

     PseudoPot. # 1 for Ba read from file:
     ./pseudo/Ba.pbe-nsp-van.UPF
     MD5 check sum: 2b9c31dd849566dd297d80989662b7a0
     Pseudo is Ultrasoft + core correction, Zval = 10.0
     Generated by new atomic code, or converted to UPF format
     Using radial grid of  907 points,  6 beta functions with:
                l(1) =   0
                l(2) =   0
                l(3) =   1
                l(4) =   1
                l(5) =   2
                l(6) =   2
     Q(r) pseudized with  6 coefficients,  rinner =    1.200   1.200   1.200
                                                       1.200   1.200

     PseudoPot. # 2 for Ca read from file:
     ./pseudo/Ca.pbe-nsp-van.UPF
     MD5 check sum: 6471098428ff4fa451746d08035ff179
     Pseudo is Ultrasoft + core correction, Zval = 10.0
     Generated by new atomic code, or converted to UPF format
     Using radial grid of  845 points,  6 beta functions with:
                l(1) =   0
                l(2) =   0
                l(3) =   1
                l(4) =   1
                l(5) =   2
                l(6) =   2
     Q(r) pseudized with  6 coefficients,  rinner =    1.200   1.200   1.200
                                                       1.200   1.200

     PseudoPot. # 3 for Cu read from file:
     ./pseudo/Cu.pbe-n-van_ak.UPF
     MD5 check sum: 34e3282627ffb533726feb647e090d62
     Pseudo is Ultrasoft + core correction, Zval = 11.0
     Generated by new atomic code, or converted to UPF format
     Using radial grid of  867 points,  6 beta functions with:
                l(1) =   0
                l(2) =   0
                l(3) =   1
                l(4) =   1
                l(5) =   2
                l(6) =   2
     Q(r) pseudized with  8 coefficients,  rinner =    1.400   1.400   1.400
                                                       1.400   1.400

     PseudoPot. # 4 for O  read from file:
     ./pseudo/O.pbe-van_ak.UPF
     MD5 check sum: 783ce7fe4c79b6a4916957118fed0856
     Pseudo is Ultrasoft, Zval =  6.0
     Generated by new atomic code, or converted to UPF format
     Using radial grid of  737 points,  4 beta functions with:
                l(1) =   0
                l(2) =   0
                l(3) =   1
                l(4) =   1
     Q(r) pseudized with  8 coefficients,  rinner =    0.800   0.800   0.800

     atomic species   valence    mass     pseudopotential
        Ba            10.00   137.32700     Ba( 1.00)
        Ca            10.00    40.07800     Ca( 1.00)
        Cu            11.00    63.54600     Cu( 1.00)
        O              6.00    15.99900     O ( 1.00)

      4 Sym. Ops. (no inversion) found

   Cartesian axes

     site n.     atom                  positions (alat units)
         1           Cu  tau(   1) = (   0.0000000   0.0000000   0.0273947  )
         2           O   tau(   2) = (   0.0000000   0.4903284  -0.0486404  )
         3           O   tau(   3) = (   0.0000000   0.0000000   0.5209282  )
         4           Ba  tau(   4) = (   0.5177276   0.4903284   0.5892023  )
         5           Cu  tau(   5) = (   0.0000000   0.0000000   1.0742040  )
         6           O   tau(   6) = (   0.0000000   0.4903284   1.1511122  )
         7           O   tau(   7) = (   0.5177276   0.0000000   1.1149853  )
         8           Ca  tau(   8) = (   0.5177276   0.4903284   1.5507227  )
         9           O   tau(   9) = (   0.5177276   0.0000000   1.9719304  )
        10           O   tau(  10) = (   0.0000000   0.4903284   1.9329358  )
        11           Cu  tau(  11) = (   0.0000000   0.0000000   2.0204318  )
        12           Ba  tau(  12) = (   0.5177276   0.4903284   2.5157136  )
        13           O   tau(  13) = (   0.0000000   0.0000000   2.6005790  )
        14           Cu  tau(  14) = (   0.0000000   0.0000000   3.0979803  )
        15           O   tau(  15) = (   0.0000000   0.4903284   3.0979232  )
        16           O   tau(  16) = (   0.0000000   0.0000000   3.5953717  )
        17           Ba  tau(  17) = (   0.5177276   0.4903284   3.6802299  )
        18           Cu  tau(  18) = (   0.0000000   0.0000000   4.1754900  )
        19           O   tau(  19) = (   0.0000000   0.4903284   4.2629829  )
        20           O   tau(  20) = (   0.5177276   0.0000000   4.2239930  )
        21           Ca  tau(  21) = (   0.5177276   0.4903284   4.6452073  )
        22           O   tau(  22) = (   0.5177276   0.0000000   5.0809382  )
        23           O   tau(  23) = (   0.0000000   0.4903284   5.0448142  )
        24           Cu  tau(  24) = (   0.0000000   0.0000000   5.1217234  )
        25           Ba  tau(  25) = (   0.5177276   0.4903284   5.6067231  )
        26           O   tau(  26) = (   0.0000000   0.0000000   5.6749872  )
        27           Cu  tau(  27) = (   0.0000000   0.0000000   6.1685248  )
        28           O   tau(  28) = (   0.0000000   0.4903284   6.2445473  )

     number of k points=    25  Gaussian smearing, width (Ry)=  0.0100
                       cart. coord. in units 2pi/alat
        k(    1) = (   0.0000000   0.0000000   0.0000000), wk =   0.0312500
        k(    2) = (   0.0000000   0.1274654   0.0000000), wk =   0.0625000
        k(    3) = (   0.0000000   0.2549308   0.0000000), wk =   0.0625000
        k(    4) = (   0.0000000   0.3823962   0.0000000), wk =   0.0625000
        k(    5) = (   0.0000000  -0.5098617   0.0000000), wk =   0.0312500
        k(    6) = (   0.1207201   0.0000000   0.0000000), wk =   0.0625000
        k(    7) = (   0.1207201   0.1274654   0.0000000), wk =   0.1250000
        k(    8) = (   0.1207201   0.2549308   0.0000000), wk =   0.1250000
        k(    9) = (   0.1207201   0.3823962   0.0000000), wk =   0.1250000
        k(   10) = (   0.1207201  -0.5098617   0.0000000), wk =   0.0625000
        k(   11) = (   0.2414402   0.0000000   0.0000000), wk =   0.0625000
        k(   12) = (   0.2414402   0.1274654   0.0000000), wk =   0.1250000
        k(   13) = (   0.2414402   0.2549308   0.0000000), wk =   0.1250000
        k(   14) = (   0.2414402   0.3823962   0.0000000), wk =   0.1250000
        k(   15) = (   0.2414402  -0.5098617   0.0000000), wk =   0.0625000
        k(   16) = (   0.3621603   0.0000000   0.0000000), wk =   0.0625000
        k(   17) = (   0.3621603   0.1274654   0.0000000), wk =   0.1250000
        k(   18) = (   0.3621603   0.2549308   0.0000000), wk =   0.1250000
        k(   19) = (   0.3621603   0.3823962   0.0000000), wk =   0.1250000
        k(   20) = (   0.3621603  -0.5098617   0.0000000), wk =   0.0625000
        k(   21) = (  -0.4828804   0.0000000   0.0000000), wk =   0.0312500
        k(   22) = (  -0.4828804   0.1274654   0.0000000), wk =   0.0625000
        k(   23) = (  -0.4828804   0.2549308   0.0000000), wk =   0.0625000
        k(   24) = (  -0.4828804   0.3823962   0.0000000), wk =   0.0625000
        k(   25) = (  -0.4828804  -0.5098617   0.0000000), wk =   0.0312500

     Initial potential from superposition of free atoms

     starting charge  226.84630, renormalised to  227.00000

     negative rho (up, down):  3.596E-03 0.000E+00
     Starting wfcs are  195 randomized atomic wfcs

     Self-consistent Calculation

[...]

     iteration # 21     ecut=    60.00 Ry     beta= 0.50
     Davidson diagonalization with overlap
     c_bands:  1 eigenvalues not converged
     c_bands:  2 eigenvalues not converged
     ethr =  1.89E-08,  avg # of iterations =  8.1

[...]

     total energy              =   -1842.90350019 Ry
     Harris-Foulkes estimate   =   -1842.90350019 Ry
     estimated scf accuracy    <          1.9E-10 Ry

     iteration # 35     ecut=    60.00 Ry     beta= 0.50
     Davidson diagonalization with overlap
     ethr =  1.00E-13,  avg # of iterations =  1.6

[...]

     End of self-consistent calculation

[...]

          k = 0.3622-0.5099 0.0000 ( 33784 PWs)   bands (ev):

[...]

          k =-0.4829-0.5099 0.0000 ( 33876 PWs)   bands (ev):

   -35.4573 -35.4572 -22.4091 -22.4091 -22.1605 -22.1507 -16.9032 -16.9031
   -16.8941 -16.8940 -16.5176 -16.5175 -14.5046 -14.5046 -14.3299 -14.3286
   -14.1570 -14.1569 -14.1568 -13.9874 -13.9838 -13.9450 -13.9448 -13.9227
   -13.8237 -13.8235 -13.7374  -8.6420  -8.6420  -8.3887  -8.3741  -8.3741
    -8.3668  -8.1422  -7.9396  -7.9079  -7.9070  -7.7862  -7.5827  -3.9843
    -3.9743  -3.6835  -3.6286  -3.4727  -3.0523  -3.0522  -2.6255  -2.6255
    -2.4686  -2.4509  -2.1916  -2.1776  -2.1775  -2.1533  -2.0974  -1.8764
    -1.8043  -1.5883  -1.2419  -1.2379  -1.1156  -1.0641  -1.0588  -0.9138
    -0.9129  -0.8735  -0.8734  -0.8448  -0.7815  -0.7656  -0.6999  -0.6796
    -0.4253  -0.2207  -0.2206   0.3297   0.4229   0.5100   0.8669   0.9698
     1.2322   1.3597   1.4529   1.4607   1.4706   1.4768   1.5077   1.5227
     1.5467   1.7308   1.7416   1.7563   1.7902   1.7972   1.9410   1.9846
     1.9981   2.0111   2.1057   2.1260   2.1635   2.1881   2.2511   2.2669
     2.3043   2.3233   2.4493   2.4493   2.5132   2.5375   2.5408   2.6461
     2.6613   2.6657   4.3533   4.8130   4.8295   4.8832   4.8986   5.5903
     6.0811   6.0813   7.1960   7.2625   8.9906   9.1344   9.1455   9.1898
     9.2200   9.2736   9.6550   9.7011   9.8384   9.8914  10.0037  10.0998
    10.3571

     the Fermi energy is     2.6763 ev

!    total energy              =   -1842.90350019 Ry
     Harris-Foulkes estimate   =   -1842.90350019 Ry
     estimated scf accuracy    <          3.9E-11 Ry

     The total energy is the sum of the following terms:

     one-electron contribution =  -30975.73796912 Ry
     hartree contribution      =   15642.01372455 Ry
     xc contribution           =    -621.84707623 Ry
     ewald contribution        =   14112.67583544 Ry
     smearing contrib. (-TS)   =      -0.00801483 Ry

     convergence has been achieved in  35 iterations

     negative rho (up, down):  1.519E-03 0.000E+00

     Forces acting on atoms (cartesian axes, Ry/au):

     atom    1 type  3   force =     0.00000000    0.00000000    0.00038695
     atom    2 type  4   force =     0.00000000    0.00000000   -0.00014847
     atom    3 type  4   force =     0.00000000    0.00000000   -0.00076335
     atom    4 type  1   force =     0.00000000    0.00000000   -0.00028367
     atom    5 type  3   force =     0.00000000    0.00000000    0.00055316
     atom    6 type  4   force =     0.00000000    0.00000000    0.00034113
     atom    7 type  4   force =     0.00000000    0.00000000   -0.00002817
     atom    8 type  2   force =     0.00000000    0.00000000   -0.00059837
     atom    9 type  4   force =     0.00000000    0.00000000    0.00016944
     atom   10 type  4   force =     0.00000000    0.00000000    0.00027474
     atom   11 type  3   force =     0.00000000    0.00000000    0.00024008
     atom   12 type  1   force =     0.00000000    0.00000000    0.00028610
     atom   13 type  4   force =     0.00000000    0.00000000    0.00086732
     atom   14 type  3   force =     0.00000000    0.00000000    0.00000218
     atom   15 type  4   force =     0.00000000    0.00000000   -0.00000411
     atom   16 type  4   force =     0.00000000    0.00000000   -0.00087389
     atom   17 type  1   force =     0.00000000    0.00000000   -0.00028130
     atom   18 type  3   force =     0.00000000    0.00000000   -0.00023752
     atom   19 type  4   force =     0.00000000    0.00000000   -0.00027406
     atom   20 type  4   force =     0.00000000    0.00000000   -0.00016836
     atom   21 type  2   force =     0.00000000    0.00000000    0.00059749
     atom   22 type  4   force =     0.00000000    0.00000000    0.00002534
     atom   23 type  4   force =     0.00000000    0.00000000   -0.00034261
     atom   24 type  3   force =     0.00000000    0.00000000   -0.00055151
     atom   25 type  1   force =     0.00000000    0.00000000    0.00028381
     atom   26 type  4   force =     0.00000000    0.00000000    0.00076047
     atom   27 type  3   force =     0.00000000    0.00000000   -0.00039024
     atom   28 type  4   force =     0.00000000    0.00000000    0.00015743

     Total force =     0.002287     Total SCF correction =     0.000023

     Computing stress (Cartesian axis) and pressure

     negative rho (up, down):  1.519E-03 0.000E+00
          total   stress  (Ry/bohr**3)                   (kbar)     P=        0.20
   0.00000410   0.00000000   0.00000000            0.60        0.00        0.00
   0.00000000   0.00000150   0.00000000            0.00        0.22        0.00
   0.00000000   0.00000000  -0.00000156            0.00        0.00       -0.23

     General routines

     Parallel routines

   This run was terminated on:  23:41:59  20May2021

   JOB DONE.
[1621568519.470263] [holy7c02501:226752:0]          mpool.c:43   UCX  WARN  object 0x29fa940 was not returned to mpool ucp_requests
[1621568519.470203] [holy7c02501:226756:0]          mpool.c:43   UCX  WARN  object 0x2b97780 was not returned to mpool ucp_requests
[1621568519.470000] [holy7c02501:226760:0]          mpool.c:43   UCX  WARN  object 0x4526740 was not returned to mpool ucp_requests
[1621568519.470025] [holy7c02501:226760:0]          mpool.c:43   UCX  WARN  object 0x4526900 was not returned to mpool ucp_requests
[1621568519.470184] [holy7c02502:204975:0]          mpool.c:43   UCX  WARN  object 0x2f78e80 was not returned to mpool ucp_requests
[1621568519.470213] [holy7c02502:204975:0]          mpool.c:43   UCX  WARN  object 0x2f793c0 was not returned to mpool ucp_requests
[1621568519.481944] [holy7c02501:226761:0]          mpool.c:43   UCX  WARN  object 0x47a8480 was not returned to mpool ucp_requests
[1621568519.482046] [holy7c02501:226751:0]          mpool.c:43   UCX  WARN  object 0x3ef1000 was not returned to mpool ucp_requests
[1621568519.482076] [holy7c02501:226751:0]          mpool.c:43   UCX  WARN  object 0x3ef1700 was not returned to mpool ucp_requests