     Program PWSCF v.6.5 starts on 21May2021 at 11:46:15

     R & G space division:  proc/nbgrp/npool/nimage =      20
     Reading input from CBCO_Y_cleave_7.0_sep.pwi
Warning: card &IONS ignored
Warning: card     ION_DYNAMICS = 'BFGS' ignored
Warning: card / ignored
Warning: card &CELL ignored
Warning: card     CELL_DYNAMICS = 'BFGS' ignored
Warning: card     PRESS_CONV_THR = 5 ignored
Warning: card / ignored

     Current dimensions of program PWSCF are:
     Max number of different atomic species (ntypx) = 10
     Max number of k-points (npk) =  40000
     Max angular momentum in pseudopotentials (lmaxx) =  3

     Message from routine setup:
     using ibrav=0 with symmetry is DISCOURAGED, use correct ibrav instead

     bravais-lattice index     =            0
     lattice parameter (alat)  =       7.4270  a.u.
     unit-cell volume          =    4993.3692 (a.u.)^3
     number of atoms/cell      =           28
     number of atomic types    =            4
     number of electrons       =       227.00
     number of Kohn-Sham states=          137
     kinetic-energy cutoff     =      60.0000  Ry
     charge density cutoff     =     720.0000  Ry
     convergence threshold     =      1.0E-08
     mixing beta               =       0.5000
     number of iterations used =           10  local-TF  mixing
     Exchange-correlation= SLA PW PBE PBE
                           (   1   4   3   4   0   0   0)

     celldm(1)=   7.427040  celldm(2)=   0.000000  celldm(3)=   0.000000
     celldm(4)=   0.000000  celldm(5)=   0.000000  celldm(6)=   0.000000

     crystal axes: (cart. coord. in units of alat)
               a(1) = (   1.000000   0.000000   0.000000 )
               a(2) = (   0.000000   0.947081   0.000000 )
               a(3) = (   0.000000   0.000000  12.869427 )

     reciprocal axes: (cart. coord. in units 2 pi/alat)
               b(1) = (  1.000000  0.000000  0.000000 )
               b(2) = (  0.000000  1.055876  0.000000 )
               b(3) = (  0.000000  0.000000  0.077704 )

     PseudoPot. # 1 for Ba read from file:
     ./pseudo/Ba.pbe-nsp-van.UPF
     MD5 check sum: 2b9c31dd849566dd297d80989662b7a0
     Pseudo is Ultrasoft + core correction, Zval = 10.0
     Generated by new atomic code, or converted to UPF format
     Using radial grid of  907 points,  6 beta functions with:
                l(1) =   0
                l(2) =   0
                l(3) =   1
                l(4) =   1
                l(5) =   2
                l(6) =   2
     Q(r) pseudized with  6 coefficients,  rinner =    1.200   1.200   1.200
                                                       1.200   1.200

     PseudoPot. # 2 for Ca read from file:
     ./pseudo/Ca.pbe-nsp-van.UPF
     MD5 check sum: 6471098428ff4fa451746d08035ff179
     Pseudo is Ultrasoft + core correction, Zval = 10.0
     Generated by new atomic code, or converted to UPF format
     Using radial grid of  845 points,  6 beta functions with:
                l(1) =   0
                l(2) =   0
                l(3) =   1
                l(4) =   1
                l(5) =   2
                l(6) =   2
     Q(r) pseudized with  6 coefficients,  rinner =    1.200   1.200   1.200
                                                       1.200   1.200

     PseudoPot. # 3 for Cu read from file:
     ./pseudo/Cu.pbe-n-van_ak.UPF
     MD5 check sum: 34e3282627ffb533726feb647e090d62
     Pseudo is Ultrasoft + core correction, Zval = 11.0
     Generated by new atomic code, or converted to UPF format
     Using radial grid of  867 points,  6 beta functions with:
                l(1) =   0
                l(2) =   0
                l(3) =   1
                l(4) =   1
                l(5) =   2
                l(6) =   2
     Q(r) pseudized with  8 coefficients,  rinner =    1.400   1.400   1.400
                                                       1.400   1.400

     PseudoPot. # 4 for O  read from file:
     ./pseudo/O.pbe-van_ak.UPF
     MD5 check sum: 783ce7fe4c79b6a4916957118fed0856
     Pseudo is Ultrasoft, Zval =  6.0
     Generated by new atomic code, or converted to UPF format
     Using radial grid of  737 points,  4 beta functions with:
                l(1) =   0
                l(2) =   0
                l(3) =   1
                l(4) =   1
     Q(r) pseudized with  8 coefficients,  rinner =    0.800   0.800   0.800

     atomic species   valence    mass     pseudopotential
        Ba            10.00   137.32700     Ba( 1.00)
        Ca            10.00    40.07800     Ca( 1.00)
        Cu            11.00    63.54600     Cu( 1.00)
        O              6.00    15.99900     O ( 1.00)

      4 Sym. Ops. (no inversion) found

   Cartesian axes

     site n.     atom                  positions (alat units)
         1           O   tau(   1) = (   0.0000000   0.4735409  -0.0469745  )
         2           Cu  tau(   2) = (   0.0000000   0.0000000   0.0264565  )
         3           O   tau(   3) = (   0.0000000   0.0000000   0.5030914  )
         4           Ba  tau(   4) = (   0.5000000   0.4735409   0.5690292  )
         5           Cu  tau(   5) = (   0.0000000   0.0000000   1.0374254  )
         6           O   tau(   6) = (   0.5000000   0.0000000   1.0768099  )
         7           O   tau(   7) = (   0.0000000   0.4735409   1.1116985  )
         8           Ca  tau(   8) = (   0.5000000   0.4735409   1.4976260  )
         9           O   tau(   9) = (   0.0000000   0.4735409   1.8667529  )
        10           O   tau(  10) = (   0.5000000   0.0000000   1.9044124  )
        11           Cu  tau(  11) = (   0.0000000   0.0000000   1.9512546  )
        12           Ba  tau(  12) = (   0.5000000   0.4735409   2.4295764  )
        13           O   tau(  13) = (   0.0000000   0.0000000   2.5115362  )
        14           O   tau(  14) = (   0.0000000   0.4735409   2.9918528  )
        15           Cu  tau(  15) = (   0.0000000   0.0000000   2.9919088  )
        16           O   tau(  16) = (   0.0000000   0.0000000   3.4722686  )
        17           Ba  tau(  17) = (   0.5000000   0.4735409   3.5542208  )
        18           Cu  tau(  18) = (   0.0000000   0.0000000   4.0325248  )
        19           O   tau(  19) = (   0.5000000   0.0000000   4.0793669  )
        20           O   tau(  20) = (   0.0000000   0.4735409   4.1170213  )
        21           Ca  tau(  21) = (   0.5000000   0.4735409   4.4861584  )
        22           O   tau(  22) = (   0.0000000   0.4735409   6.6531541  )
        23           O   tau(  23) = (   0.5000000   0.0000000   6.6880427  )
        24           Cu  tau(  24) = (   0.0000000   0.0000000   6.7274298  )
        25           Ba  tau(  25) = (   0.5000000   0.4735409   7.1958234  )
        26           O   tau(  26) = (   0.0000000   0.0000000   7.2617510  )
        27           Cu  tau(  27) = (   0.0000000   0.0000000   7.7383910  )
        28           O   tau(  28) = (   0.0000000   0.4735409   7.8118093  )

     number of k points=    25  Gaussian smearing, width (Ry)=  0.0100
                       cart. coord. in units 2pi/alat
        k(    1) = (   0.0000000   0.0000000   0.0000000), wk =   0.0312500
        k(    2) = (   0.0000000   0.1319845   0.0000000), wk =   0.0625000
        k(    3) = (   0.0000000   0.2639689   0.0000000), wk =   0.0625000
        k(    4) = (   0.0000000   0.3959534   0.0000000), wk =   0.0625000
        k(    5) = (   0.0000000  -0.5279378   0.0000000), wk =   0.0312500
        k(    6) = (   0.1250000   0.0000000   0.0000000), wk =   0.0625000
        k(    7) = (   0.1250000   0.1319845   0.0000000), wk =   0.1250000
        k(    8) = (   0.1250000   0.2639689   0.0000000), wk =   0.1250000
        k(    9) = (   0.1250000   0.3959534   0.0000000), wk =   0.1250000
        k(   10) = (   0.1250000  -0.5279378   0.0000000), wk =   0.0625000
        k(   11) = (   0.2500000   0.0000000   0.0000000), wk =   0.0625000
        k(   12) = (   0.2500000   0.1319845   0.0000000), wk =   0.1250000
        k(   13) = (   0.2500000   0.2639689   0.0000000), wk =   0.1250000
        k(   14) = (   0.2500000   0.3959534   0.0000000), wk =   0.1250000
        k(   15) = (   0.2500000  -0.5279378   0.0000000), wk =   0.0625000
        k(   16) = (   0.3750000   0.0000000   0.0000000), wk =   0.0625000
        k(   17) = (   0.3750000   0.1319845   0.0000000), wk =   0.1250000
        k(   18) = (   0.3750000   0.2639689   0.0000000), wk =   0.1250000
        k(   19) = (   0.3750000   0.3959534   0.0000000), wk =   0.1250000
        k(   20) = (   0.3750000  -0.5279378   0.0000000), wk =   0.0625000
        k(   21) = (  -0.5000000   0.0000000   0.0000000), wk =   0.0312500
        k(   22) = (  -0.5000000   0.1319845   0.0000000), wk =   0.0625000
        k(   23) = (  -0.5000000   0.2639689   0.0000000), wk =   0.0625000
        k(   24) = (  -0.5000000   0.3959534   0.0000000), wk =   0.0625000
        k(   25) = (  -0.5000000  -0.5279378   0.0000000), wk =   0.0312500

     Initial potential from superposition of free atoms

     starting charge  226.84630, renormalised to  227.00000

     negative rho (up, down):  3.368E-03 0.000E+00
     Starting wfcs are  195 randomized atomic wfcs

     Self-consistent Calculation

     iteration #  1     ecut=    60.00 Ry     beta= 0.50
     Davidson diagonalization with overlap
     ethr =  1.00E-02,  avg # of iterations =  2.0

     negative rho (up, down):  4.834E-04 0.000E+00

     total energy              =   -1840.99041122 Ry
     Harris-Foulkes estimate   =   -1845.32432210 Ry
     estimated scf accuracy    <      17.40370946 Ry

[...]

     iteration # 19     ecut=    60.00 Ry     beta= 0.50
     Davidson diagonalization with overlap
     c_bands:  1 eigenvalues not converged
     c_bands:  1 eigenvalues not converged
     c_bands:  1 eigenvalues not converged
     ethr =  5.21E-06,  avg # of iterations =  6.0

[...]

     iteration # 20     ecut=    60.00 Ry     beta= 0.50
     Davidson diagonalization with overlap
     c_bands:  1 eigenvalues not converged
     c_bands:  1 eigenvalues not converged
     ethr =  4.09E-06,  avg # of iterations =  9.8

[...]

     total energy              =   -1842.61353007 Ry
     Harris-Foulkes estimate   =   -1842.61353007 Ry
     estimated scf accuracy    <       0.00000001 Ry

     iteration # 38     ecut=    60.00 Ry     beta= 0.50
     Davidson diagonalization with overlap
     ethr =  6.53E-12,  avg # of iterations =  1.0

[...]

     End of self-consistent calculation

          k = 0.0000 0.0000 0.0000 ( 39281 PWs)   bands (ev):

   -39.3955 -36.3994 -23.6324 -23.6040 -23.3437 -23.3394 -20.5156 -20.3730
   -20.3619 -17.9038 -17.4506 -17.4392 -16.4993 -16.1142 -15.6691 -15.5664
   -15.4842 -15.3896 -15.3849 -15.3529 -14.9942 -14.9213 -14.7948 -14.6363
   -14.5885 -14.4612 -14.2471  -8.8462  -8.7353  -8.6978  -8.6578  -8.5248
    -8.5049  -8.5039  -8.4549  -8.4034  -8.3886  -8.2531  -8.2225  -3.1428
    -3.1142  -3.1033  -3.0547  -3.0247  -2.6426  -2.5790  -2.5787  -2.4809
    -2.3515  -2.2964  -2.0845  -2.0329  -1.9628  -1.9185  -1.8656  -1.7300
    -1.6718  -1.4338  -1.4269  -1.2714  -1.1893  -1.1810  -1.1222  -1.0893
    -1.0834  -1.0774  -1.0629  -1.0575  -1.0333  -0.9985  -0.9789  -0.9711
    -0.9226  -0.8886  -0.8499  -0.7678  -0.7489  -0.7166  -0.7139  -0.7138
    -0.6545  -0.6442  -0.6393  -0.5427  -0.5040  -0.4965  -0.4891  -0.4199
    -0.3086  -0.0851  -0.0134   0.0416   0.0693   0.1460   0.1471   0.1700
     0.3132   0.3712   0.4644   0.5364   0.5540   0.6535   0.7097   0.7176
     0.8346   0.8946   0.9473   0.9591   1.0144   1.0765   1.2205   1.2477
     1.3279   1.4041   1.4418   1.4521   1.4603   1.5705   1.7233   1.8292
     3.9616   4.4046   4.5147   5.0233   5.1993   5.5471   5.9513   6.0840
     6.2152   6.3332   6.3359   6.4312   6.5059   6.5536   7.1566   7.1994
     7.3933

[...]

          k = 0.3750-0.5279 0.0000 ( 39212 PWs)   bands (ev):

[...]

          k =-0.5000 0.0000 0.0000 ( 39178 PWs)   bands (ev):

[...]

          k =-0.5000-0.5279 0.0000 ( 39284 PWs)   bands (ev):

   -39.3801 -36.3798 -23.3712 -23.3311 -23.0810 -23.0637 -20.5546 -20.4983
   -20.4026 -17.8257 -17.8165 -17.4400 -15.7796 -15.6215 -15.4265 -15.3558
   -15.2513 -15.0802 -15.0789 -14.9078 -14.8809 -14.8667 -14.8351 -14.7910
   -14.7456 -14.6906 -14.5325  -9.5913  -9.5640  -9.3038  -9.2976  -9.2961
    -9.2632  -9.0527  -8.9629  -8.9321  -8.8291  -8.5833  -8.4967  -5.1545
    -4.9008  -4.5816  -4.4177  -4.2995  -3.9741  -3.9001  -3.6138  -3.5474
    -3.4030  -3.3821  -3.3427  -3.0995  -3.0904  -3.0589  -2.9933  -2.7639
    -2.5575  -2.4918  -2.1641  -2.1296  -2.0756  -2.0677  -2.0051  -1.9831
    -1.8354  -1.8000  -1.7953  -1.7268  -1.6965  -1.6603  -1.6148  -1.4265
    -1.3831  -1.1426  -1.0603  -0.5843  -0.4534  -0.3185  -0.0841   0.0870
     0.2720   0.3825   0.4176   0.4443   0.5054   0.5299   0.5521   0.5947
     0.6565   0.7707   0.7986   0.8211   0.8441   0.8927   1.0219   1.0371
     1.0482   1.1044   1.1318   1.2411   1.2623   1.3043   1.3272   1.3890
     1.4745   1.5275   1.5392   1.5621   1.5869   1.6170   1.7192   1.7310
     1.8905   2.1662   3.1644   3.6751   3.8899   3.9519   4.0114   4.1213
     4.1822   4.4267   4.5851   5.1597   5.3018   5.4962   6.3060   7.2087
     7.7093   7.7479   7.8795   8.0240   8.2229   8.2831   8.3363   8.5054
     8.6341

     the Fermi energy is     1.7545 ev

!    total energy              =   -1842.61353006 Ry
     Harris-Foulkes estimate   =   -1842.61353007 Ry
     estimated scf accuracy    <          8.5E-09 Ry

     The total energy is the sum of the following terms:

     one-electron contribution =  -28109.00489355 Ry
     hartree contribution      =   14199.80316522 Ry
     xc contribution           =    -621.41462299 Ry
     ewald contribution        =   12688.01097274 Ry
     smearing contrib. (-TS)   =      -0.00815148 Ry

     convergence has been achieved in  38 iterations

     negative rho (up, down):  1.427E-03 0.000E+00

     Forces acting on atoms (cartesian axes, Ry/au):

     atom    1 type  4   force =     0.00000000    0.00000000   -0.00018811
     atom    2 type  3   force =     0.00000000    0.00000000    0.00025486
     atom    3 type  4   force =     0.00000000    0.00000000   -0.00079018
     atom    4 type  1   force =     0.00000000    0.00000000   -0.00029791
     atom    5 type  3   force =     0.00000000    0.00000000    0.00057512
     atom    6 type  4   force =     0.00000000    0.00000000   -0.00001762
     atom    7 type  4   force =     0.00000000    0.00000000    0.00032555
     atom    8 type  2   force =     0.00000000    0.00000000   -0.00061662
     atom    9 type  4   force =     0.00000000    0.00000000    0.00027346
     atom   10 type  4   force =     0.00000000    0.00000000    0.00034191
     atom   11 type  3   force =     0.00000000    0.00000000    0.00020816
     atom   12 type  1   force =     0.00000000    0.00000000    0.00015493
     atom   13 type  4   force =     0.00000000    0.00000000    0.00312004
     atom   14 type  4   force =     0.00000000    0.00000000    0.00344125
     atom   15 type  3   force =     0.00000000    0.00000000   -0.00592752
     atom   16 type  4   force =     0.00000000    0.00000000    0.00469883
     atom   17 type  1   force =     0.00000000    0.00000000   -0.01772257
     atom   18 type  3   force =     0.00000000    0.00000000    0.00903144
     atom   19 type  4   force =     0.00000000    0.00000000    0.05133796
     atom   20 type  4   force =     0.00000000    0.00000000    0.05895090
     atom   21 type  2   force =     0.00000000    0.00000000   -0.10603139
     atom   22 type  4   force =     0.00000000    0.00000000    0.01849303
     atom   23 type  4   force =     0.00000000    0.00000000    0.02558730
     atom   24 type  3   force =     0.00000000    0.00000000   -0.02273615
     atom   25 type  1   force =     0.00000000    0.00000000   -0.01880802
     atom   26 type  4   force =     0.00000000    0.00000000   -0.00525142
     atom   27 type  3   force =     0.00000000    0.00000000    0.00329175
     atom   28 type  4   force =     0.00000000    0.00000000   -0.00169899

     Total force =     0.140494     Total SCF correction =     0.000440

     Computing stress (Cartesian axis) and pressure

     negative rho (up, down):  1.427E-03 0.000E+00
          total   stress  (Ry/bohr**3)                   (kbar)     P=       -5.59
  -0.00002683   0.00000000   0.00000000           -3.95        0.00        0.00
   0.00000000  -0.00000883   0.00000000            0.00       -1.30        0.00
   0.00000000   0.00000000  -0.00007842            0.00        0.00      -11.54

     General routines

     Parallel routines

   This run was terminated on:  11:58: 3  21May2021

   JOB DONE.
[1621612683.258742] [holy7c04210:132271:0]          mpool.c:43   UCX  WARN  object 0x43bc6c0 was not returned to mpool ucp_requests
[1621612683.258756] [holy7c04210:132271:0]          mpool.c:43   UCX  WARN  object 0x43bc880 was not returned to mpool ucp_requests
[1621612683.259024] [holy7c04501:10085:0]          mpool.c:43   UCX  WARN  object 0x422b2c0 was not returned to mpool ucp_requests
[1621612683.259042] [holy7c04501:10085:0]          mpool.c:43   UCX  WARN  object 0x422b640 was not returned to mpool ucp_requests
[1621612683.264144] [holy7c02502:277055:0]          mpool.c:43   UCX  WARN  object 0x31f7940 was not returned to mpool ucp_requests
[1621612683.268199] [holy7c04309:176635:0]          mpool.c:43   UCX  WARN  object 0x471c740 was not returned to mpool ucp_requests
[1621612683.272175] [holy7c02502:277056:0]          mpool.c:43   UCX  WARN  object 0x3b6e3c0 was not returned to mpool ucp_requests
[1621612683.268167] [holy7c04309:176637:0]          mpool.c:43   UCX  WARN  object 0x2d01380 was not returned to mpool ucp_requests
[1621612683.268183] [holy7c04309:176637:0]          mpool.c:43   UCX  WARN  object 0x2d01700 was not returned to mpool ucp_requests
[1621612683.269300] [holy7c04309:176638:0]          mpool.c:43   UCX  WARN  object 0x4432840 was not returned to mpool ucp_requests