     Program PWSCF v.6.5 starts on 21May2021 at 23: 8:37

     R & G space division:  proc/nbgrp/npool/nimage =      20
     Reading input from CBCO_BaO_cleave_0.75_sep.pwi
Warning: card &IONS ignored
Warning: card     ION_DYNAMICS = 'BFGS' ignored
Warning: card / ignored
Warning: card &CELL ignored
Warning: card     CELL_DYNAMICS = 'BFGS' ignored
Warning: card     PRESS_CONV_THR = 5 ignored
Warning: card / ignored

     Current dimensions of program PWSCF are:
     Max number of different atomic species (ntypx) = 10
     Max number of k-points (npk) =  40000
     Max angular momentum in pseudopotentials (lmaxx) =  3

     Message from routine setup:
     using ibrav=0 with symmetry is DISCOURAGED, use correct ibrav instead

     bravais-lattice index     =            0
     lattice parameter (alat)  =       7.4270  a.u.
     unit-cell volume          =    4376.3515 (a.u.)^3
     number of atoms/cell      =           28
     number of atomic types    =            4
     number of electrons       =       227.00
     number of Kohn-Sham states=          137
     kinetic-energy cutoff     =      60.0000  Ry
     charge density cutoff     =     720.0000  Ry
     convergence threshold     =      1.0E-08
     mixing beta               =       0.5000
     number of iterations used =           10  local-TF  mixing
     Exchange-correlation= SLA PW PBE PBE
                           (   1   4   3   4   0   0   0)

     celldm(1)=   7.427040  celldm(2)=   0.000000  celldm(3)=   0.000000
     celldm(4)=   0.000000  celldm(5)=   0.000000  celldm(6)=   0.000000

     crystal axes: (cart. coord. in units of alat)
               a(1) = (   1.000000   0.000000   0.000000 )
               a(2) = (   0.000000   0.947081   0.000000 )
               a(3) = (   0.000000   0.000000  11.279186 )

     reciprocal axes: (cart. coord. in units 2 pi/alat)
               b(1) = (  1.000000  0.000000  0.000000 )
               b(2) = (  0.000000  1.055876  0.000000 )
               b(3) = (  0.000000  0.000000  0.088659 )

     PseudoPot. # 1 for Ba read from file:
     ./pseudo/Ba.pbe-nsp-van.UPF
     MD5 check sum: 2b9c31dd849566dd297d80989662b7a0
     Pseudo is Ultrasoft + core correction, Zval = 10.0
     Generated by new atomic code, or converted to UPF format
     Using radial grid of  907 points,  6 beta functions with:
                l(1) =   0
                l(2) =   0
                l(3) =   1
                l(4) =   1
                l(5) =   2
                l(6) =   2
     Q(r) pseudized with  6 coefficients,  rinner =    1.200   1.200   1.200
                                                       1.200   1.200

     PseudoPot. # 2 for Ca read from file:
     ./pseudo/Ca.pbe-nsp-van.UPF
     MD5 check sum: 6471098428ff4fa451746d08035ff179
     Pseudo is Ultrasoft + core correction, Zval = 10.0
     Generated by new atomic code, or converted to UPF format
     Using radial grid of  845 points,  6 beta functions with:
                l(1) =   0
                l(2) =   0
                l(3) =   1
                l(4) =   1
                l(5) =   2
                l(6) =   2
     Q(r) pseudized with  6 coefficients,  rinner =    1.200   1.200   1.200
                                                       1.200   1.200

     PseudoPot. # 3 for Cu read from file:
     ./pseudo/Cu.pbe-n-van_ak.UPF
     MD5 check sum: 34e3282627ffb533726feb647e090d62
     Pseudo is Ultrasoft + core correction, Zval = 11.0
     Generated by new atomic code, or converted to UPF format
     Using radial grid of  867 points,  6 beta functions with:
                l(1) =   0
                l(2) =   0
                l(3) =   1
                l(4) =   1
                l(5) =   2
                l(6) =   2
     Q(r) pseudized with  8 coefficients,  rinner =    1.400   1.400   1.400
                                                       1.400   1.400

     PseudoPot. # 4 for O  read from file:
     ./pseudo/O.pbe-van_ak.UPF
     MD5 check sum: 783ce7fe4c79b6a4916957118fed0856
     Pseudo is Ultrasoft, Zval =  6.0
     Generated by new atomic code, or converted to UPF format
     Using radial grid of  737 points,  4 beta functions with:
                l(1) =   0
                l(2) =   0
                l(3) =   1
                l(4) =   1
     Q(r) pseudized with  8 coefficients,  rinner =    0.800   0.800   0.800

     atomic species   valence    mass     pseudopotential
        Ba            10.00   137.32700     Ba( 1.00)
        Ca            10.00    40.07800     Ca( 1.00)
        Cu            11.00    63.54600     Cu( 1.00)
        O              6.00    15.99900     O ( 1.00)

      4 Sym. Ops. (no inversion) found

   Cartesian axes

     site n.     atom                  positions (alat units)
         1           O   tau(   1) = (   0.0000000   0.4735409  -0.0469745  )
         2           Cu  tau(   2) = (   0.0000000   0.0000000   0.0264565  )
         3           O   tau(   3) = (   0.0000000   0.0000000   0.5030914  )
         4           Ba  tau(   4) = (   0.5000000   0.4735409   0.5690292  )
         5           Cu  tau(   5) = (   0.0000000   0.0000000   1.0374254  )
         6           O   tau(   6) = (   0.5000000   0.0000000   1.0768099  )
         7           O   tau(   7) = (   0.0000000   0.4735409   1.1116985  )
         8           Ca  tau(   8) = (   0.5000000   0.4735409   1.4976260  )
         9           O   tau(   9) = (   0.0000000   0.4735409   1.8667529  )
        10           O   tau(  10) = (   0.5000000   0.0000000   1.9044124  )
        11           Cu  tau(  11) = (   0.0000000   0.0000000   1.9512546  )
        12           Ba  tau(  12) = (   0.5000000   0.4735409   2.4295764  )
        13           O   tau(  13) = (   0.0000000   0.0000000   2.5115362  )
        14           O   tau(  14) = (   0.0000000   0.4735409   2.9918528  )
        15           Cu  tau(  15) = (   0.0000000   0.0000000   2.9919088  )
        16           O   tau(  16) = (   0.0000000   0.0000000   3.4722686  )
        17           Ba  tau(  17) = (   0.5000000   0.4735409   3.5542208  )
        18           Cu  tau(  18) = (   0.0000000   0.0000000   4.2233538  )
        19           O   tau(  19) = (   0.5000000   0.0000000   4.2701959  )
        20           O   tau(  20) = (   0.0000000   0.4735409   4.3078503  )
        21           Ca  tau(  21) = (   0.5000000   0.4735409   4.6769874  )
        22           O   tau(  22) = (   0.0000000   0.4735409   5.0629123  )
        23           O   tau(  23) = (   0.5000000   0.0000000   5.0978010  )
        24           Cu  tau(  24) = (   0.0000000   0.0000000   5.1371881  )
        25           Ba  tau(  25) = (   0.5000000   0.4735409   5.6055817  )
        26           O   tau(  26) = (   0.0000000   0.0000000   5.6715093  )
        27           Cu  tau(  27) = (   0.0000000   0.0000000   6.1481493  )
        28           O   tau(  28) = (   0.0000000   0.4735409   6.2215676  )

     number of k points=    25  Gaussian smearing, width (Ry)=  0.0100
                       cart. coord. in units 2pi/alat
        k(    1) = (   0.0000000   0.0000000   0.0000000), wk =   0.0312500
        k(    2) = (   0.0000000   0.1319845   0.0000000), wk =   0.0625000
        k(    3) = (   0.0000000   0.2639689   0.0000000), wk =   0.0625000
        k(    4) = (   0.0000000   0.3959534   0.0000000), wk =   0.0625000
        k(    5) = (   0.0000000  -0.5279378   0.0000000), wk =   0.0312500
        k(    6) = (   0.1250000   0.0000000   0.0000000), wk =   0.0625000
        k(    7) = (   0.1250000   0.1319845   0.0000000), wk =   0.1250000
        k(    8) = (   0.1250000   0.2639689   0.0000000), wk =   0.1250000
        k(    9) = (   0.1250000   0.3959534   0.0000000), wk =   0.1250000
        k(   10) = (   0.1250000  -0.5279378   0.0000000), wk =   0.0625000
        k(   11) = (   0.2500000   0.0000000   0.0000000), wk =   0.0625000
        k(   12) = (   0.2500000   0.1319845   0.0000000), wk =   0.1250000
        k(   13) = (   0.2500000   0.2639689   0.0000000), wk =   0.1250000
        k(   14) = (   0.2500000   0.3959534   0.0000000), wk =   0.1250000
        k(   15) = (   0.2500000  -0.5279378   0.0000000), wk =   0.0625000
        k(   16) = (   0.3750000   0.0000000   0.0000000), wk =   0.0625000
        k(   17) = (   0.3750000   0.1319845   0.0000000), wk =   0.1250000
        k(   18) = (   0.3750000   0.2639689   0.0000000), wk =   0.1250000
        k(   19) = (   0.3750000   0.3959534   0.0000000), wk =   0.1250000
        k(   20) = (   0.3750000  -0.5279378   0.0000000), wk =   0.0625000
        k(   21) = (  -0.5000000   0.0000000   0.0000000), wk =   0.0312500
        k(   22) = (  -0.5000000   0.1319845   0.0000000), wk =   0.0625000
        k(   23) = (  -0.5000000   0.2639689   0.0000000), wk =   0.0625000
        k(   24) = (  -0.5000000   0.3959534   0.0000000), wk =   0.0625000
        k(   25) = (  -0.5000000  -0.5279378   0.0000000), wk =   0.0312500

     Initial potential from superposition of free atoms

     starting charge  226.84630, renormalised to  227.00000

     negative rho (up, down):  3.473E-03 0.000E+00
     Starting wfcs are  195 randomized atomic wfcs

     Self-consistent Calculation

     iteration #  1     ecut=    60.00 Ry     beta= 0.50
     Davidson diagonalization with overlap
     ethr =  1.00E-02,  avg # of iterations =  2.0

     negative rho (up, down):  4.828E-04 0.000E+00

     total energy              =   -1840.93067792 Ry
     Harris-Foulkes estimate   =   -1845.35116982 Ry
     estimated scf accuracy    <      17.61296606 Ry

[...]

     iteration # 12     ecut=    60.00 Ry     beta= 0.50
     Davidson diagonalization with overlap
     c_bands:  1 eigenvalues not converged
     ethr =  2.44E-05,  avg # of iterations =  5.1

[...]

     iteration # 23     ecut=    60.00 Ry     beta= 0.50
     Davidson diagonalization with overlap
     c_bands:  1 eigenvalues not converged
     ethr =  2.14E-08,  avg # of iterations =  5.6

[...]

     total energy              =   -1842.87000240 Ry
     Harris-Foulkes estimate   =   -1842.87000242 Ry
     estimated scf accuracy    <       0.00000004 Ry

     iteration # 31     ecut=    60.00 Ry     beta= 0.50
     Davidson diagonalization with overlap
     ethr =  1.64E-11,  avg # of iterations =  2.5

[...]

     End of self-consistent calculation

          k = 0.0000 0.0000 0.0000 ( 34429 PWs)   bands (ev):

   -35.5812 -35.4683 -23.2589 -22.7849 -22.7847 -22.5361 -17.0857 -16.9502
   -16.6323 -16.6210 -16.5293 -16.5151 -15.2960 -15.2028 -14.8713 -14.6654
   -14.6585 -14.5667 -14.4126 -14.1754 -14.1732 -13.9760 -13.9560 -13.8193
   -13.7009 -13.5886 -13.4965  -8.4846  -8.1629  -8.0456  -7.9163  -7.9147
    -7.8787  -7.8787  -7.7193  -7.6857  -7.6855  -7.5806  -7.4139  -2.3246
    -2.3237  -2.0736  -1.8234  -1.8209  -1.7600  -1.6626  -1.6339  -1.5882
    -1.5349  -1.4760  -1.4570  -1.3275  -1.2158  -1.2143  -1.0796  -0.8627
    -0.6562  -0.6216  -0.4537  -0.4524  -0.3743  -0.3700  -0.3004  -0.2903
    -0.2598  -0.2585  -0.2474  -0.2397  -0.1914  -0.1889  -0.1608  -0.1414
    -0.1250  -0.1216  -0.0326  -0.0308   0.1037   0.1051   0.1051   0.1076
     0.1625   0.1792   0.2043   0.3143   0.3245   0.3307   0.3763   0.3792
     0.5557   0.6285   0.7931   0.8872   0.8880   0.9494   0.9752   1.1887
     1.2276   1.3546   1.3631   1.3796   1.4062   1.4504   1.5218   1.5230
     1.6866   1.7827   1.8180   1.8312   1.9249   1.9480   1.9801   2.0239
     2.0452   2.1040   2.1399   2.2537   2.2624   2.5327   2.5416   5.2066
     5.2234   5.4971   6.1433   6.1849   6.6418   6.7707   6.7885   7.1799
     7.9445   7.9936   8.1363   8.2989   8.3702   8.5887   8.6278   8.8810
     9.0966

[...]

          k = 0.3750-0.5279 0.0000 ( 34392 PWs)   bands (ev):

[...]

          k =-0.5000 0.0000 0.0000 ( 34370 PWs)   bands (ev):

[...]

          k =-0.5000-0.5279 0.0000 ( 34420 PWs)   bands (ev):

   -35.5616 -35.4486 -23.0343 -22.5120 -22.5118 -22.2735 -17.0073 -16.9984
   -16.9060 -16.8899 -16.6219 -16.4832 -14.6082 -14.6074 -14.4324 -14.3854
   -14.3036 -14.2611 -14.1992 -14.0894 -14.0521 -14.0480 -13.9829 -13.9297
   -13.9172 -13.6914 -13.6376  -9.1752  -8.7546  -8.7449  -8.7443  -8.4949
    -8.4770  -8.4770  -8.3696  -8.1405  -8.0101  -8.0087  -7.7875  -4.0822
    -4.0440  -3.7658  -3.6242  -3.5105  -3.1569  -3.1554  -2.7305  -2.7282
    -2.5627  -2.4204  -2.2816  -2.2804  -2.2787  -2.2540  -2.0533  -1.9574
    -1.9030  -1.7304  -1.3433  -1.3411  -1.3193  -1.1649  -1.1582  -1.0167
    -1.0070  -0.9778  -0.9765  -0.8785  -0.8034  -0.8015  -0.7027  -0.5726
    -0.4828  -0.3250  -0.3237   0.2020   0.3200   0.4211   0.6088   0.8471
     1.0440   1.2935   1.3193   1.3535   1.3584   1.3700   1.4097   1.4122
     1.4438   1.6360   1.6596   1.7509   1.7618   1.8174   1.8387   1.8899
     1.9142   1.9233   1.9904   1.9946   2.0522   2.0840   2.0880   2.1092
     2.2039   2.2548   2.3462   2.3481   2.3609   2.4344   2.5402   2.5516
     2.5595   2.6762   4.2645   4.7150   4.7239   4.7861   4.8565   5.2296
     5.9781   5.9783   6.8630   7.1287   8.0733   8.1784   8.5952   9.0415
     9.0571   9.1004   9.2835   9.3026   9.5337   9.5664   9.8891   9.9751
    10.1129

     the Fermi energy is     2.5734 ev

!    total energy              =   -1842.87000241 Ry
     Harris-Foulkes estimate   =   -1842.87000241 Ry
     estimated scf accuracy    <          9.1E-09 Ry

     The total energy is the sum of the following terms:

     one-electron contribution =  -29489.49092800 Ry
     hartree contribution      =   14897.84507540 Ry
     xc contribution           =    -621.62102297 Ry
     ewald contribution        =   13370.40475372 Ry
     smearing contrib. (-TS)   =      -0.00788055 Ry

     convergence has been achieved in  31 iterations

     negative rho (up, down):  1.521E-03 0.000E+00

     Forces acting on atoms (cartesian axes, Ry/au):

     atom    1 type  4   force =     0.00000000    0.00000000   -0.00015564
     atom    2 type  3   force =     0.00000000    0.00000000    0.00053494
     atom    3 type  4   force =     0.00000000    0.00000000   -0.00077722
     atom    4 type  1   force =     0.00000000    0.00000000   -0.00025566
     atom    5 type  3   force =     0.00000000    0.00000000    0.00051648
     atom    6 type  4   force =     0.00000000    0.00000000    0.00000406
     atom    7 type  4   force =     0.00000000    0.00000000    0.00027434
     atom    8 type  2   force =     0.00000000    0.00000000   -0.00061460
     atom    9 type  4   force =     0.00000000    0.00000000    0.00022752
     atom   10 type  4   force =     0.00000000    0.00000000    0.00020815
     atom   11 type  3   force =     0.00000000    0.00000000    0.00016196
     atom   12 type  1   force =     0.00000000    0.00000000   -0.00065962
     atom   13 type  4   force =     0.00000000    0.00000000    0.00437128
     atom   14 type  4   force =     0.00000000    0.00000000    0.00856702
     atom   15 type  3   force =     0.00000000    0.00000000   -0.00550546
     atom   16 type  4   force =     0.00000000    0.00000000    0.00646783
     atom   17 type  1   force =     0.00000000    0.00000000    0.01544278
     atom   18 type  3   force =     0.00000000    0.00000000   -0.00292998
     atom   19 type  4   force =     0.00000000    0.00000000   -0.00737980
     atom   20 type  4   force =     0.00000000    0.00000000   -0.00625478
     atom   21 type  2   force =     0.00000000    0.00000000   -0.01457741
     atom   22 type  4   force =     0.00000000    0.00000000    0.00027534
     atom   23 type  4   force =     0.00000000    0.00000000    0.00131761
     atom   24 type  3   force =     0.00000000    0.00000000   -0.00024999
     atom   25 type  1   force =     0.00000000    0.00000000    0.00029543
     atom   26 type  4   force =     0.00000000    0.00000000    0.00103833
     atom   27 type  3   force =     0.00000000    0.00000000   -0.00063628
     atom   28 type  4   force =     0.00000000    0.00000000    0.00029337

     Total force =     0.026899     Total SCF correction =     0.000401

     Computing stress (Cartesian axis) and pressure

     negative rho (up, down):  1.521E-03 0.000E+00
          total   stress  (Ry/bohr**3)                   (kbar)     P=       -7.24
  -0.00006075   0.00000000   0.00000000           -8.94        0.00        0.00
   0.00000000  -0.00003517   0.00000000            0.00       -5.17        0.00
   0.00000000   0.00000000  -0.00005182            0.00        0.00       -7.62

     General routines

     Parallel routines

   This run was terminated on:  23:17:56  21May2021

   JOB DONE.
[1621653476.883009] [holy7c06602:25153:0]          mpool.c:43   UCX  WARN  object 0x3c01a80 was not returned to mpool ucp_requests
[1621653476.884927] [holy7c06412:47021:0]          mpool.c:43   UCX  WARN  object 0x2a11cc0 was not returned to mpool ucp_requests
[1621653476.884949] [holy7c06412:47021:0]          mpool.c:43   UCX  WARN  object 0x2a11e80 was not returned to mpool ucp_requests
[1621653476.889949] [holy7c06409:267385:0]          mpool.c:43   UCX  WARN  object 0x34a2900 was not returned to mpool ucp_requests
[1621653476.886713] [holy7c06601:46826:0]          mpool.c:43   UCX  WARN  object 0x299bc80 was not returned to mpool ucp_requests
[1621653476.886734] [holy7c06601:46826:0]          mpool.c:43   UCX  WARN  object 0x299c000 was not returned to mpool ucp_requests
[1621653476.883517] [holy7c06602:25154:0]          mpool.c:43   UCX  WARN  object 0x41e2640 was not returned to mpool ucp_requests
[1621653476.892018] [holy7c06409:267384:0]          mpool.c:43   UCX  WARN  object 0x3ddc180 was not returned to mpool ucp_requests
[1621653476.892042] [holy7c06409:267384:0]          mpool.c:43   UCX  WARN  object 0x3ddc500 was not returned to mpool ucp_requests
[1621653476.895307] [holy7c06501:266028:0]          mpool.c:43   UCX  WARN  object 0x3a4ecc0 was not returned to mpool ucp_requests