     Program PWSCF v.6.5 starts on 21May2021 at 21:25: 0

     R & G space division:  proc/nbgrp/npool/nimage =      20
     Reading input from CBCO_CuO_cleave_5.0_sep.pwi
Warning: card &IONS ignored
Warning: card     ION_DYNAMICS = 'BFGS' ignored
Warning: card / ignored
Warning: card &CELL ignored
Warning: card     CELL_DYNAMICS = 'BFGS' ignored
Warning: card     PRESS_CONV_THR = 5 ignored
Warning: card / ignored

     Current dimensions of program PWSCF are:
     Max number of different atomic species (ntypx) = 10
     Max number of k-points (npk) =  40000
     Max angular momentum in pseudopotentials (lmaxx) =  3

     Message from routine setup:
     using ibrav=0 with symmetry is DISCOURAGED, use correct ibrav instead

     bravais-lattice index     =            0
     lattice parameter (alat)  =       7.4270  a.u.
     unit-cell volume          =    4795.9235 (a.u.)^3
     number of atoms/cell      =           28
     number of atomic types    =            4
     number of electrons       =       227.00
     number of Kohn-Sham states=          137
     kinetic-energy cutoff     =      60.0000  Ry
     charge density cutoff     =     720.0000  Ry
     convergence threshold     =      1.0E-08
     mixing beta               =       0.5000
     number of iterations used =           10  local-TF  mixing
     Exchange-correlation= SLA PW PBE PBE
                           (   1   4   3   4   0   0   0)

     celldm(1)=   7.427040  celldm(2)=   0.000000  celldm(3)=   0.000000
     celldm(4)=   0.000000  celldm(5)=   0.000000  celldm(6)=   0.000000

     crystal axes: (cart. coord. in units of alat)
               a(1) = (   1.000000   0.000000   0.000000 )
               a(2) = (   0.000000   0.947081   0.000000 )
               a(3) = (   0.000000   0.000000  12.360550 )

     reciprocal axes: (cart. coord. in units 2 pi/alat)
               b(1) = (  1.000000  0.000000  0.000000 )
               b(2) = (  0.000000  1.055876  0.000000 )
               b(3) = (  0.000000  0.000000  0.080903 )

     PseudoPot. # 1 for Ba read from file:
     ./pseudo/Ba.pbe-nsp-van.UPF
     MD5 check sum: 2b9c31dd849566dd297d80989662b7a0
     Pseudo is Ultrasoft + core correction, Zval = 10.0
     Generated by new atomic code, or converted to UPF format
     Using radial grid of  907 points,  6 beta functions with:
                l(1) =   0
                l(2) =   0
                l(3) =   1
                l(4) =   1
                l(5) =   2
                l(6) =   2
     Q(r) pseudized with  6 coefficients,  rinner =    1.200   1.200   1.200
                                                       1.200   1.200

     PseudoPot. # 2 for Ca read from file:
     ./pseudo/Ca.pbe-nsp-van.UPF
     MD5 check sum: 6471098428ff4fa451746d08035ff179
     Pseudo is Ultrasoft + core correction, Zval = 10.0
     Generated by new atomic code, or converted to UPF format
     Using radial grid of  845 points,  6 beta functions with:
                l(1) =   0
                l(2) =   0
                l(3) =   1
                l(4) =   1
                l(5) =   2
                l(6) =   2
     Q(r) pseudized with  6 coefficients,  rinner =    1.200   1.200   1.200
                                                       1.200   1.200

     PseudoPot. # 3 for Cu read from file:
     ./pseudo/Cu.pbe-n-van_ak.UPF
     MD5 check sum: 34e3282627ffb533726feb647e090d62
     Pseudo is Ultrasoft + core correction, Zval = 11.0
     Generated by new atomic code, or converted to UPF format
     Using radial grid of  867 points,  6 beta functions with:
                l(1) =   0
                l(2) =   0
                l(3) =   1
                l(4) =   1
                l(5) =   2
                l(6) =   2
     Q(r) pseudized with  8 coefficients,  rinner =    1.400   1.400   1.400
                                                       1.400   1.400

     PseudoPot. # 4 for O  read from file:
     ./pseudo/O.pbe-van_ak.UPF
     MD5 check sum: 783ce7fe4c79b6a4916957118fed0856
     Pseudo is Ultrasoft, Zval =  6.0
     Generated by new atomic code, or converted to UPF format
     Using radial grid of  737 points,  4 beta functions with:
                l(1) =   0
                l(2) =   0
                l(3) =   1
                l(4) =   1
     Q(r) pseudized with  8 coefficients,  rinner =    0.800   0.800   0.800

     atomic species   valence    mass     pseudopotential
        Ba            10.00   137.32700     Ba( 1.00)
        Ca            10.00    40.07800     Ca( 1.00)
        Cu            11.00    63.54600     Cu( 1.00)
        O              6.00    15.99900     O ( 1.00)

      4 Sym. Ops. (no inversion) found

   Cartesian axes

     site n.     atom                  positions (alat units)
         1           O   tau(   1) = (   0.0000000   0.4735409  -0.0469745  )
         2           Cu  tau(   2) = (   0.0000000   0.0000000   0.0264565  )
         3           O   tau(   3) = (   0.0000000   0.0000000   0.5030914  )
         4           Ba  tau(   4) = (   0.5000000   0.4735409   0.5690292  )
         5           Cu  tau(   5) = (   0.0000000   0.0000000   1.0374254  )
         6           O   tau(   6) = (   0.5000000   0.0000000   1.0768099  )
         7           O   tau(   7) = (   0.0000000   0.4735409   1.1116985  )
         8           Ca  tau(   8) = (   0.5000000   0.4735409   1.4976260  )
         9           O   tau(   9) = (   0.0000000   0.4735409   1.8667529  )
        10           O   tau(  10) = (   0.5000000   0.0000000   1.9044124  )
        11           Cu  tau(  11) = (   0.0000000   0.0000000   1.9512546  )
        12           Ba  tau(  12) = (   0.5000000   0.4735409   2.4295764  )
        13           O   tau(  13) = (   0.0000000   0.0000000   2.5115362  )
        14           O   tau(  14) = (   0.0000000   0.4735409   2.9918528  )
        15           Cu  tau(  15) = (   0.0000000   0.0000000   2.9919088  )
        16           O   tau(  16) = (   0.0000000   0.0000000   4.7444620  )
        17           Ba  tau(  17) = (   0.5000000   0.4735409   4.8264141  )
        18           Cu  tau(  18) = (   0.0000000   0.0000000   5.3047181  )
        19           O   tau(  19) = (   0.5000000   0.0000000   5.3515603  )
        20           O   tau(  20) = (   0.0000000   0.4735409   5.3892147  )
        21           Ca  tau(  21) = (   0.5000000   0.4735409   5.7583518  )
        22           O   tau(  22) = (   0.0000000   0.4735409   6.1442767  )
        23           O   tau(  23) = (   0.5000000   0.0000000   6.1791653  )
        24           Cu  tau(  24) = (   0.0000000   0.0000000   6.2185525  )
        25           Ba  tau(  25) = (   0.5000000   0.4735409   6.6869461  )
        26           O   tau(  26) = (   0.0000000   0.0000000   6.7528737  )
        27           Cu  tau(  27) = (   0.0000000   0.0000000   7.2295136  )
        28           O   tau(  28) = (   0.0000000   0.4735409   7.3029319  )

     number of k points=    25  Gaussian smearing, width (Ry)=  0.0100
                       cart. coord. in units 2pi/alat
        k(    1) = (   0.0000000   0.0000000   0.0000000), wk =   0.0312500
        k(    2) = (   0.0000000   0.1319845   0.0000000), wk =   0.0625000
        k(    3) = (   0.0000000   0.2639689   0.0000000), wk =   0.0625000
        k(    4) = (   0.0000000   0.3959534   0.0000000), wk =   0.0625000
        k(    5) = (   0.0000000  -0.5279378   0.0000000), wk =   0.0312500
        k(    6) = (   0.1250000   0.0000000   0.0000000), wk =   0.0625000
        k(    7) = (   0.1250000   0.1319845   0.0000000), wk =   0.1250000
        k(    8) = (   0.1250000   0.2639689   0.0000000), wk =   0.1250000
        k(    9) = (   0.1250000   0.3959534   0.0000000), wk =   0.1250000
        k(   10) = (   0.1250000  -0.5279378   0.0000000), wk =   0.0625000
        k(   11) = (   0.2500000   0.0000000   0.0000000), wk =   0.0625000
        k(   12) = (   0.2500000   0.1319845   0.0000000), wk =   0.1250000
        k(   13) = (   0.2500000   0.2639689   0.0000000), wk =   0.1250000
        k(   14) = (   0.2500000   0.3959534   0.0000000), wk =   0.1250000
        k(   15) = (   0.2500000  -0.5279378   0.0000000), wk =   0.0625000
        k(   16) = (   0.3750000   0.0000000   0.0000000), wk =   0.0625000
        k(   17) = (   0.3750000   0.1319845   0.0000000), wk =   0.1250000
        k(   18) = (   0.3750000   0.2639689   0.0000000), wk =   0.1250000
        k(   19) = (   0.3750000   0.3959534   0.0000000), wk =   0.1250000
        k(   20) = (   0.3750000  -0.5279378   0.0000000), wk =   0.0625000
        k(   21) = (  -0.5000000   0.0000000   0.0000000), wk =   0.0312500
        k(   22) = (  -0.5000000   0.1319845   0.0000000), wk =   0.0625000
        k(   23) = (  -0.5000000   0.2639689   0.0000000), wk =   0.0625000
        k(   24) = (  -0.5000000   0.3959534   0.0000000), wk =   0.0625000
        k(   25) = (  -0.5000000  -0.5279378   0.0000000), wk =   0.0312500

     Initial potential from superposition of free atoms

     starting charge  226.84630, renormalised to  227.00000

     negative rho (up, down):  3.409E-03 0.000E+00
     Starting wfcs are  195 randomized atomic wfcs

     Self-consistent Calculation

     iteration #  1     ecut=    60.00 Ry     beta= 0.50
     Davidson diagonalization with overlap
     ethr =  1.00E-02,  avg # of iterations =  2.0

     negative rho (up, down):  4.824E-04 0.000E+00

     total energy              =   -1840.74556122 Ry
     Harris-Foulkes estimate   =   -1845.36807988 Ry
     estimated scf accuracy    <      19.82789263 Ry

[...]

     iteration # 22     ecut=    60.00 Ry     beta= 0.50
     Davidson diagonalization with overlap
     c_bands:  1 eigenvalues not converged
     ethr =  1.18E-06,  avg # of iterations = 10.3

[...]

     iteration # 26     ecut=    60.00 Ry     beta= 0.50
     Davidson diagonalization with overlap
     c_bands:  1 eigenvalues not converged
     ethr =  5.22E-08,  avg # of iterations =  7.0

[...]

     total energy              =   -1842.78446733 Ry
     Harris-Foulkes estimate   =   -1842.78446733 Ry
     estimated scf accuracy    <       0.00000001 Ry

     iteration # 38     ecut=    60.00 Ry     beta= 0.50
     Davidson diagonalization with overlap
     ethr =  6.10E-12,  avg # of iterations =  1.0

[...]

     End of self-consistent calculation

          k = 0.0000 0.0000 0.0000 ( 37745 PWs)   bands (ev):

   -36.3001 -36.2756 -23.4576 -23.4540 -23.3072 -23.3028 -17.8008 -17.7818
   -17.3517 -17.3415 -17.3286 -17.3148 -15.9978 -15.9887 -15.3429 -15.3382
   -15.3248 -15.2726 -15.2617 -14.8445 -14.8418 -14.6696 -14.6570 -14.5719
   -14.5336 -14.5184 -13.3553  -8.5900  -8.5891  -8.5510  -8.5478  -8.5452
    -8.4440  -8.3690  -8.3582  -8.3548  -8.2720  -8.1960  -8.0716  -2.9914
    -2.9912  -2.6695  -2.5186  -2.5161  -2.4923  -2.4877  -2.3629  -2.3461
    -2.2502  -2.2302  -2.1974  -2.1867  -1.8820  -1.8779  -1.5347  -1.1209
    -1.1188  -1.0424  -1.0383  -1.0362  -1.0125  -0.9876  -0.9702  -0.9531
    -0.9516  -0.9335  -0.9287  -0.9275  -0.9252  -0.8671  -0.8533  -0.7023
    -0.6985  -0.6745  -0.6028  -0.5794  -0.5740  -0.5670  -0.5622  -0.5593
    -0.5178  -0.5062  -0.4983  -0.4828  -0.4614  -0.4316  -0.3790  -0.3315
    -0.1625   0.1169   0.2103   0.2185   0.2216   0.2621   0.3006   0.4980
     0.5024   0.6589   0.6821   0.6932   0.7093   0.7904   0.8137   0.8344
     0.8427   0.8600   0.8655   1.1256   1.1545   1.2025   1.3617   1.3768
     1.4145   1.5554   1.6740   1.6758   1.7801   1.8701   1.8815   4.3693
     4.5558   4.5628   5.3853   5.5106   5.8283   6.0840   6.0974   6.2683
     6.3266   7.3032   7.4201   7.4643   7.6606   7.8435   7.8838   7.9725
     8.1090

[...]

          k = 0.3750-0.5279 0.0000 ( 37708 PWs)   bands (ev):

[...]

          k =-0.5000 0.0000 0.0000 ( 37590 PWs)   bands (ev):

[...]

          k =-0.5000-0.5279 0.0000 ( 37732 PWs)   bands (ev):

   -36.2804 -36.2559 -23.1847 -23.1811 -23.0629 -23.0420 -17.7256 -17.7184
   -17.7068 -17.6920 -17.3389 -17.3172 -15.2757 -15.2742 -15.1293 -15.1274
   -14.9604 -14.9509 -14.9366 -14.8089 -14.8071 -14.7252 -14.7181 -14.7134
   -14.6484 -14.6115 -13.4686  -9.4176  -9.4139  -9.2797  -9.1493  -9.1461
    -9.0969  -8.9432  -8.8825  -8.6839  -8.6802  -8.5680  -8.5273  -4.7793
    -4.7560  -4.4795  -4.4259  -4.0595  -3.8236  -3.8197  -3.4031  -3.3959
    -3.2892  -3.2741  -2.9696  -2.9537  -2.9489  -2.9479  -2.6451  -2.6327
    -2.6239  -2.0683  -2.0192  -1.9933  -1.8496  -1.8403  -1.7101  -1.6921
    -1.6914  -1.6447  -1.6417  -1.6320  -1.6253  -1.5561  -1.4998  -0.9912
    -0.9890  -0.9744  -0.8675  -0.4579  -0.3073  -0.2042   0.1636   0.2753
     0.4548   0.6703   0.6733   0.6751   0.6795   0.7093   0.7184   0.7836
     0.9361   0.9382   0.9384   0.9564   0.9810   1.1759   1.2057   1.2255
     1.2379   1.3112   1.3298   1.3675   1.4015   1.4023   1.4988   1.5064
     1.6754   1.6788   1.7227   1.7330   1.7535   1.7813   1.8591   1.8672
     1.9160   1.9231   2.2723   4.0067   4.0105   4.0787   4.0798   5.3080
     5.3108   5.4041   6.3694   6.4364   7.6228   7.7078   8.3523   8.3611
     8.3746   8.4521   8.6848   8.7066   8.7403   8.8560   8.9786   9.1452
     9.1624

     the Fermi energy is     1.9044 ev

!    total energy              =   -1842.78446735 Ry
     Harris-Foulkes estimate   =   -1842.78446734 Ry
     estimated scf accuracy    <          3.6E-09 Ry

     The total energy is the sum of the following terms:

     one-electron contribution =  -22883.98682205 Ry
     hartree contribution      =   11589.65285113 Ry
     xc contribution           =    -621.62226154 Ry
     ewald contribution        =   10073.18351273 Ry
     smearing contrib. (-TS)   =      -0.01174762 Ry

     convergence has been achieved in  38 iterations

     negative rho (up, down):  1.473E-03 0.000E+00

     Forces acting on atoms (cartesian axes, Ry/au):

     atom    1 type  4   force =     0.00000000    0.00000000   -0.00036882
     atom    2 type  3   force =     0.00000000    0.00000000    0.00047756
     atom    3 type  4   force =     0.00000000    0.00000000   -0.00070383
     atom    4 type  1   force =     0.00000000    0.00000000   -0.00054727
     atom    5 type  3   force =     0.00000000    0.00000000    0.00058768
     atom    6 type  4   force =     0.00000000    0.00000000    0.00093780
     atom    7 type  4   force =     0.00000000    0.00000000    0.00114240
     atom    8 type  2   force =     0.00000000    0.00000000   -0.00280102
     atom    9 type  4   force =     0.00000000    0.00000000    0.00485514
     atom   10 type  4   force =     0.00000000    0.00000000    0.00414443
     atom   11 type  3   force =     0.00000000    0.00000000    0.00116409
     atom   12 type  1   force =     0.00000000    0.00000000    0.00968853
     atom   13 type  4   force =     0.00000000    0.00000000   -0.01994213
     atom   14 type  4   force =     0.00000000    0.00000000    0.03661358
     atom   15 type  3   force =     0.00000000    0.00000000   -0.03504365
     atom   16 type  4   force =     0.00000000    0.00000000    0.02676884
     atom   17 type  1   force =     0.00000000    0.00000000   -0.00331301
     atom   18 type  3   force =     0.00000000    0.00000000   -0.02063527
     atom   19 type  4   force =     0.00000000    0.00000000   -0.00156278
     atom   20 type  4   force =     0.00000000    0.00000000   -0.00226415
     atom   21 type  2   force =     0.00000000    0.00000000    0.00261332
     atom   22 type  4   force =     0.00000000    0.00000000   -0.00179408
     atom   23 type  4   force =     0.00000000    0.00000000   -0.00022672
     atom   24 type  3   force =     0.00000000    0.00000000   -0.00032114
     atom   25 type  1   force =     0.00000000    0.00000000    0.00037961
     atom   26 type  4   force =     0.00000000    0.00000000    0.00022682
     atom   27 type  3   force =     0.00000000    0.00000000    0.00000728
     atom   28 type  4   force =     0.00000000    0.00000000   -0.00008320

     Total force =     0.065461     Total SCF correction =     0.000248

     Computing stress (Cartesian axis) and pressure

     negative rho (up, down):  1.473E-03 0.000E+00
          total   stress  (Ry/bohr**3)                   (kbar)     P=       -5.46
   0.00000683   0.00000000   0.00000000            1.00        0.00        0.00
   0.00000000  -0.00008726   0.00000000            0.00      -12.84        0.00
   0.00000000   0.00000000  -0.00003099            0.00        0.00       -4.56

     General routines

     Parallel routines

   This run was terminated on:  21:38:11  21May2021

   JOB DONE.
[1621647491.698186] [holy7c04207:204637:0]          mpool.c:43   UCX  WARN  object 0x2cf3040 was not returned to mpool ucp_requests
[1621647491.698714] [holy7c04301:219780:0]          mpool.c:43   UCX  WARN  object 0x2973080 was not returned to mpool ucp_requests
[1621647491.706423] [holy7c04501:52561:0]          mpool.c:43   UCX  WARN  object 0x2c70a80 was not returned to mpool ucp_requests
[1621647491.708775] [holy7c04503:50264:0]          mpool.c:43   UCX  WARN  object 0x2914fc0 was not returned to mpool ucp_requests
[1621647491.718964] [holy7c04504:243169:0]          mpool.c:43   UCX  WARN  object 0x2f63000 was not returned to mpool ucp_requests
[1621647491.722578] [holy7c04302:272843:0]          mpool.c:43   UCX  WARN  object 0x44959c0 was not returned to mpool ucp_requests
[1621647491.704878] [holy7c04501:52565:0]          mpool.c:43   UCX  WARN  object 0x4569bc0 was not returned to mpool ucp_requests
[1621647491.704896] [holy7c04501:52565:0]          mpool.c:43   UCX  WARN  object 0x4569f40 was not returned to mpool ucp_requests