     Program PWSCF v.6.5 starts on 21May2021 at 21:31:56

     R & G space division:  proc/nbgrp/npool/nimage =      20
     Reading input from CBCO_Y_cleave_2.5_sep.pwi
Warning: card &IONS ignored
Warning: card     ION_DYNAMICS = 'BFGS' ignored
Warning: card / ignored
Warning: card &CELL ignored
Warning: card     CELL_DYNAMICS = 'BFGS' ignored
Warning: card     PRESS_CONV_THR = 5 ignored
Warning: card / ignored

     Current dimensions of program PWSCF are:
     Max number of different atomic species (ntypx) = 10
     Max number of k-points (npk) =  40000
     Max angular momentum in pseudopotentials (lmaxx) =  3

     Message from routine setup:
     using ibrav=0 with symmetry is DISCOURAGED, use correct ibrav instead

     bravais-lattice index     =            0
     lattice parameter (alat)  =       7.4270  a.u.
     unit-cell volume          =    4549.1164 (a.u.)^3
     number of atoms/cell      =           28
     number of atomic types    =            4
     number of electrons       =       227.00
     number of Kohn-Sham states=          137
     kinetic-energy cutoff     =      60.0000  Ry
     charge density cutoff     =     720.0000  Ry
     convergence threshold     =      1.0E-08
     mixing beta               =       0.5000
     number of iterations used =           10  local-TF  mixing
     Exchange-correlation= SLA PW PBE PBE
                           (   1   4   3   4   0   0   0)

     celldm(1)=   7.427040  celldm(2)=   0.000000  celldm(3)=   0.000000
     celldm(4)=   0.000000  celldm(5)=   0.000000  celldm(6)=   0.000000

     crystal axes: (cart. coord. in units of alat)
               a(1) = (   1.000000   0.000000   0.000000 )
               a(2) = (   0.000000   0.947081   0.000000 )
               a(3) = (   0.000000   0.000000  11.724453 )

     reciprocal axes: (cart. coord. in units 2 pi/alat)
               b(1) = (  1.000000  0.000000  0.000000 )
               b(2) = (  0.000000  1.055876  0.000000 )
               b(3) = (  0.000000  0.000000  0.085292 )

     PseudoPot. # 1 for Ba read from file:
     ./pseudo/Ba.pbe-nsp-van.UPF
     MD5 check sum: 2b9c31dd849566dd297d80989662b7a0
     Pseudo is Ultrasoft + core correction, Zval = 10.0
     Generated by new atomic code, or converted to UPF format
     Using radial grid of  907 points,  6 beta functions with:
                l(1) =   0
                l(2) =   0
                l(3) =   1
                l(4) =   1
                l(5) =   2
                l(6) =   2
     Q(r) pseudized with  6 coefficients,  rinner =    1.200   1.200   1.200
                                                       1.200   1.200

     PseudoPot. # 2 for Ca read from file:
     ./pseudo/Ca.pbe-nsp-van.UPF
     MD5 check sum: 6471098428ff4fa451746d08035ff179
     Pseudo is Ultrasoft + core correction, Zval = 10.0
     Generated by new atomic code, or converted to UPF format
     Using radial grid of  845 points,  6 beta functions with:
                l(1) =   0
                l(2) =   0
                l(3) =   1
                l(4) =   1
                l(5) =   2
                l(6) =   2
     Q(r) pseudized with  6 coefficients,  rinner =    1.200   1.200   1.200
                                                       1.200   1.200

     PseudoPot. # 3 for Cu read from file:
     ./pseudo/Cu.pbe-n-van_ak.UPF
     MD5 check sum: 34e3282627ffb533726feb647e090d62
     Pseudo is Ultrasoft + core correction, Zval = 11.0
     Generated by new atomic code, or converted to UPF format
     Using radial grid of  867 points,  6 beta functions with:
                l(1) =   0
                l(2) =   0
                l(3) =   1
                l(4) =   1
                l(5) =   2
                l(6) =   2
     Q(r) pseudized with  8 coefficients,  rinner =    1.400   1.400   1.400
                                                       1.400   1.400

     PseudoPot. # 4 for O  read from file:
     ./pseudo/O.pbe-van_ak.UPF
     MD5 check sum: 783ce7fe4c79b6a4916957118fed0856
     Pseudo is Ultrasoft, Zval =  6.0
     Generated by new atomic code, or converted to UPF format
     Using radial grid of  737 points,  4 beta functions with:
                l(1) =   0
                l(2) =   0
                l(3) =   1
                l(4) =   1
     Q(r) pseudized with  8 coefficients,  rinner =    0.800   0.800   0.800

     atomic species   valence    mass     pseudopotential
        Ba            10.00   137.32700     Ba( 1.00)
        Ca            10.00    40.07800     Ca( 1.00)
        Cu            11.00    63.54600     Cu( 1.00)
        O              6.00    15.99900     O ( 1.00)

      4 Sym. Ops. (no inversion) found

   Cartesian axes

     site n.     atom                  positions (alat units)
         1           O   tau(   1) = (   0.0000000   0.4735409  -0.0469745  )
         2           Cu  tau(   2) = (   0.0000000   0.0000000   0.0264565  )
         3           O   tau(   3) = (   0.0000000   0.0000000   0.5030914  )
         4           Ba  tau(   4) = (   0.5000000   0.4735409   0.5690292  )
         5           Cu  tau(   5) = (   0.0000000   0.0000000   1.0374254  )
         6           O   tau(   6) = (   0.5000000   0.0000000   1.0768099  )
         7           O   tau(   7) = (   0.0000000   0.4735409   1.1116985  )
         8           Ca  tau(   8) = (   0.5000000   0.4735409   1.4976260  )
         9           O   tau(   9) = (   0.0000000   0.4735409   1.8667529  )
        10           O   tau(  10) = (   0.5000000   0.0000000   1.9044124  )
        11           Cu  tau(  11) = (   0.0000000   0.0000000   1.9512546  )
        12           Ba  tau(  12) = (   0.5000000   0.4735409   2.4295764  )
        13           O   tau(  13) = (   0.0000000   0.0000000   2.5115362  )
        14           O   tau(  14) = (   0.0000000   0.4735409   2.9918528  )
        15           Cu  tau(  15) = (   0.0000000   0.0000000   2.9919088  )
        16           O   tau(  16) = (   0.0000000   0.0000000   3.4722686  )
        17           Ba  tau(  17) = (   0.5000000   0.4735409   3.5542208  )
        18           Cu  tau(  18) = (   0.0000000   0.0000000   4.0325248  )
        19           O   tau(  19) = (   0.5000000   0.0000000   4.0793669  )
        20           O   tau(  20) = (   0.0000000   0.4735409   4.1170213  )
        21           Ca  tau(  21) = (   0.5000000   0.4735409   4.4861584  )
        22           O   tau(  22) = (   0.0000000   0.4735409   5.5081800  )
        23           O   tau(  23) = (   0.5000000   0.0000000   5.5430687  )
        24           Cu  tau(  24) = (   0.0000000   0.0000000   5.5824558  )
        25           Ba  tau(  25) = (   0.5000000   0.4735409   6.0508494  )
        26           O   tau(  26) = (   0.0000000   0.0000000   6.1167770  )
        27           Cu  tau(  27) = (   0.0000000   0.0000000   6.5934170  )
        28           O   tau(  28) = (   0.0000000   0.4735409   6.6668352  )

     number of k points=    25  Gaussian smearing, width (Ry)=  0.0100
                       cart. coord. in units 2pi/alat
        k(    1) = (   0.0000000   0.0000000   0.0000000), wk =   0.0312500
        k(    2) = (   0.0000000   0.1319845   0.0000000), wk =   0.0625000
        k(    3) = (   0.0000000   0.2639689   0.0000000), wk =   0.0625000
        k(    4) = (   0.0000000   0.3959534   0.0000000), wk =   0.0625000
        k(    5) = (   0.0000000  -0.5279378   0.0000000), wk =   0.0312500
        k(    6) = (   0.1250000   0.0000000   0.0000000), wk =   0.0625000
        k(    7) = (   0.1250000   0.1319845   0.0000000), wk =   0.1250000
        k(    8) = (   0.1250000   0.2639689   0.0000000), wk =   0.1250000
        k(    9) = (   0.1250000   0.3959534   0.0000000), wk =   0.1250000
        k(   10) = (   0.1250000  -0.5279378   0.0000000), wk =   0.0625000
        k(   11) = (   0.2500000   0.0000000   0.0000000), wk =   0.0625000
        k(   12) = (   0.2500000   0.1319845   0.0000000), wk =   0.1250000
        k(   13) = (   0.2500000   0.2639689   0.0000000), wk =   0.1250000
        k(   14) = (   0.2500000   0.3959534   0.0000000), wk =   0.1250000
        k(   15) = (   0.2500000  -0.5279378   0.0000000), wk =   0.0625000
        k(   16) = (   0.3750000   0.0000000   0.0000000), wk =   0.0625000
        k(   17) = (   0.3750000   0.1319845   0.0000000), wk =   0.1250000
        k(   18) = (   0.3750000   0.2639689   0.0000000), wk =   0.1250000
        k(   19) = (   0.3750000   0.3959534   0.0000000), wk =   0.1250000
        k(   20) = (   0.3750000  -0.5279378   0.0000000), wk =   0.0625000
        k(   21) = (  -0.5000000   0.0000000   0.0000000), wk =   0.0312500
        k(   22) = (  -0.5000000   0.1319845   0.0000000), wk =   0.0625000
        k(   23) = (  -0.5000000   0.2639689   0.0000000), wk =   0.0625000
        k(   24) = (  -0.5000000   0.3959534   0.0000000), wk =   0.0625000
        k(   25) = (  -0.5000000  -0.5279378   0.0000000), wk =   0.0312500

     Initial potential from superposition of free atoms

     starting charge  226.84630, renormalised to  227.00000

     negative rho (up, down):  3.511E-03 0.000E+00
     Starting wfcs are  195 randomized atomic wfcs

     Self-consistent Calculation

     iteration #  1     ecut=    60.00 Ry     beta= 0.50
     Davidson diagonalization with overlap
     ethr =  1.00E-02,  avg # of iterations =  2.0

     negative rho (up, down):  5.173E-04 0.000E+00

     total energy              =   -1840.97309199 Ry
     Harris-Foulkes estimate   =   -1845.31324561 Ry
     estimated scf accuracy    <      17.60258423 Ry

[...]

     iteration # 11     ecut=    60.00 Ry     beta= 0.50
     Davidson diagonalization with overlap
     c_bands:  1 eigenvalues not converged
     ethr =  5.12E-05,  avg # of iterations =  4.4

[...]

     iteration # 22     ecut=    60.00 Ry     beta= 0.50
     Davidson diagonalization with overlap
     c_bands:  1 eigenvalues not converged
     ethr =  5.88E-07,  avg # of iterations =  4.9

[...]

     total energy              =   -1842.66871749 Ry
     Harris-Foulkes estimate   =   -1842.66871751 Ry
     estimated scf accuracy    <       0.00000004 Ry

     iteration # 35     ecut=    60.00 Ry     beta= 0.50
     Davidson diagonalization with overlap
     ethr =  9.21E-12,  avg # of iterations =  1.8

[...]

     End of self-consistent calculation

          k = 0.0000 0.0000 0.0000 ( 35809 PWs)   bands (ev):

   -39.0394 -35.6832 -22.9829 -22.8869 -22.7159 -22.6292 -20.1264 -20.0261
   -20.0082 -17.1875 -16.7345 -16.7230 -15.9382 -15.3978 -14.9980 -14.9585
   -14.7898 -14.7673 -14.7214 -14.6687 -14.2772 -14.2489 -14.0780 -13.9205
   -13.8875 -13.7521 -13.6723  -8.2030  -8.0182  -8.0034  -7.9807  -7.8533
    -7.8285  -7.8105  -7.7877  -7.7867  -7.6741  -7.6291  -7.5081  -2.5223
    -2.4489  -2.4259  -2.4032  -2.3893  -2.0166  -1.9257  -1.8635  -1.7643
    -1.6355  -1.5805  -1.5281  -1.3160  -1.2890  -1.2177  -1.1816  -1.1545
    -0.9639  -0.8687  -0.7283  -0.6404  -0.5543  -0.5143  -0.4722  -0.4082
    -0.4066  -0.3604  -0.3473  -0.3419  -0.3113  -0.3088  -0.2843  -0.2705
    -0.2680  -0.2127  -0.1328  -0.1258  -0.0805  -0.0168   0.0031   0.0033
     0.0248   0.0683   0.0774   0.1111   0.1605   0.2108   0.2270   0.2834
     0.3008   0.6130   0.6213   0.7013   0.7862   0.7931   0.8297   0.8628
     1.0062   1.0154   1.0876   1.2531   1.2684   1.3628   1.4249   1.4336
     1.4652   1.4980   1.5984   1.6027   1.7298   1.9284   1.9484   1.9631
     2.0327   2.0547   2.1533   2.1690   2.1867   2.4047   2.4402   2.6552
     4.9467   5.1208   5.2346   5.6524   5.8010   6.2423   6.6679   6.6970
     6.8342   6.9767   7.0111   7.0482   7.1210   7.7074   7.9044   8.0390
     8.2339

[...]

          k = 0.3750-0.5279 0.0000 ( 35732 PWs)   bands (ev):

[...]

          k =-0.5000 0.0000 0.0000 ( 35702 PWs)   bands (ev):

[...]

          k =-0.5000-0.5279 0.0000 ( 35804 PWs)   bands (ev):

   -39.0241 -35.6636 -22.7220 -22.6140 -22.4409 -22.3665 -20.2036 -20.1400
   -20.0196 -17.1096 -17.1003 -16.7238 -15.2165 -15.0686 -14.7093 -14.6871
   -14.5348 -14.3651 -14.3622 -14.2594 -14.1919 -14.1792 -14.1499 -14.1185
   -14.0294 -13.9844 -13.9647  -8.9425  -8.8469  -8.6797  -8.6029  -8.5896
    -8.5790  -8.4292  -8.3144  -8.2226  -8.1121  -7.8737  -7.8727  -4.5576
    -4.1844  -3.8667  -3.7285  -3.7061  -3.2572  -3.2259  -2.9567  -2.8303
    -2.7928  -2.7004  -2.6669  -2.3824  -2.3748  -2.3556  -2.3315  -2.0487
    -1.8863  -1.8625  -1.5082  -1.4681  -1.4439  -1.3681  -1.3486  -1.2665
    -1.1187  -1.0975  -1.0783  -1.0735  -1.0464  -0.9816  -0.9005  -0.8419
    -0.6769  -0.4256  -0.3912   0.1220   0.2574   0.3304   0.6076   0.7847
     0.9367   0.9912   1.0639   1.0915   1.2102   1.2456   1.2686   1.3105
     1.3408   1.3585   1.4276   1.5202   1.5370   1.5578   1.6443   1.7329
     1.7532   1.8171   1.8354   1.8747   1.9567   2.0178   2.0350   2.0370
     2.0790   2.1049   2.2431   2.2444   2.2709   2.3332   2.4283   2.4477
     2.5231   2.7736   3.8314   4.3399   4.5950   4.6513   4.7028   4.7589
     5.0923   5.2803   5.3184   5.8765   5.9621   6.4287   7.0218   7.5776
     8.3498   8.5406   8.6465   8.6683   8.9226   8.9397   9.0079   9.2135
     9.4087

     the Fermi energy is     2.4715 ev

!    total energy              =   -1842.66871748 Ry
     Harris-Foulkes estimate   =   -1842.66871749 Ry
     estimated scf accuracy    <          5.1E-09 Ry

     The total energy is the sum of the following terms:

     one-electron contribution =  -28906.98832450 Ry
     hartree contribution      =   14604.42130790 Ry
     xc contribution           =    -621.53664379 Ry
     ewald contribution        =   13081.44254293 Ry
     smearing contrib. (-TS)   =      -0.00760002 Ry

     convergence has been achieved in  35 iterations

     negative rho (up, down):  1.472E-03 0.000E+00

     Forces acting on atoms (cartesian axes, Ry/au):

     atom    1 type  4   force =     0.00000000    0.00000000   -0.00017769
     atom    2 type  3   force =     0.00000000    0.00000000    0.00037981
     atom    3 type  4   force =     0.00000000    0.00000000   -0.00076396
     atom    4 type  1   force =     0.00000000    0.00000000   -0.00030029
     atom    5 type  3   force =     0.00000000    0.00000000    0.00062710
     atom    6 type  4   force =     0.00000000    0.00000000    0.00000709
     atom    7 type  4   force =     0.00000000    0.00000000    0.00033885
     atom    8 type  2   force =     0.00000000    0.00000000   -0.00065110
     atom    9 type  4   force =     0.00000000    0.00000000    0.00031500
     atom   10 type  4   force =     0.00000000    0.00000000    0.00038741
     atom   11 type  3   force =     0.00000000    0.00000000    0.00023484
     atom   12 type  1   force =     0.00000000    0.00000000    0.00012172
     atom   13 type  4   force =     0.00000000    0.00000000    0.00342288
     atom   14 type  4   force =     0.00000000    0.00000000    0.00419032
     atom   15 type  3   force =     0.00000000    0.00000000   -0.00748286
     atom   16 type  4   force =     0.00000000    0.00000000    0.00685264
     atom   17 type  1   force =     0.00000000    0.00000000   -0.02061401
     atom   18 type  3   force =     0.00000000    0.00000000    0.00913899
     atom   19 type  4   force =     0.00000000    0.00000000    0.06228906
     atom   20 type  4   force =     0.00000000    0.00000000    0.06854797
     atom   21 type  2   force =     0.00000000    0.00000000   -0.09914143
     atom   22 type  4   force =     0.00000000    0.00000000    0.00186583
     atom   23 type  4   force =     0.00000000    0.00000000    0.00984133
     atom   24 type  3   force =     0.00000000    0.00000000   -0.01931572
     atom   25 type  1   force =     0.00000000    0.00000000   -0.01801726
     atom   26 type  4   force =     0.00000000    0.00000000   -0.00236057
     atom   27 type  3   force =     0.00000000    0.00000000    0.00190751
     atom   28 type  4   force =     0.00000000    0.00000000   -0.00164345

     Total force =     0.140927     Total SCF correction =     0.000374

     Computing stress (Cartesian axis) and pressure

     negative rho (up, down):  1.472E-03 0.000E+00
          total   stress  (Ry/bohr**3)                   (kbar)     P=       -6.14
  -0.00000636   0.00000000   0.00000000           -0.94        0.00        0.00
   0.00000000   0.00002107   0.00000000            0.00        3.10        0.00
   0.00000000   0.00000000  -0.00013996            0.00        0.00      -20.59

     General routines

     Parallel routines

   This run was terminated on:  21:42:40  21May2021

   JOB DONE.
[1621647760.737598] [holy7c16405:253449:0]          mpool.c:43   UCX  WARN  object 0x37c3c40 was not returned to mpool ucp_requests
[1621647760.737613] [holy7c16405:253449:0]          mpool.c:43   UCX  WARN  object 0x37c3fc0 was not returned to mpool ucp_requests
[1621647760.737639] [holy7c10309:50922:0]          mpool.c:43   UCX  WARN  object 0x3fe81c0 was not returned to mpool ucp_requests
[1621647760.739349] [holy7c10403:236331:0]          mpool.c:43   UCX  WARN  object 0x3524c80 was not returned to mpool ucp_requests
[1621647760.739370] [holy7c10403:236331:0]          mpool.c:43   UCX  WARN  object 0x3525380 was not returned to mpool ucp_requests
[1621647760.740783] [holy7c16204:78260:0]          mpool.c:43   UCX  WARN  object 0x44e65c0 was not returned to mpool ucp_requests
[1621647760.738796] [holy7c10410:173755:0]          mpool.c:43   UCX  WARN  object 0x2ba2540 was not returned to mpool ucp_requests
[1621647760.740847] [holy7c16106:64476:0]          mpool.c:43   UCX  WARN  object 0x29ec7c0 was not returned to mpool ucp_requests
[1621647760.740863] [holy7c16106:64476:0]          mpool.c:43   UCX  WARN  object 0x29ecb40 was not returned to mpool ucp_requests
[1621647760.741225] [holy7c16204:78259:0]          mpool.c:43   UCX  WARN  object 0x2c3b500 was not returned to mpool ucp_requests
[1621647760.741240] [holy7c16204:78259:0]          mpool.c:43   UCX  WARN  object 0x2c3ba40 was not returned to mpool ucp_requests