     Program PWSCF v.6.5 starts on 21May2021 at 11:33:59

     R & G space division:  proc/nbgrp/npool/nimage =      20
     Reading input from CBCO_BaO_cleave_2.0_sep.pwi
Warning: card &IONS ignored
Warning: card     ION_DYNAMICS = 'BFGS' ignored
Warning: card / ignored
Warning: card &CELL ignored
Warning: card     CELL_DYNAMICS = 'BFGS' ignored
Warning: card     PRESS_CONV_THR = 5 ignored
Warning: card / ignored

     Current dimensions of program PWSCF are:
     Max number of different atomic species (ntypx) = 10
     Max number of k-points (npk) =  40000
     Max angular momentum in pseudopotentials (lmaxx) =  3

     Message from routine setup:
     using ibrav=0 with symmetry is DISCOURAGED, use correct ibrav instead

     bravais-lattice index     =            0
     lattice parameter (alat)  =       7.4270  a.u.
     unit-cell volume          =    4499.7550 (a.u.)^3
     number of atoms/cell      =           28
     number of atomic types    =            4
     number of electrons       =       227.00
     number of Kohn-Sham states=          137
     kinetic-energy cutoff     =      60.0000  Ry
     charge density cutoff     =     720.0000  Ry
     convergence threshold     =      1.0E-08
     mixing beta               =       0.5000
     number of iterations used =           10  local-TF  mixing
     Exchange-correlation= SLA PW PBE PBE
                           (   1   4   3   4   0   0   0)

     celldm(1)=   7.427040  celldm(2)=   0.000000  celldm(3)=   0.000000
     celldm(4)=   0.000000  celldm(5)=   0.000000  celldm(6)=   0.000000

     crystal axes: (cart. coord. in units of alat)
               a(1) = (   1.000000   0.000000   0.000000 )
               a(2) = (   0.000000   0.947081   0.000000 )
               a(3) = (   0.000000   0.000000  11.597234 )

     reciprocal axes: (cart. coord. in units 2 pi/alat)
               b(1) = (  1.000000  0.000000  0.000000 )
               b(2) = (  0.000000  1.055876  0.000000 )
               b(3) = (  0.000000  0.000000  0.086227 )

     PseudoPot. # 1 for Ba read from file:
     ./pseudo/Ba.pbe-nsp-van.UPF
     MD5 check sum: 2b9c31dd849566dd297d80989662b7a0
     Pseudo is Ultrasoft + core correction, Zval = 10.0
     Generated by new atomic code, or converted to UPF format
     Using radial grid of  907 points,  6 beta functions with:
                l(1) =   0
                l(2) =   0
                l(3) =   1
                l(4) =   1
                l(5) =   2
                l(6) =   2
     Q(r) pseudized with  6 coefficients,  rinner =    1.200   1.200   1.200
                                                       1.200   1.200

     PseudoPot. # 2 for Ca read from file:
     ./pseudo/Ca.pbe-nsp-van.UPF
     MD5 check sum: 6471098428ff4fa451746d08035ff179
     Pseudo is Ultrasoft + core correction, Zval = 10.0
     Generated by new atomic code, or converted to UPF format
     Using radial grid of  845 points,  6 beta functions with:
                l(1) =   0
                l(2) =   0
                l(3) =   1
                l(4) =   1
                l(5) =   2
                l(6) =   2
     Q(r) pseudized with  6 coefficients,  rinner =    1.200   1.200   1.200
                                                       1.200   1.200

     PseudoPot. # 3 for Cu read from file:
     ./pseudo/Cu.pbe-n-van_ak.UPF
     MD5 check sum: 34e3282627ffb533726feb647e090d62
     Pseudo is Ultrasoft + core correction, Zval = 11.0
     Generated by new atomic code, or converted to UPF format
     Using radial grid of  867 points,  6 beta functions with:
                l(1) =   0
                l(2) =   0
                l(3) =   1
                l(4) =   1
                l(5) =   2
                l(6) =   2
     Q(r) pseudized with  8 coefficients,  rinner =    1.400   1.400   1.400
                                                       1.400   1.400

     PseudoPot. # 4 for O  read from file:
     ./pseudo/O.pbe-van_ak.UPF
     MD5 check sum: 783ce7fe4c79b6a4916957118fed0856
     Pseudo is Ultrasoft, Zval =  6.0
     Generated by new atomic code, or converted to UPF format
     Using radial grid of  737 points,  4 beta functions with:
                l(1) =   0
                l(2) =   0
                l(3) =   1
                l(4) =   1
     Q(r) pseudized with  8 coefficients,  rinner =    0.800   0.800   0.800

     atomic species   valence    mass     pseudopotential
        Ba            10.00   137.32700     Ba( 1.00)
        Ca            10.00    40.07800     Ca( 1.00)
        Cu            11.00    63.54600     Cu( 1.00)
        O              6.00    15.99900     O ( 1.00)

      4 Sym. Ops. (no inversion) found

   Cartesian axes

     site n.     atom                  positions (alat units)
         1           O   tau(   1) = (   0.0000000   0.4735409  -0.0469745  )
         2           Cu  tau(   2) = (   0.0000000   0.0000000   0.0264565  )
         3           O   tau(   3) = (   0.0000000   0.0000000   0.5030914  )
         4           Ba  tau(   4) = (   0.5000000   0.4735409   0.5690292  )
         5           Cu  tau(   5) = (   0.0000000   0.0000000   1.0374254  )
         6           O   tau(   6) = (   0.5000000   0.0000000   1.0768099  )
         7           O   tau(   7) = (   0.0000000   0.4735409   1.1116985  )
         8           Ca  tau(   8) = (   0.5000000   0.4735409   1.4976260  )
         9           O   tau(   9) = (   0.0000000   0.4735409   1.8667529  )
        10           O   tau(  10) = (   0.5000000   0.0000000   1.9044124  )
        11           Cu  tau(  11) = (   0.0000000   0.0000000   1.9512546  )
        12           Ba  tau(  12) = (   0.5000000   0.4735409   2.4295764  )
        13           O   tau(  13) = (   0.0000000   0.0000000   2.5115362  )
        14           O   tau(  14) = (   0.0000000   0.4735409   2.9918528  )
        15           Cu  tau(  15) = (   0.0000000   0.0000000   2.9919088  )
        16           O   tau(  16) = (   0.0000000   0.0000000   3.4722686  )
        17           Ba  tau(  17) = (   0.5000000   0.4735409   3.5542208  )
        18           Cu  tau(  18) = (   0.0000000   0.0000000   4.5414021  )
        19           O   tau(  19) = (   0.5000000   0.0000000   4.5882443  )
        20           O   tau(  20) = (   0.0000000   0.4735409   4.6258987  )
        21           Ca  tau(  21) = (   0.5000000   0.4735409   4.9950357  )
        22           O   tau(  22) = (   0.0000000   0.4735409   5.3809607  )
        23           O   tau(  23) = (   0.5000000   0.0000000   5.4158493  )
        24           Cu  tau(  24) = (   0.0000000   0.0000000   5.4552364  )
        25           Ba  tau(  25) = (   0.5000000   0.4735409   5.9236300  )
        26           O   tau(  26) = (   0.0000000   0.0000000   5.9895576  )
        27           Cu  tau(  27) = (   0.0000000   0.0000000   6.4661976  )
        28           O   tau(  28) = (   0.0000000   0.4735409   6.5396159  )

     number of k points=    25  Gaussian smearing, width (Ry)=  0.0100
                       cart. coord. in units 2pi/alat
        k(    1) = (   0.0000000   0.0000000   0.0000000), wk =   0.0312500
        k(    2) = (   0.0000000   0.1319845   0.0000000), wk =   0.0625000
        k(    3) = (   0.0000000   0.2639689   0.0000000), wk =   0.0625000
        k(    4) = (   0.0000000   0.3959534   0.0000000), wk =   0.0625000
        k(    5) = (   0.0000000  -0.5279378   0.0000000), wk =   0.0312500
        k(    6) = (   0.1250000   0.0000000   0.0000000), wk =   0.0625000
        k(    7) = (   0.1250000   0.1319845   0.0000000), wk =   0.1250000
        k(    8) = (   0.1250000   0.2639689   0.0000000), wk =   0.1250000
        k(    9) = (   0.1250000   0.3959534   0.0000000), wk =   0.1250000
        k(   10) = (   0.1250000  -0.5279378   0.0000000), wk =   0.0625000
        k(   11) = (   0.2500000   0.0000000   0.0000000), wk =   0.0625000
        k(   12) = (   0.2500000   0.1319845   0.0000000), wk =   0.1250000
        k(   13) = (   0.2500000   0.2639689   0.0000000), wk =   0.1250000
        k(   14) = (   0.2500000   0.3959534   0.0000000), wk =   0.1250000
        k(   15) = (   0.2500000  -0.5279378   0.0000000), wk =   0.0625000
        k(   16) = (   0.3750000   0.0000000   0.0000000), wk =   0.0625000
        k(   17) = (   0.3750000   0.1319845   0.0000000), wk =   0.1250000
        k(   18) = (   0.3750000   0.2639689   0.0000000), wk =   0.1250000
        k(   19) = (   0.3750000   0.3959534   0.0000000), wk =   0.1250000
        k(   20) = (   0.3750000  -0.5279378   0.0000000), wk =   0.0625000
        k(   21) = (  -0.5000000   0.0000000   0.0000000), wk =   0.0312500
        k(   22) = (  -0.5000000   0.1319845   0.0000000), wk =   0.0625000
        k(   23) = (  -0.5000000   0.2639689   0.0000000), wk =   0.0625000
        k(   24) = (  -0.5000000   0.3959534   0.0000000), wk =   0.0625000
        k(   25) = (  -0.5000000  -0.5279378   0.0000000), wk =   0.0312500

     Initial potential from superposition of free atoms

     starting charge  226.84630, renormalised to  227.00000

     negative rho (up, down):  3.506E-03 0.000E+00
     Starting wfcs are  195 randomized atomic wfcs

     Self-consistent Calculation

     iteration #  1     ecut=    60.00 Ry     beta= 0.50
     Davidson diagonalization with overlap
     ethr =  1.00E-02,  avg # of iterations =  2.0

     negative rho (up, down):  5.114E-04 0.000E+00

     total energy              =   -1840.82680771 Ry
     Harris-Foulkes estimate   =   -1845.39152721 Ry
     estimated scf accuracy    <      18.89789502 Ry

[...]

     iteration # 12     ecut=    60.00 Ry     beta= 0.50
     Davidson diagonalization with overlap
     c_bands:  2 eigenvalues not converged
     ethr =  9.02E-06,  avg # of iterations =  9.8

[...]

     iteration # 24     ecut=    60.00 Ry     beta= 0.50
     Davidson diagonalization with overlap
     c_bands:  1 eigenvalues not converged
     ethr =  9.14E-08,  avg # of iterations =  3.4

[...]

     total energy              =   -1842.82183099 Ry
     Harris-Foulkes estimate   =   -1842.82183101 Ry
     estimated scf accuracy    <       0.00000001 Ry

     iteration # 35     ecut=    60.00 Ry     beta= 0.50
     Davidson diagonalization with overlap
     ethr =  4.63E-12,  avg # of iterations =  2.1

[...]

     End of self-consistent calculation

          k = 0.0000 0.0000 0.0000 ( 35431 PWs)   bands (ev):

   -35.7299 -35.5570 -24.2052 -22.9257 -22.9242 -22.7117 -17.2339 -17.0363
   -16.7811 -16.7696 -16.6224 -16.6040 -15.4428 -15.3114 -15.1188 -14.8069
   -14.7982 -14.7148 -14.4844 -14.3157 -14.3108 -14.1197 -14.0908 -13.9706
   -13.9569 -13.8387 -13.6240  -9.4529  -9.0459  -8.9649  -8.0573  -8.0539
    -8.0194  -8.0185  -7.8987  -7.8265  -7.8250  -7.7551  -7.5892  -2.4655
    -2.4638  -2.2975  -1.9649  -1.9589  -1.9125  -1.8075  -1.7674  -1.6843
    -1.6790  -1.6254  -1.5570  -1.3759  -1.3567  -1.3546  -1.3277  -1.0954
    -0.8907  -0.8869  -0.5945  -0.5927  -0.5154  -0.5103  -0.4732  -0.4207
    -0.4180  -0.4108  -0.4006  -0.3987  -0.3888  -0.3697  -0.2926  -0.2844
    -0.2544  -0.2430  -0.1731  -0.1712  -0.0373  -0.0358  -0.0352  -0.0317
    -0.0033   0.0368   0.0699   0.0780   0.1579   0.1851   0.2571   0.2627
     0.4847   0.5035   0.5986   0.7468   0.7476   0.8060   0.8303   1.0440
     1.0947   1.1040   1.2093   1.2433   1.2573   1.2693   1.3437   1.3599
     1.4455   1.5517   1.5670   1.6542   1.6820   1.8466   1.8769   1.8850
     1.8959   1.9026   2.0315   2.0668   2.0758   2.3916   2.3995   4.6298
     5.0760   5.0854   5.3361   5.9063   6.2636   6.5954   6.6286   6.7134
     7.2289   7.6956   7.8426   7.9895   8.1495   8.3019   8.4294   8.5290
     8.7600

[...]

          k = 0.3750-0.5279 0.0000 ( 35336 PWs)   bands (ev):

[...]

          k =-0.5000 0.0000 0.0000 ( 35302 PWs)   bands (ev):

[...]

          k =-0.5000-0.5279 0.0000 ( 35396 PWs)   bands (ev):

   -35.7102 -35.5372 -23.9889 -22.6528 -22.6513 -22.4491 -17.1559 -17.1467
   -17.0023 -16.9793 -16.7704 -16.5666 -14.7493 -14.7475 -14.5793 -14.5292
   -14.5150 -14.4058 -14.3242 -14.2399 -14.2386 -14.1926 -14.1888 -14.0785
   -14.0448 -13.9961 -13.6527 -10.0834  -9.6066  -9.3309  -8.8857  -8.8836
    -8.6710  -8.6177  -8.6168  -8.3233  -8.1512  -8.1479  -7.9781  -4.2268
    -4.1761  -3.9329  -3.8295  -3.5664  -3.2977  -3.2957  -2.8702  -2.8689
    -2.7142  -2.5081  -2.4256  -2.4222  -2.4206  -2.3617  -2.2786  -2.1090
    -1.9763  -1.9612  -1.5716  -1.4849  -1.4790  -1.3077  -1.2924  -1.1600
    -1.1397  -1.1185  -1.1169  -1.0344  -0.9725  -0.8588  -0.8432  -0.7054
    -0.6736  -0.4659  -0.4640   0.0534   0.1705   0.2213   0.3661   0.6885
     0.8894   0.9722   1.1303   1.2110   1.2155   1.2248   1.2619   1.2804
     1.3072   1.4394   1.4842   1.5717   1.5869   1.6338   1.6806   1.7219
     1.7584   1.7672   1.8370   1.8722   1.8833   1.9409   1.9627   1.9634
     2.0568   2.0980   2.1236   2.2055   2.2079   2.2861   2.2873   2.4002
     2.4092   2.6200   4.0530   4.5748   4.5802   4.6380   4.7130   4.7361
     5.8377   5.8382   6.6437   6.9738   7.0604   7.0849   8.0575   8.1349
     8.8990   8.9215   8.9485   9.0140   9.3077   9.4008   9.6214   9.6357
     9.6995

     the Fermi energy is     2.4330 ev

!    total energy              =   -1842.82183097 Ry
     Harris-Foulkes estimate   =   -1842.82183099 Ry
     estimated scf accuracy    <          4.9E-09 Ry

     The total energy is the sum of the following terms:

     one-electron contribution =  -27330.92221365 Ry
     hartree contribution      =   13817.01310304 Ry
     xc contribution           =    -621.55168631 Ry
     ewald contribution        =   12292.64626351 Ry
     smearing contrib. (-TS)   =      -0.00729756 Ry

     convergence has been achieved in  35 iterations

     negative rho (up, down):  1.484E-03 0.000E+00

     Forces acting on atoms (cartesian axes, Ry/au):

     atom    1 type  4   force =     0.00000000    0.00000000   -0.00017428
     atom    2 type  3   force =     0.00000000    0.00000000    0.00031103
     atom    3 type  4   force =     0.00000000    0.00000000   -0.00079603
     atom    4 type  1   force =     0.00000000    0.00000000   -0.00030636
     atom    5 type  3   force =     0.00000000    0.00000000    0.00056732
     atom    6 type  4   force =     0.00000000    0.00000000    0.00011167
     atom    7 type  4   force =     0.00000000    0.00000000    0.00042666
     atom    8 type  2   force =     0.00000000    0.00000000   -0.00097773
     atom    9 type  4   force =     0.00000000    0.00000000    0.00036048
     atom   10 type  4   force =     0.00000000    0.00000000    0.00053419
     atom   11 type  3   force =     0.00000000    0.00000000    0.00065649
     atom   12 type  1   force =     0.00000000    0.00000000   -0.00205016
     atom   13 type  4   force =     0.00000000    0.00000000    0.00662301
     atom   14 type  4   force =     0.00000000    0.00000000    0.01747677
     atom   15 type  3   force =     0.00000000    0.00000000   -0.01830150
     atom   16 type  4   force =     0.00000000    0.00000000    0.02772949
     atom   17 type  1   force =     0.00000000    0.00000000   -0.01941740
     atom   18 type  3   force =     0.00000000    0.00000000   -0.00858906
     atom   19 type  4   force =     0.00000000    0.00000000    0.00813907
     atom   20 type  4   force =     0.00000000    0.00000000    0.00163252
     atom   21 type  2   force =     0.00000000    0.00000000   -0.01755779
     atom   22 type  4   force =     0.00000000    0.00000000    0.00055961
     atom   23 type  4   force =     0.00000000    0.00000000    0.00207039
     atom   24 type  3   force =     0.00000000    0.00000000   -0.00010323
     atom   25 type  1   force =     0.00000000    0.00000000    0.00021811
     atom   26 type  4   force =     0.00000000    0.00000000    0.00110559
     atom   27 type  3   force =     0.00000000    0.00000000   -0.00056852
     atom   28 type  4   force =     0.00000000    0.00000000    0.00031963

     Total force =     0.047905     Total SCF correction =     0.000278

     Computing stress (Cartesian axis) and pressure

     negative rho (up, down):  1.484E-03 0.000E+00
          total   stress  (Ry/bohr**3)                   (kbar)     P=       -8.42
  -0.00009200   0.00000000   0.00000000          -13.53        0.00        0.00
   0.00000000  -0.00004042   0.00000000            0.00       -5.95        0.00
   0.00000000   0.00000000  -0.00003922            0.00        0.00       -5.77

     General routines

     Parallel routines

   This run was terminated on:  11:44:32  21May2021

   JOB DONE.
[1621611872.583623] [holy7c04507:192697:0]          mpool.c:43   UCX  WARN  object 0x3a12040 was not returned to mpool ucp_requests
[1621611872.583640] [holy7c04507:192697:0]          mpool.c:43   UCX  WARN  object 0x3a12200 was not returned to mpool ucp_requests
[1621611872.585489] [holy7c06401:256856:0]          mpool.c:43   UCX  WARN  object 0x3ae4580 was not returned to mpool ucp_requests
[1621611872.585053] [holy7c08106:99653:0]          mpool.c:43   UCX  WARN  object 0x3cecb00 was not returned to mpool ucp_requests
[1621611872.585073] [holy7c08106:99653:0]          mpool.c:43   UCX  WARN  object 0x3ceccc0 was not returned to mpool ucp_requests
[1621611872.585215] [holy7c06606:200023:0]          mpool.c:43   UCX  WARN  object 0x30b7b00 was not returned to mpool ucp_requests
[1621611872.585233] [holy7c06606:200023:0]          mpool.c:43   UCX  WARN  object 0x30b7e80 was not returned to mpool ucp_requests
[1621611872.585903] [holy7c06608:201938:0]          mpool.c:43   UCX  WARN  object 0x3f6d080 was not returned to mpool ucp_requests
[1621611872.584700] [holy7c08203:232047:0]          mpool.c:43   UCX  WARN  object 0x3b19200 was not returned to mpool ucp_requests
[1621611872.590726] [holy7c02601:41650:0]          mpool.c:43   UCX  WARN  object 0x2e7fb40 was not returned to mpool ucp_requests
[1621611872.590905] [holy7c08111:177997:0]          mpool.c:43   UCX  WARN  object 0x3dabd80 was not returned to mpool ucp_requests