     Program PWSCF v.6.5 starts on 21May2021 at 22:37:55

     R & G space division:  proc/nbgrp/npool/nimage =      20
     Reading input from CBCO_CuO_cleave_1.75_sep.pwi
Warning: card &IONS ignored
Warning: card     ION_DYNAMICS = 'BFGS' ignored
Warning: card / ignored
Warning: card &CELL ignored
Warning: card     CELL_DYNAMICS = 'BFGS' ignored
Warning: card     PRESS_CONV_THR = 5 ignored
Warning: card / ignored

     Current dimensions of program PWSCF are:
     Max number of different atomic species (ntypx) = 10
     Max number of k-points (npk) =  40000
     Max angular momentum in pseudopotentials (lmaxx) =  3

     Message from routine setup:
     using ibrav=0 with symmetry is DISCOURAGED, use correct ibrav instead

     bravais-lattice index     =            0
     lattice parameter (alat)  =       7.4270  a.u.
     unit-cell volume          =    4475.0743 (a.u.)^3
     number of atoms/cell      =           28
     number of atomic types    =            4
     number of electrons       =       227.00
     number of Kohn-Sham states=          137
     kinetic-energy cutoff     =      60.0000  Ry
     charge density cutoff     =     720.0000  Ry
     convergence threshold     =      1.0E-08
     mixing beta               =       0.5000
     number of iterations used =           10  local-TF  mixing
     Exchange-correlation= SLA PW PBE PBE
                           (   1   4   3   4   0   0   0)

     celldm(1)=   7.427040  celldm(2)=   0.000000  celldm(3)=   0.000000
     celldm(4)=   0.000000  celldm(5)=   0.000000  celldm(6)=   0.000000

     crystal axes: (cart. coord. in units of alat)
               a(1) = (   1.000000   0.000000   0.000000 )
               a(2) = (   0.000000   0.947081   0.000000 )
               a(3) = (   0.000000   0.000000  11.533624 )

     reciprocal axes: (cart. coord. in units 2 pi/alat)
               b(1) = (  1.000000  0.000000  0.000000 )
               b(2) = (  0.000000  1.055876  0.000000 )
               b(3) = (  0.000000  0.000000  0.086703 )

     PseudoPot. # 1 for Ba read from file:
     ./pseudo/Ba.pbe-nsp-van.UPF
     MD5 check sum: 2b9c31dd849566dd297d80989662b7a0
     Pseudo is Ultrasoft + core correction, Zval = 10.0
     Generated by new atomic code, or converted to UPF format
     Using radial grid of  907 points,  6 beta functions with:
                l(1) =   0
                l(2) =   0
                l(3) =   1
                l(4) =   1
                l(5) =   2
                l(6) =   2
     Q(r) pseudized with  6 coefficients,  rinner =    1.200   1.200   1.200
                                                       1.200   1.200

     PseudoPot. # 2 for Ca read from file:
     ./pseudo/Ca.pbe-nsp-van.UPF
     MD5 check sum: 6471098428ff4fa451746d08035ff179
     Pseudo is Ultrasoft + core correction, Zval = 10.0
     Generated by new atomic code, or converted to UPF format
     Using radial grid of  845 points,  6 beta functions with:
                l(1) =   0
                l(2) =   0
                l(3) =   1
                l(4) =   1
                l(5) =   2
                l(6) =   2
     Q(r) pseudized with  6 coefficients,  rinner =    1.200   1.200   1.200
                                                       1.200   1.200

     PseudoPot. # 3 for Cu read from file:
     ./pseudo/Cu.pbe-n-van_ak.UPF
     MD5 check sum: 34e3282627ffb533726feb647e090d62
     Pseudo is Ultrasoft + core correction, Zval = 11.0
     Generated by new atomic code, or converted to UPF format
     Using radial grid of  867 points,  6 beta functions with:
                l(1) =   0
                l(2) =   0
                l(3) =   1
                l(4) =   1
                l(5) =   2
                l(6) =   2
     Q(r) pseudized with  8 coefficients,  rinner =    1.400   1.400   1.400
                                                       1.400   1.400

     PseudoPot. # 4 for O  read from file:
     ./pseudo/O.pbe-van_ak.UPF
     MD5 check sum: 783ce7fe4c79b6a4916957118fed0856
     Pseudo is Ultrasoft, Zval =  6.0
     Generated by new atomic code, or converted to UPF format
     Using radial grid of  737 points,  4 beta functions with:
                l(1) =   0
                l(2) =   0
                l(3) =   1
                l(4) =   1
     Q(r) pseudized with  8 coefficients,  rinner =    0.800   0.800   0.800

     atomic species   valence    mass     pseudopotential
        Ba            10.00   137.32700     Ba( 1.00)
        Ca            10.00    40.07800     Ca( 1.00)
        Cu            11.00    63.54600     Cu( 1.00)
        O              6.00    15.99900     O ( 1.00)

      4 Sym. Ops. (no inversion) found

   Cartesian axes

     site n.     atom                  positions (alat units)
         1           O   tau(   1) = (   0.0000000   0.4735409  -0.0469745  )
         2           Cu  tau(   2) = (   0.0000000   0.0000000   0.0264565  )
         3           O   tau(   3) = (   0.0000000   0.0000000   0.5030914  )
         4           Ba  tau(   4) = (   0.5000000   0.4735409   0.5690292  )
         5           Cu  tau(   5) = (   0.0000000   0.0000000   1.0374254  )
         6           O   tau(   6) = (   0.5000000   0.0000000   1.0768099  )
         7           O   tau(   7) = (   0.0000000   0.4735409   1.1116985  )
         8           Ca  tau(   8) = (   0.5000000   0.4735409   1.4976260  )
         9           O   tau(   9) = (   0.0000000   0.4735409   1.8667529  )
        10           O   tau(  10) = (   0.5000000   0.0000000   1.9044124  )
        11           Cu  tau(  11) = (   0.0000000   0.0000000   1.9512546  )
        12           Ba  tau(  12) = (   0.5000000   0.4735409   2.4295764  )
        13           O   tau(  13) = (   0.0000000   0.0000000   2.5115362  )
        14           O   tau(  14) = (   0.0000000   0.4735409   2.9918528  )
        15           Cu  tau(  15) = (   0.0000000   0.0000000   2.9919088  )
        16           O   tau(  16) = (   0.0000000   0.0000000   3.9175363  )
        17           Ba  tau(  17) = (   0.5000000   0.4735409   3.9994885  )
        18           Cu  tau(  18) = (   0.0000000   0.0000000   4.4777924  )
        19           O   tau(  19) = (   0.5000000   0.0000000   4.5246346  )
        20           O   tau(  20) = (   0.0000000   0.4735409   4.5622890  )
        21           Ca  tau(  21) = (   0.5000000   0.4735409   4.9314261  )
        22           O   tau(  22) = (   0.0000000   0.4735409   5.3173510  )
        23           O   tau(  23) = (   0.5000000   0.0000000   5.3522397  )
        24           Cu  tau(  24) = (   0.0000000   0.0000000   5.3916268  )
        25           Ba  tau(  25) = (   0.5000000   0.4735409   5.8600204  )
        26           O   tau(  26) = (   0.0000000   0.0000000   5.9259480  )
        27           Cu  tau(  27) = (   0.0000000   0.0000000   6.4025879  )
        28           O   tau(  28) = (   0.0000000   0.4735409   6.4760062  )

     number of k points=    25  Gaussian smearing, width (Ry)=  0.0100
                       cart. coord. in units 2pi/alat
        k(    1) = (   0.0000000   0.0000000   0.0000000), wk =   0.0312500
        k(    2) = (   0.0000000   0.1319845   0.0000000), wk =   0.0625000
        k(    3) = (   0.0000000   0.2639689   0.0000000), wk =   0.0625000
        k(    4) = (   0.0000000   0.3959534   0.0000000), wk =   0.0625000
        k(    5) = (   0.0000000  -0.5279378   0.0000000), wk =   0.0312500
        k(    6) = (   0.1250000   0.0000000   0.0000000), wk =   0.0625000
        k(    7) = (   0.1250000   0.1319845   0.0000000), wk =   0.1250000
        k(    8) = (   0.1250000   0.2639689   0.0000000), wk =   0.1250000
        k(    9) = (   0.1250000   0.3959534   0.0000000), wk =   0.1250000
        k(   10) = (   0.1250000  -0.5279378   0.0000000), wk =   0.0625000
        k(   11) = (   0.2500000   0.0000000   0.0000000), wk =   0.0625000
        k(   12) = (   0.2500000   0.1319845   0.0000000), wk =   0.1250000
        k(   13) = (   0.2500000   0.2639689   0.0000000), wk =   0.1250000
        k(   14) = (   0.2500000   0.3959534   0.0000000), wk =   0.1250000
        k(   15) = (   0.2500000  -0.5279378   0.0000000), wk =   0.0625000
        k(   16) = (   0.3750000   0.0000000   0.0000000), wk =   0.0625000
        k(   17) = (   0.3750000   0.1319845   0.0000000), wk =   0.1250000
        k(   18) = (   0.3750000   0.2639689   0.0000000), wk =   0.1250000
        k(   19) = (   0.3750000   0.3959534   0.0000000), wk =   0.1250000
        k(   20) = (   0.3750000  -0.5279378   0.0000000), wk =   0.0625000
        k(   21) = (  -0.5000000   0.0000000   0.0000000), wk =   0.0312500
        k(   22) = (  -0.5000000   0.1319845   0.0000000), wk =   0.0625000
        k(   23) = (  -0.5000000   0.2639689   0.0000000), wk =   0.0625000
        k(   24) = (  -0.5000000   0.3959534   0.0000000), wk =   0.0625000
        k(   25) = (  -0.5000000  -0.5279378   0.0000000), wk =   0.0312500

     Initial potential from superposition of free atoms

     starting charge  226.84630, renormalised to  227.00000

     negative rho (up, down):  3.480E-03 0.000E+00
     Starting wfcs are  195 randomized atomic wfcs

     Self-consistent Calculation

     iteration #  1     ecut=    60.00 Ry     beta= 0.50
     Davidson diagonalization with overlap
     ethr =  1.00E-02,  avg # of iterations =  2.0

     negative rho (up, down):  4.900E-04 0.000E+00

     total energy              =   -1840.74090046 Ry
     Harris-Foulkes estimate   =   -1845.34196499 Ry
     estimated scf accuracy    <      18.90162690 Ry

[...]

     iteration # 18     ecut=    60.00 Ry     beta= 0.50
     Davidson diagonalization with overlap
     c_bands:  1 eigenvalues not converged
     ethr =  2.46E-06,  avg # of iterations =  8.3

[...]

     iteration # 25     ecut=    60.00 Ry     beta= 0.50
     Davidson diagonalization with overlap
     c_bands:  1 eigenvalues not converged
     ethr =  1.59E-08,  avg # of iterations =  3.9

[...]

     total energy              =   -1842.79450537 Ry
     Harris-Foulkes estimate   =   -1842.79450537 Ry
     estimated scf accuracy    <       0.00000002 Ry

     iteration # 36     ecut=    60.00 Ry     beta= 0.50
     Davidson diagonalization with overlap
     ethr =  5.24E-12,  avg # of iterations =  1.0

[...]

     End of self-consistent calculation

          k = 0.0000 0.0000 0.0000 ( 35217 PWs)   bands (ev):

   -35.8211 -35.7960 -22.9803 -22.9769 -22.8260 -22.7552 -17.3220 -17.3017
   -16.8728 -16.8623 -16.8491 -16.8352 -15.5198 -15.5088 -14.8659 -14.8602
   -14.8493 -14.7946 -14.7818 -14.3674 -14.3647 -14.1914 -14.1785 -14.0890
   -14.0544 -14.0373 -12.8992  -8.1127  -8.1089  -8.0737  -8.0706  -7.9836
    -7.9644  -7.8871  -7.8809  -7.8776  -7.7314  -7.7143  -7.5336  -2.5143
    -2.5139  -2.1790  -2.0383  -2.0376  -2.0142  -2.0098  -1.8846  -1.8672
    -1.7717  -1.7505  -1.7185  -1.7073  -1.4050  -1.4010  -1.0609  -0.6439
    -0.6418  -0.5671  -0.5649  -0.5597  -0.5340  -0.5105  -0.4925  -0.4743
    -0.4730  -0.4562  -0.4504  -0.4482  -0.4451  -0.3944  -0.3757  -0.2249
    -0.2217  -0.2215  -0.1218  -0.1055  -0.0961  -0.0899  -0.0852  -0.0824
    -0.0434  -0.0300  -0.0210  -0.0100   0.0193   0.0473   0.0983   0.1448
     0.3098   0.5904   0.6677   0.6956   0.6986   0.7397   0.7782   0.9758
     0.9804   1.1377   1.1600   1.1711   1.1874   1.2707   1.2926   1.3130
     1.3235   1.3410   1.3461   1.6049   1.6317   1.6837   1.8405   1.8539
     1.8970   2.0268   2.1463   2.1668   2.2552   2.3470   2.3602   4.8856
     5.0329   5.0496   5.9519   6.0475   6.5567   6.5697   6.6847   6.8534
     7.7820   7.8049   8.0000   8.0178   8.3400   8.4025   8.4283   8.4953
     8.9335

[...]

          k = 0.3750-0.5279 0.0000 ( 35168 PWs)   bands (ev):

[...]

          k =-0.5000 0.0000 0.0000 ( 35110 PWs)   bands (ev):

[...]

          k =-0.5000-0.5279 0.0000 ( 35180 PWs)   bands (ev):

   -35.8014 -35.7763 -22.7074 -22.7040 -22.5609 -22.5138 -17.2468 -17.2391
   -17.2272 -17.2124 -16.8600 -16.8372 -14.7983 -14.7972 -14.6500 -14.6500
   -14.4817 -14.4591 -14.4578 -14.3319 -14.3265 -14.2567 -14.2413 -14.2366
   -14.1691 -14.1305 -13.0137  -8.9403  -8.9368  -8.7978  -8.6720  -8.6690
    -8.5626  -8.4615  -8.3420  -8.2065  -8.2024  -8.0486  -8.0035  -4.3011
    -4.2782  -4.0009  -3.9464  -3.5870  -3.3466  -3.3428  -2.9255  -2.9193
    -2.8109  -2.7957  -2.4920  -2.4724  -2.4717  -2.4706  -2.1678  -2.1426
    -2.1416  -1.5925  -1.5419  -1.5170  -1.3719  -1.3626  -1.2315  -1.2288
    -1.2141  -1.1677  -1.1647  -1.1528  -1.1453  -1.0756  -1.0215  -0.5142
    -0.5136  -0.5120  -0.3851   0.0226   0.1682   0.2763   0.6411   0.7502
     0.9329   1.1481   1.1522   1.1530   1.1567   1.1879   1.1962   1.2649
     1.4154   1.4160   1.4182   1.4356   1.4596   1.6550   1.6833   1.7034
     1.7151   1.7948   1.7979   1.8136   1.8783   1.8801   1.9768   1.9867
     2.1525   2.1560   2.1985   2.2036   2.2132   2.2440   2.3376   2.3640
     2.3880   2.3956   2.8001   4.4849   4.4890   4.5564   4.5571   5.7806
     5.7878   5.7944   6.8473   6.9128   8.1922   8.3263   8.8044   8.8392
     8.8525   8.8979   9.1578   9.2185   9.3069   9.3397   9.6425   9.7036
     9.8237

     the Fermi energy is     2.3816 ev

!    total energy              =   -1842.79450537 Ry
     Harris-Foulkes estimate   =   -1842.79450537 Ry
     estimated scf accuracy    <          1.4E-09 Ry

     The total energy is the sum of the following terms:

     one-electron contribution =  -27449.66440432 Ry
     hartree contribution      =   13876.49735644 Ry
     xc contribution           =    -621.61911971 Ry
     ewald contribution        =   12352.00326344 Ry
     smearing contrib. (-TS)   =      -0.01160122 Ry

     convergence has been achieved in  36 iterations

     negative rho (up, down):  1.508E-03 0.000E+00

     Forces acting on atoms (cartesian axes, Ry/au):

     atom    1 type  4   force =     0.00000000    0.00000000   -0.00034200
     atom    2 type  3   force =     0.00000000    0.00000000    0.00042999
     atom    3 type  4   force =     0.00000000    0.00000000   -0.00075742
     atom    4 type  1   force =     0.00000000    0.00000000   -0.00051903
     atom    5 type  3   force =     0.00000000    0.00000000    0.00045254
     atom    6 type  4   force =     0.00000000    0.00000000    0.00090314
     atom    7 type  4   force =     0.00000000    0.00000000    0.00113405
     atom    8 type  2   force =     0.00000000    0.00000000   -0.00272100
     atom    9 type  4   force =     0.00000000    0.00000000    0.00446948
     atom   10 type  4   force =     0.00000000    0.00000000    0.00390509
     atom   11 type  3   force =     0.00000000    0.00000000    0.00136953
     atom   12 type  1   force =     0.00000000    0.00000000    0.00920909
     atom   13 type  4   force =     0.00000000    0.00000000   -0.01877144
     atom   14 type  4   force =     0.00000000    0.00000000    0.03677725
     atom   15 type  3   force =     0.00000000    0.00000000   -0.02682842
     atom   16 type  4   force =     0.00000000    0.00000000    0.02481505
     atom   17 type  1   force =     0.00000000    0.00000000   -0.01144326
     atom   18 type  3   force =     0.00000000    0.00000000   -0.02114098
     atom   19 type  4   force =     0.00000000    0.00000000   -0.00044702
     atom   20 type  4   force =     0.00000000    0.00000000   -0.00141172
     atom   21 type  2   force =     0.00000000    0.00000000    0.00242805
     atom   22 type  4   force =     0.00000000    0.00000000   -0.00163601
     atom   23 type  4   force =     0.00000000    0.00000000   -0.00019530
     atom   24 type  3   force =     0.00000000    0.00000000   -0.00030766
     atom   25 type  1   force =     0.00000000    0.00000000    0.00039072
     atom   26 type  4   force =     0.00000000    0.00000000    0.00029033
     atom   27 type  3   force =     0.00000000    0.00000000   -0.00000892
     atom   28 type  4   force =     0.00000000    0.00000000   -0.00004414

     Total force =     0.061337     Total SCF correction =     0.000162

     Computing stress (Cartesian axis) and pressure

     negative rho (up, down):  1.508E-03 0.000E+00
          total   stress  (Ry/bohr**3)                   (kbar)     P=       -5.91
   0.00000740   0.00000000   0.00000000            1.09        0.00        0.00
   0.00000000  -0.00008310   0.00000000            0.00      -12.22        0.00
   0.00000000   0.00000000  -0.00004479            0.00        0.00       -6.59

     General routines

     Parallel routines

   This run was terminated on:  22:50:47  21May2021

   JOB DONE.
[1621651847.109440] [holy7c10312:69301:0]          mpool.c:43   UCX  WARN  object 0x2f93c80 was not returned to mpool ucp_requests
[1621651847.109455] [holy7c10312:69301:0]          mpool.c:43   UCX  WARN  object 0x2f94000 was not returned to mpool ucp_requests
[1621651847.109913] [holy7c10306:234752:0]          mpool.c:43   UCX  WARN  object 0x3506bc0 was not returned to mpool ucp_requests
[1621651847.110545] [holy7c10405:153732:0]          mpool.c:43   UCX  WARN  object 0x286f600 was not returned to mpool ucp_requests
[1621651847.110560] [holy7c10405:153732:0]          mpool.c:43   UCX  WARN  object 0x286fec0 was not returned to mpool ucp_requests
[1621651847.111261] [holy7c10411:264033:0]          mpool.c:43   UCX  WARN  object 0x329a3c0 was not returned to mpool ucp_requests
[1621651847.118469] [holy7c10502:259059:0]          mpool.c:43   UCX  WARN  object 0x3bc7000 was not returned to mpool ucp_requests
[1621651847.115828] [holy7c10407:40124:0]          mpool.c:43   UCX  WARN  object 0x2aa18c0 was not returned to mpool ucp_requests
[1621651847.111668] [holy7c10402:272453:0]          mpool.c:43   UCX  WARN  object 0x433dd80 was not returned to mpool ucp_requests
[1621651847.128195] [holy7c10408:204275:0]          mpool.c:43   UCX  WARN  object 0x42f8f40 was not returned to mpool ucp_requests
[1621651847.118467] [holy7c10411:264032:0]          mpool.c:43   UCX  WARN  object 0x34e28c0 was not returned to mpool ucp_requests
[1621651847.118495] [holy7c10411:264032:0]          mpool.c:43   UCX  WARN  object 0x34e2a80 was not returned to mpool ucp_requests