     Program PWSCF v.6.5 starts on 21May2021 at 22:31:56

     R & G space division:  proc/nbgrp/npool/nimage =      20
     Reading input from CBCO_Y_cleave_0.75_sep.pwi
Warning: card &IONS ignored
Warning: card     ION_DYNAMICS = 'BFGS' ignored
Warning: card / ignored
Warning: card &CELL ignored
Warning: card     CELL_DYNAMICS = 'BFGS' ignored
Warning: card     PRESS_CONV_THR = 5 ignored
Warning: card / ignored

     Current dimensions of program PWSCF are:
     Max number of different atomic species (ntypx) = 10
     Max number of k-points (npk) =  40000
     Max angular momentum in pseudopotentials (lmaxx) =  3

     Message from routine setup:
     using ibrav=0 with symmetry is DISCOURAGED, use correct ibrav instead

     bravais-lattice index     =            0
     lattice parameter (alat)  =       7.4270  a.u.
     unit-cell volume          =    4376.3515 (a.u.)^3
     number of atoms/cell      =           28
     number of atomic types    =            4
     number of electrons       =       227.00
     number of Kohn-Sham states=          137
     kinetic-energy cutoff     =      60.0000  Ry
     charge density cutoff     =     720.0000  Ry
     convergence threshold     =      1.0E-08
     mixing beta               =       0.5000
     number of iterations used =           10  local-TF  mixing
     Exchange-correlation= SLA PW PBE PBE
                           (   1   4   3   4   0   0   0)

     celldm(1)=   7.427040  celldm(2)=   0.000000  celldm(3)=   0.000000
     celldm(4)=   0.000000  celldm(5)=   0.000000  celldm(6)=   0.000000

     crystal axes: (cart. coord. in units of alat)
               a(1) = (   1.000000   0.000000   0.000000 )
               a(2) = (   0.000000   0.947081   0.000000 )
               a(3) = (   0.000000   0.000000  11.279186 )

     reciprocal axes: (cart. coord. in units 2 pi/alat)
               b(1) = (  1.000000  0.000000  0.000000 )
               b(2) = (  0.000000  1.055876  0.000000 )
               b(3) = (  0.000000  0.000000  0.088659 )

     PseudoPot. # 1 for Ba read from file:
     ./pseudo/Ba.pbe-nsp-van.UPF
     MD5 check sum: 2b9c31dd849566dd297d80989662b7a0
     Pseudo is Ultrasoft + core correction, Zval = 10.0
     Generated by new atomic code, or converted to UPF format
     Using radial grid of  907 points,  6 beta functions with:
                l(1) =   0
                l(2) =   0
                l(3) =   1
                l(4) =   1
                l(5) =   2
                l(6) =   2
     Q(r) pseudized with  6 coefficients,  rinner =    1.200   1.200   1.200
                                                       1.200   1.200

     PseudoPot. # 2 for Ca read from file:
     ./pseudo/Ca.pbe-nsp-van.UPF
     MD5 check sum: 6471098428ff4fa451746d08035ff179
     Pseudo is Ultrasoft + core correction, Zval = 10.0
     Generated by new atomic code, or converted to UPF format
     Using radial grid of  845 points,  6 beta functions with:
                l(1) =   0
                l(2) =   0
                l(3) =   1
                l(4) =   1
                l(5) =   2
                l(6) =   2
     Q(r) pseudized with  6 coefficients,  rinner =    1.200   1.200   1.200
                                                       1.200   1.200

     PseudoPot. # 3 for Cu read from file:
     ./pseudo/Cu.pbe-n-van_ak.UPF
     MD5 check sum: 34e3282627ffb533726feb647e090d62
     Pseudo is Ultrasoft + core correction, Zval = 11.0
     Generated by new atomic code, or converted to UPF format
     Using radial grid of  867 points,  6 beta functions with:
                l(1) =   0
                l(2) =   0
                l(3) =   1
                l(4) =   1
                l(5) =   2
                l(6) =   2
     Q(r) pseudized with  8 coefficients,  rinner =    1.400   1.400   1.400
                                                       1.400   1.400

     PseudoPot. # 4 for O  read from file:
     ./pseudo/O.pbe-van_ak.UPF
     MD5 check sum: 783ce7fe4c79b6a4916957118fed0856
     Pseudo is Ultrasoft, Zval =  6.0
     Generated by new atomic code, or converted to UPF format
     Using radial grid of  737 points,  4 beta functions with:
                l(1) =   0
                l(2) =   0
                l(3) =   1
                l(4) =   1
     Q(r) pseudized with  8 coefficients,  rinner =    0.800   0.800   0.800

     atomic species   valence    mass     pseudopotential
        Ba            10.00   137.32700     Ba( 1.00)
        Ca            10.00    40.07800     Ca( 1.00)
        Cu            11.00    63.54600     Cu( 1.00)
        O              6.00    15.99900     O ( 1.00)

      4 Sym. Ops. (no inversion) found

   Cartesian axes

     site n.     atom                  positions (alat units)
         1           O   tau(   1) = (   0.0000000   0.4735409  -0.0469745  )
         2           Cu  tau(   2) = (   0.0000000   0.0000000   0.0264565  )
         3           O   tau(   3) = (   0.0000000   0.0000000   0.5030914  )
         4           Ba  tau(   4) = (   0.5000000   0.4735409   0.5690292  )
         5           Cu  tau(   5) = (   0.0000000   0.0000000   1.0374254  )
         6           O   tau(   6) = (   0.5000000   0.0000000   1.0768099  )
         7           O   tau(   7) = (   0.0000000   0.4735409   1.1116985  )
         8           Ca  tau(   8) = (   0.5000000   0.4735409   1.4976260  )
         9           O   tau(   9) = (   0.0000000   0.4735409   1.8667529  )
        10           O   tau(  10) = (   0.5000000   0.0000000   1.9044124  )
        11           Cu  tau(  11) = (   0.0000000   0.0000000   1.9512546  )
        12           Ba  tau(  12) = (   0.5000000   0.4735409   2.4295764  )
        13           O   tau(  13) = (   0.0000000   0.0000000   2.5115362  )
        14           O   tau(  14) = (   0.0000000   0.4735409   2.9918528  )
        15           Cu  tau(  15) = (   0.0000000   0.0000000   2.9919088  )
        16           O   tau(  16) = (   0.0000000   0.0000000   3.4722686  )
        17           Ba  tau(  17) = (   0.5000000   0.4735409   3.5542208  )
        18           Cu  tau(  18) = (   0.0000000   0.0000000   4.0325248  )
        19           O   tau(  19) = (   0.5000000   0.0000000   4.0793669  )
        20           O   tau(  20) = (   0.0000000   0.4735409   4.1170213  )
        21           Ca  tau(  21) = (   0.5000000   0.4735409   4.4861584  )
        22           O   tau(  22) = (   0.0000000   0.4735409   5.0629123  )
        23           O   tau(  23) = (   0.5000000   0.0000000   5.0978010  )
        24           Cu  tau(  24) = (   0.0000000   0.0000000   5.1371881  )
        25           Ba  tau(  25) = (   0.5000000   0.4735409   5.6055817  )
        26           O   tau(  26) = (   0.0000000   0.0000000   5.6715093  )
        27           Cu  tau(  27) = (   0.0000000   0.0000000   6.1481493  )
        28           O   tau(  28) = (   0.0000000   0.4735409   6.2215676  )

     number of k points=    25  Gaussian smearing, width (Ry)=  0.0100
                       cart. coord. in units 2pi/alat
        k(    1) = (   0.0000000   0.0000000   0.0000000), wk =   0.0312500
        k(    2) = (   0.0000000   0.1319845   0.0000000), wk =   0.0625000
        k(    3) = (   0.0000000   0.2639689   0.0000000), wk =   0.0625000
        k(    4) = (   0.0000000   0.3959534   0.0000000), wk =   0.0625000
        k(    5) = (   0.0000000  -0.5279378   0.0000000), wk =   0.0312500
        k(    6) = (   0.1250000   0.0000000   0.0000000), wk =   0.0625000
        k(    7) = (   0.1250000   0.1319845   0.0000000), wk =   0.1250000
        k(    8) = (   0.1250000   0.2639689   0.0000000), wk =   0.1250000
        k(    9) = (   0.1250000   0.3959534   0.0000000), wk =   0.1250000
        k(   10) = (   0.1250000  -0.5279378   0.0000000), wk =   0.0625000
        k(   11) = (   0.2500000   0.0000000   0.0000000), wk =   0.0625000
        k(   12) = (   0.2500000   0.1319845   0.0000000), wk =   0.1250000
        k(   13) = (   0.2500000   0.2639689   0.0000000), wk =   0.1250000
        k(   14) = (   0.2500000   0.3959534   0.0000000), wk =   0.1250000
        k(   15) = (   0.2500000  -0.5279378   0.0000000), wk =   0.0625000
        k(   16) = (   0.3750000   0.0000000   0.0000000), wk =   0.0625000
        k(   17) = (   0.3750000   0.1319845   0.0000000), wk =   0.1250000
        k(   18) = (   0.3750000   0.2639689   0.0000000), wk =   0.1250000
        k(   19) = (   0.3750000   0.3959534   0.0000000), wk =   0.1250000
        k(   20) = (   0.3750000  -0.5279378   0.0000000), wk =   0.0625000
        k(   21) = (  -0.5000000   0.0000000   0.0000000), wk =   0.0312500
        k(   22) = (  -0.5000000   0.1319845   0.0000000), wk =   0.0625000
        k(   23) = (  -0.5000000   0.2639689   0.0000000), wk =   0.0625000
        k(   24) = (  -0.5000000   0.3959534   0.0000000), wk =   0.0625000
        k(   25) = (  -0.5000000  -0.5279378   0.0000000), wk =   0.0312500

     Initial potential from superposition of free atoms

     starting charge  226.84630, renormalised to  227.00000

     negative rho (up, down):  3.508E-03 0.000E+00
     Starting wfcs are  195 randomized atomic wfcs

     Self-consistent Calculation

     iteration #  1     ecut=    60.00 Ry     beta= 0.50
     Davidson diagonalization with overlap
     ethr =  1.00E-02,  avg # of iterations =  2.0

     negative rho (up, down):  4.975E-04 0.000E+00

     total energy              =   -1840.99284330 Ry
     Harris-Foulkes estimate   =   -1845.30642545 Ry
     estimated scf accuracy    <      17.80012418 Ry

[...]

     iteration # 19     ecut=    60.00 Ry     beta= 0.50
     Davidson diagonalization with overlap
     c_bands:  1 eigenvalues not converged
     ethr =  8.81E-07,  avg # of iterations =  7.6

[...]

     iteration # 24     ecut=    60.00 Ry     beta= 0.50
     Davidson diagonalization with overlap
     c_bands:  1 eigenvalues not converged
     ethr =  1.39E-08,  avg # of iterations =  4.3

[...]

     total energy              =   -1842.83399536 Ry
     Harris-Foulkes estimate   =   -1842.83399536 Ry
     estimated scf accuracy    <       0.00000001 Ry

     iteration # 33     ecut=    60.00 Ry     beta= 0.50
     Davidson diagonalization with overlap
     ethr =  4.80E-12,  avg # of iterations =  1.6

[...]

     End of self-consistent calculation

          k = 0.0000 0.0000 0.0000 ( 34429 PWs)   bands (ev):

   -37.1749 -35.5382 -22.7430 -22.6643 -22.6249 -22.4818 -18.2615 -18.1897
   -18.1765 -17.0426 -16.5894 -16.5780 -15.2612 -15.2526 -15.0094 -14.8021
   -14.6233 -14.6046 -14.5239 -14.1443 -14.1333 -14.1323 -13.9338 -13.7752
   -13.7042 -13.7017 -13.5886  -7.8743  -7.8368  -7.8235  -7.7697  -7.7545
    -7.6626  -7.6614  -7.6439  -7.5746  -7.5260  -7.4998  -7.3604  -2.2818
    -2.2730  -2.2202  -1.9769  -1.8411  -1.7818  -1.7182  -1.6200  -1.5801
    -1.4903  -1.4350  -1.4076  -1.2910  -1.1721  -1.1713  -1.0314  -0.9987
    -0.8009  -0.6364  -0.5583  -0.4104  -0.4009  -0.3285  -0.2927  -0.2633
    -0.2366  -0.2165  -0.2002  -0.1991  -0.1968  -0.1805  -0.1644  -0.1317
    -0.1098  -0.0461   0.0110   0.0297   0.1468   0.1469   0.1473   0.1783
     0.1974   0.2217   0.2265   0.2340   0.2557   0.3251   0.3576   0.3722
     0.4585   0.8211   0.8490   0.9301   0.9469   1.0089   1.0361   1.2300
     1.2317   1.2547   1.2812   1.3981   1.4206   1.4403   1.5338   1.5727
     1.5832   1.5867   1.6444   1.7859   1.8801   2.0371   2.0842   2.1610
     2.2069   2.2123   2.2204   2.3148   2.3289   2.5675   2.5843   4.9846
     5.2645   5.3825   5.9744   6.3987   6.8090   6.8233   7.0341   7.2877
     7.7333   8.0278   8.0928   8.2385   8.3419   8.4888   8.5712   8.6060
     8.6655

[...]

          k = 0.3750-0.5279 0.0000 ( 34392 PWs)   bands (ev):

[...]

          k =-0.5000 0.0000 0.0000 ( 34370 PWs)   bands (ev):

[...]

          k =-0.5000-0.5279 0.0000 ( 34420 PWs)   bands (ev):

   -37.1591 -35.5185 -22.4701 -22.3905 -22.3629 -22.2194 -18.3965 -18.3460
   -18.0853 -16.9645 -16.9553 -16.5788 -14.5655 -14.5616 -14.5405 -14.3905
   -14.3825 -14.2766 -14.2202 -14.2179 -14.0470 -14.0203 -14.0059 -14.0038
   -13.9989 -13.8846 -13.8130  -8.7030  -8.6346  -8.5851  -8.4413  -8.4351
    -8.3729  -8.2890  -8.0496  -7.9704  -7.9553  -7.8373  -7.7005  -4.0510
    -4.0307  -3.7505  -3.7177  -3.5515  -3.1132  -3.1099  -2.6866  -2.6297
    -2.6243  -2.5203  -2.3006  -2.2385  -2.2220  -2.2192  -2.1780  -1.9418
    -1.8982  -1.6709  -1.3012  -1.2685  -1.2002  -1.1236  -1.0883  -1.0310
    -0.9756  -0.9718  -0.9344  -0.9293  -0.9171  -0.8822  -0.8348  -0.7520
    -0.5078  -0.2816  -0.2759   0.2871   0.3953   0.4308   0.8092   0.9563
     1.0996   1.2318   1.3932   1.4066   1.4152   1.4168   1.4460   1.4478
     1.4789   1.5566   1.6107   1.6113   1.6828   1.7111   1.8784   1.8934
     1.9301   1.9843   1.9999   2.0061   2.0239   2.1040   2.1072   2.1687
     2.1995   2.2515   2.3883   2.3887   2.4238   2.4779   2.5905   2.5925
     2.6023   2.7430   4.2309   4.6751   4.7623   4.8197   4.8301   5.4879
     6.0203   6.0232   6.0930   7.1685   8.1105   8.1717   8.8179   8.8429
     9.0184   9.0677   9.1179   9.1423   9.3459   9.4196   9.5138   9.6174
     9.8299

     the Fermi energy is     2.6154 ev

!    total energy              =   -1842.83399535 Ry
     Harris-Foulkes estimate   =   -1842.83399536 Ry
     estimated scf accuracy    <          4.2E-09 Ry

     The total energy is the sum of the following terms:

     one-electron contribution =  -30219.99882124 Ry
     hartree contribution      =   15262.90897994 Ry
     xc contribution           =    -621.64212027 Ry
     ewald contribution        =   13735.90637939 Ry
     smearing contrib. (-TS)   =      -0.00841318 Ry

     convergence has been achieved in  33 iterations

     negative rho (up, down):  1.516E-03 0.000E+00

     Forces acting on atoms (cartesian axes, Ry/au):

     atom    1 type  4   force =     0.00000000    0.00000000   -0.00017208
     atom    2 type  3   force =     0.00000000    0.00000000    0.00033087
     atom    3 type  4   force =     0.00000000    0.00000000   -0.00076021
     atom    4 type  1   force =     0.00000000    0.00000000   -0.00029340
     atom    5 type  3   force =     0.00000000    0.00000000    0.00053108
     atom    6 type  4   force =     0.00000000    0.00000000   -0.00001505
     atom    7 type  4   force =     0.00000000    0.00000000    0.00033658
     atom    8 type  2   force =     0.00000000    0.00000000   -0.00059494
     atom    9 type  4   force =     0.00000000    0.00000000    0.00022100
     atom   10 type  4   force =     0.00000000    0.00000000    0.00024118
     atom   11 type  3   force =     0.00000000    0.00000000    0.00030179
     atom   12 type  1   force =     0.00000000    0.00000000    0.00015118
     atom   13 type  4   force =     0.00000000    0.00000000    0.00206028
     atom   14 type  4   force =     0.00000000    0.00000000    0.00162988
     atom   15 type  3   force =     0.00000000    0.00000000   -0.00253043
     atom   16 type  4   force =     0.00000000    0.00000000    0.00074910
     atom   17 type  1   force =     0.00000000    0.00000000   -0.00874697
     atom   18 type  3   force =     0.00000000    0.00000000    0.00100842
     atom   19 type  4   force =     0.00000000    0.00000000    0.03138799
     atom   20 type  4   force =     0.00000000    0.00000000    0.03570926
     atom   21 type  2   force =     0.00000000    0.00000000    0.00766623
     atom   22 type  4   force =     0.00000000    0.00000000   -0.02272405
     atom   23 type  4   force =     0.00000000    0.00000000   -0.01812669
     atom   24 type  3   force =     0.00000000    0.00000000   -0.01378513
     atom   25 type  1   force =     0.00000000    0.00000000   -0.01444272
     atom   26 type  4   force =     0.00000000    0.00000000    0.00015334
     atom   27 type  3   force =     0.00000000    0.00000000   -0.00011637
     atom   28 type  4   force =     0.00000000    0.00000000   -0.00017015

     Total force =     0.060464     Total SCF correction =     0.000313

     Computing stress (Cartesian axis) and pressure

     negative rho (up, down):  1.516E-03 0.000E+00
          total   stress  (Ry/bohr**3)                   (kbar)     P=       -6.45
  -0.00001154   0.00000000   0.00000000           -1.70        0.00        0.00
   0.00000000   0.00000199   0.00000000            0.00        0.29        0.00
   0.00000000   0.00000000  -0.00012198            0.00        0.00      -17.94

     General routines

     Parallel routines

   This run was terminated on:  22:41:52  21May2021

   JOB DONE.
[1621651312.315531] [holy7c06602:22007:0]          mpool.c:43   UCX  WARN  object 0x39bdf00 was not returned to mpool ucp_requests
[1621651312.314677] [holy7c06602:22008:0]          mpool.c:43   UCX  WARN  object 0x45af480 was not returned to mpool ucp_requests
[1621651312.315835] [holy7c06601:44646:0]          mpool.c:43   UCX  WARN  object 0x45ad940 was not returned to mpool ucp_requests
[1621651312.315856] [holy7c06601:44646:0]          mpool.c:43   UCX  WARN  object 0x45ae040 was not returned to mpool ucp_requests
[1621651312.320175] [holy7c06412:44871:0]          mpool.c:43   UCX  WARN  object 0x3087900 was not returned to mpool ucp_requests
[1621651312.320199] [holy7c06412:44871:0]          mpool.c:43   UCX  WARN  object 0x3087c80 was not returned to mpool ucp_requests
[1621651312.321590] [holy7c06409:264523:0]          mpool.c:43   UCX  WARN  object 0x2efd140 was not returned to mpool ucp_requests
[1621651312.321616] [holy7c06409:264523:0]          mpool.c:43   UCX  WARN  object 0x2efd4c0 was not returned to mpool ucp_requests
[1621651312.322843] [holy7c06501:263765:0]          mpool.c:43   UCX  WARN  object 0x4545940 was not returned to mpool ucp_requests
[1621651312.320463] [holy7c06409:264524:0]          mpool.c:43   UCX  WARN  object 0x30d4a00 was not returned to mpool ucp_requests