     Program PWSCF v.6.5 starts on 21May2021 at 22:38:50

     R & G space division:  proc/nbgrp/npool/nimage =      20
     Reading input from CBCO_CuO_cleave_0.25_sep.pwi
Warning: card &IONS ignored
Warning: card     ION_DYNAMICS = 'BFGS' ignored
Warning: card / ignored
Warning: card &CELL ignored
Warning: card     CELL_DYNAMICS = 'BFGS' ignored
Warning: card     PRESS_CONV_THR = 5 ignored
Warning: card / ignored

     Current dimensions of program PWSCF are:
     Max number of different atomic species (ntypx) = 10
     Max number of k-points (npk) =  40000
     Max angular momentum in pseudopotentials (lmaxx) =  3

     Message from routine setup:
     using ibrav=0 with symmetry is DISCOURAGED, use correct ibrav instead

     bravais-lattice index     =            0
     lattice parameter (alat)  =       7.4270  a.u.
     unit-cell volume          =    4326.9901 (a.u.)^3
     number of atoms/cell      =           28
     number of atomic types    =            4
     number of electrons       =       227.00
     number of Kohn-Sham states=          137
     kinetic-energy cutoff     =      60.0000  Ry
     charge density cutoff     =     720.0000  Ry
     convergence threshold     =      1.0E-08
     mixing beta               =       0.5000
     number of iterations used =           10  local-TF  mixing
     Exchange-correlation= SLA PW PBE PBE
                           (   1   4   3   4   0   0   0)

     celldm(1)=   7.427040  celldm(2)=   0.000000  celldm(3)=   0.000000
     celldm(4)=   0.000000  celldm(5)=   0.000000  celldm(6)=   0.000000

     crystal axes: (cart. coord. in units of alat)
               a(1) = (   1.000000   0.000000   0.000000 )
               a(2) = (   0.000000   0.947081   0.000000 )
               a(3) = (   0.000000   0.000000  11.151966 )

     reciprocal axes: (cart. coord. in units 2 pi/alat)
               b(1) = (  1.000000  0.000000  0.000000 )
               b(2) = (  0.000000  1.055876  0.000000 )
               b(3) = (  0.000000  0.000000  0.089670 )

     PseudoPot. # 1 for Ba read from file:
     ./pseudo/Ba.pbe-nsp-van.UPF
     MD5 check sum: 2b9c31dd849566dd297d80989662b7a0
     Pseudo is Ultrasoft + core correction, Zval = 10.0
     Generated by new atomic code, or converted to UPF format
     Using radial grid of  907 points,  6 beta functions with:
                l(1) =   0
                l(2) =   0
                l(3) =   1
                l(4) =   1
                l(5) =   2
                l(6) =   2
     Q(r) pseudized with  6 coefficients,  rinner =    1.200   1.200   1.200
                                                       1.200   1.200

     PseudoPot. # 2 for Ca read from file:
     ./pseudo/Ca.pbe-nsp-van.UPF
     MD5 check sum: 6471098428ff4fa451746d08035ff179
     Pseudo is Ultrasoft + core correction, Zval = 10.0
     Generated by new atomic code, or converted to UPF format
     Using radial grid of  845 points,  6 beta functions with:
                l(1) =   0
                l(2) =   0
                l(3) =   1
                l(4) =   1
                l(5) =   2
                l(6) =   2
     Q(r) pseudized with  6 coefficients,  rinner =    1.200   1.200   1.200
                                                       1.200   1.200

     PseudoPot. # 3 for Cu read from file:
     ./pseudo/Cu.pbe-n-van_ak.UPF
     MD5 check sum: 34e3282627ffb533726feb647e090d62
     Pseudo is Ultrasoft + core correction, Zval = 11.0
     Generated by new atomic code, or converted to UPF format
     Using radial grid of  867 points,  6 beta functions with:
                l(1) =   0
                l(2) =   0
                l(3) =   1
                l(4) =   1
                l(5) =   2
                l(6) =   2
     Q(r) pseudized with  8 coefficients,  rinner =    1.400   1.400   1.400
                                                       1.400   1.400

     PseudoPot. # 4 for O  read from file:
     ./pseudo/O.pbe-van_ak.UPF
     MD5 check sum: 783ce7fe4c79b6a4916957118fed0856
     Pseudo is Ultrasoft, Zval =  6.0
     Generated by new atomic code, or converted to UPF format
     Using radial grid of  737 points,  4 beta functions with:
                l(1) =   0
                l(2) =   0
                l(3) =   1
                l(4) =   1
     Q(r) pseudized with  8 coefficients,  rinner =    0.800   0.800   0.800

     atomic species   valence    mass     pseudopotential
        Ba            10.00   137.32700     Ba( 1.00)
        Ca            10.00    40.07800     Ca( 1.00)
        Cu            11.00    63.54600     Cu( 1.00)
        O              6.00    15.99900     O ( 1.00)

      4 Sym. Ops. (no inversion) found

   Cartesian axes

     site n.     atom                  positions (alat units)
         1           O   tau(   1) = (   0.0000000   0.4735409  -0.0469745  )
         2           Cu  tau(   2) = (   0.0000000   0.0000000   0.0264565  )
         3           O   tau(   3) = (   0.0000000   0.0000000   0.5030914  )
         4           Ba  tau(   4) = (   0.5000000   0.4735409   0.5690292  )
         5           Cu  tau(   5) = (   0.0000000   0.0000000   1.0374254  )
         6           O   tau(   6) = (   0.5000000   0.0000000   1.0768099  )
         7           O   tau(   7) = (   0.0000000   0.4735409   1.1116985  )
         8           Ca  tau(   8) = (   0.5000000   0.4735409   1.4976260  )
         9           O   tau(   9) = (   0.0000000   0.4735409   1.8667529  )
        10           O   tau(  10) = (   0.5000000   0.0000000   1.9044124  )
        11           Cu  tau(  11) = (   0.0000000   0.0000000   1.9512546  )
        12           Ba  tau(  12) = (   0.5000000   0.4735409   2.4295764  )
        13           O   tau(  13) = (   0.0000000   0.0000000   2.5115362  )
        14           O   tau(  14) = (   0.0000000   0.4735409   2.9918528  )
        15           Cu  tau(  15) = (   0.0000000   0.0000000   2.9919088  )
        16           O   tau(  16) = (   0.0000000   0.0000000   3.5358783  )
        17           Ba  tau(  17) = (   0.5000000   0.4735409   3.6178304  )
        18           Cu  tau(  18) = (   0.0000000   0.0000000   4.0961344  )
        19           O   tau(  19) = (   0.5000000   0.0000000   4.1429766  )
        20           O   tau(  20) = (   0.0000000   0.4735409   4.1806310  )
        21           Ca  tau(  21) = (   0.5000000   0.4735409   4.5497681  )
        22           O   tau(  22) = (   0.0000000   0.4735409   4.9356930  )
        23           O   tau(  23) = (   0.5000000   0.0000000   4.9705816  )
        24           Cu  tau(  24) = (   0.0000000   0.0000000   5.0099687  )
        25           Ba  tau(  25) = (   0.5000000   0.4735409   5.4783624  )
        26           O   tau(  26) = (   0.0000000   0.0000000   5.5442900  )
        27           Cu  tau(  27) = (   0.0000000   0.0000000   6.0209299  )
        28           O   tau(  28) = (   0.0000000   0.4735409   6.0943482  )

     number of k points=    25  Gaussian smearing, width (Ry)=  0.0100
                       cart. coord. in units 2pi/alat
        k(    1) = (   0.0000000   0.0000000   0.0000000), wk =   0.0312500
        k(    2) = (   0.0000000   0.1319845   0.0000000), wk =   0.0625000
        k(    3) = (   0.0000000   0.2639689   0.0000000), wk =   0.0625000
        k(    4) = (   0.0000000   0.3959534   0.0000000), wk =   0.0625000
        k(    5) = (   0.0000000  -0.5279378   0.0000000), wk =   0.0312500
        k(    6) = (   0.1250000   0.0000000   0.0000000), wk =   0.0625000
        k(    7) = (   0.1250000   0.1319845   0.0000000), wk =   0.1250000
        k(    8) = (   0.1250000   0.2639689   0.0000000), wk =   0.1250000
        k(    9) = (   0.1250000   0.3959534   0.0000000), wk =   0.1250000
        k(   10) = (   0.1250000  -0.5279378   0.0000000), wk =   0.0625000
        k(   11) = (   0.2500000   0.0000000   0.0000000), wk =   0.0625000
        k(   12) = (   0.2500000   0.1319845   0.0000000), wk =   0.1250000
        k(   13) = (   0.2500000   0.2639689   0.0000000), wk =   0.1250000
        k(   14) = (   0.2500000   0.3959534   0.0000000), wk =   0.1250000
        k(   15) = (   0.2500000  -0.5279378   0.0000000), wk =   0.0625000
        k(   16) = (   0.3750000   0.0000000   0.0000000), wk =   0.0625000
        k(   17) = (   0.3750000   0.1319845   0.0000000), wk =   0.1250000
        k(   18) = (   0.3750000   0.2639689   0.0000000), wk =   0.1250000
        k(   19) = (   0.3750000   0.3959534   0.0000000), wk =   0.1250000
        k(   20) = (   0.3750000  -0.5279378   0.0000000), wk =   0.0625000
        k(   21) = (  -0.5000000   0.0000000   0.0000000), wk =   0.0312500
        k(   22) = (  -0.5000000   0.1319845   0.0000000), wk =   0.0625000
        k(   23) = (  -0.5000000   0.2639689   0.0000000), wk =   0.0625000
        k(   24) = (  -0.5000000   0.3959534   0.0000000), wk =   0.0625000
        k(   25) = (  -0.5000000  -0.5279378   0.0000000), wk =   0.0312500

     Initial potential from superposition of free atoms

     starting charge  226.84630, renormalised to  227.00000

     negative rho (up, down):  3.526E-03 0.000E+00
     Starting wfcs are  195 randomized atomic wfcs

     Self-consistent Calculation

     iteration #  1     ecut=    60.00 Ry     beta= 0.50
     Davidson diagonalization with overlap
     ethr =  1.00E-02,  avg # of iterations =  2.0

     negative rho (up, down):  4.990E-04 0.000E+00

     total energy              =   -1840.90969880 Ry
     Harris-Foulkes estimate   =   -1845.34353357 Ry
     estimated scf accuracy    <      19.10050645 Ry

[...]

     iteration # 15     ecut=    60.00 Ry     beta= 0.50
     Davidson diagonalization with overlap
     c_bands:  1 eigenvalues not converged
     ethr =  1.50E-04,  avg # of iterations =  5.6

[...]

     iteration # 35     ecut=    60.00 Ry     beta= 0.50
     Davidson diagonalization with overlap
     c_bands:  1 eigenvalues not converged
     c_bands:  1 eigenvalues not converged
     ethr =  4.29E-08,  avg # of iterations =  5.7

[...]

     total energy              =   -1842.88693426 Ry
     Harris-Foulkes estimate   =   -1842.88693427 Ry
     estimated scf accuracy    <       0.00000002 Ry

     iteration # 44     ecut=    60.00 Ry     beta= 0.50
     Davidson diagonalization with overlap
     ethr =  9.63E-12,  avg # of iterations =  1.0

[...]

     End of self-consistent calculation

          k = 0.0000 0.0000 0.0000 ( 34019 PWs)   bands (ev):

   -35.5388 -35.5290 -22.7311 -22.7301 -22.4841 -22.4269 -17.0424 -17.0335
   -16.5903 -16.5808 -16.5788 -16.5686 -15.2497 -15.2425 -14.6423 -14.6117
   -14.6087 -14.5219 -14.5128 -14.1209 -14.1199 -13.9265 -13.9225 -13.7784
   -13.7653 -13.6804 -13.2121  -7.8626  -7.8614  -7.8248  -7.8239  -7.6593
    -7.6319  -7.6309  -7.6225  -7.5360  -7.4429  -7.3666  -7.2701  -2.2688
    -2.2684  -1.9059  -1.7717  -1.7704  -1.7275  -1.7182  -1.6145  -1.6080
    -1.4927  -1.4794  -1.4355  -1.4284  -1.1596  -1.1583  -0.8658  -0.8043
    -0.4520  -0.3977  -0.3970  -0.3155  -0.3154  -0.2692  -0.2601  -0.2383
    -0.2066  -0.2043  -0.2038  -0.2032  -0.1979  -0.1861  -0.1217  -0.1023
     0.0237   0.0240   0.0657   0.0921   0.1582   0.1593   0.1599   0.1608
     0.1858   0.2164   0.2305   0.2331   0.3389   0.3550   0.3737   0.3841
     0.6774   0.8038   0.8729   0.9425   0.9433   1.0038   1.0420   1.2380
     1.2414   1.4029   1.4094   1.4268   1.4402   1.5464   1.5571   1.5742
     1.5876   1.6086   1.6127   1.8596   1.8783   1.9641   2.0964   2.0987
     2.2190   2.2400   2.3301   2.3355   2.3452   2.5945   2.6016   5.2729
     5.2797   5.7909   6.2584   6.4717   6.8183   6.8266   7.1909   7.2974
     8.0295   8.1523   8.3221   8.3689   8.5667   8.6810   8.7577   9.1592
     9.3492

[...]

          k = 0.3750-0.5279 0.0000 ( 34004 PWs)   bands (ev):

[...]

          k =-0.5000 0.0000 0.0000 ( 33930 PWs)   bands (ev):

[...]

          k =-0.5000-0.5279 0.0000 ( 34028 PWs)   bands (ev):

   -35.5192 -35.5094 -22.4582 -22.4572 -22.2201 -22.1738 -16.9653 -16.9566
   -16.9559 -16.9458 -16.5790 -16.5697 -14.5524 -14.5521 -14.3850 -14.3816
   -14.2125 -14.2048 -14.0992 -14.0467 -14.0397 -13.9940 -13.9927 -13.9744
   -13.8859 -13.8703 -13.3747  -8.6911  -8.6901  -8.4488  -8.4231  -8.4222
    -8.3329  -8.1511  -8.0071  -7.9566  -7.9553  -7.7734  -7.6351  -4.0349
    -4.0239  -3.7226  -3.6801  -3.4339  -3.1007  -3.0997  -2.6744  -2.6738
    -2.5253  -2.5098  -2.2347  -2.2256  -2.2252  -2.2068  -1.9143  -1.8843
    -1.8630  -1.4601  -1.2917  -1.2837  -1.1157  -1.1074  -1.0946  -0.9659
    -0.9618  -0.9219  -0.9210  -0.8526  -0.8301  -0.7610  -0.7341  -0.7178
    -0.2690  -0.2681  -0.2394   0.2919   0.3802   0.5178   0.8521   0.9338
     1.1847   1.3939   1.4040   1.4176   1.4221   1.4569   1.4626   1.4668
     1.5410   1.6818   1.6967   1.7072   1.7095   1.7361   1.9127   1.9335
     1.9538   1.9618   2.0981   2.1047   2.1179   2.1574   2.2286   2.2424
     2.2516   2.3389   2.4003   2.4015   2.4418   2.4795   2.4867   2.5958
     2.6139   2.6304   3.9435   4.7582   4.7698   4.8233   4.8298   5.6576
     6.0326   6.0334   7.1340   7.1955   8.8259   9.0613   9.0952   9.1302
     9.1444   9.1678   9.5854   9.6423   9.7380   9.8097   9.9382  10.0425
    10.0873

     the Fermi energy is     2.6281 ev

!    total energy              =   -1842.88693427 Ry
     Harris-Foulkes estimate   =   -1842.88693426 Ry
     estimated scf accuracy    <          6.4E-09 Ry

     The total energy is the sum of the following terms:

     one-electron contribution =  -30420.97109272 Ry
     hartree contribution      =   15364.28446780 Ry
     xc contribution           =    -621.74290556 Ry
     ewald contribution        =   13835.55120175 Ry
     smearing contrib. (-TS)   =      -0.00860554 Ry

     convergence has been achieved in  44 iterations

     negative rho (up, down):  1.527E-03 0.000E+00

     Forces acting on atoms (cartesian axes, Ry/au):

     atom    1 type  4   force =     0.00000000    0.00000000   -0.00020699
     atom    2 type  3   force =     0.00000000    0.00000000    0.00038050
     atom    3 type  4   force =     0.00000000    0.00000000   -0.00077243
     atom    4 type  1   force =     0.00000000    0.00000000   -0.00033833
     atom    5 type  3   force =     0.00000000    0.00000000    0.00066605
     atom    6 type  4   force =     0.00000000    0.00000000    0.00024747
     atom    7 type  4   force =     0.00000000    0.00000000    0.00055785
     atom    8 type  2   force =     0.00000000    0.00000000   -0.00124770
     atom    9 type  4   force =     0.00000000    0.00000000    0.00105777
     atom   10 type  4   force =     0.00000000    0.00000000    0.00085708
     atom   11 type  3   force =     0.00000000    0.00000000    0.00067838
     atom   12 type  1   force =     0.00000000    0.00000000    0.00407706
     atom   13 type  4   force =     0.00000000    0.00000000   -0.00280921
     atom   14 type  4   force =     0.00000000    0.00000000    0.01013684
     atom   15 type  3   force =     0.00000000    0.00000000    0.04079702
     atom   16 type  4   force =     0.00000000    0.00000000   -0.03853398
     atom   17 type  1   force =     0.00000000    0.00000000   -0.01069131
     atom   18 type  3   force =     0.00000000    0.00000000   -0.00626892
     atom   19 type  4   force =     0.00000000    0.00000000    0.00090003
     atom   20 type  4   force =     0.00000000    0.00000000   -0.00012572
     atom   21 type  2   force =     0.00000000    0.00000000    0.00093045
     atom   22 type  4   force =     0.00000000    0.00000000   -0.00055829
     atom   23 type  4   force =     0.00000000    0.00000000   -0.00004756
     atom   24 type  3   force =     0.00000000    0.00000000   -0.00052880
     atom   25 type  1   force =     0.00000000    0.00000000    0.00030770
     atom   26 type  4   force =     0.00000000    0.00000000    0.00069250
     atom   27 type  3   force =     0.00000000    0.00000000   -0.00026613
     atom   28 type  4   force =     0.00000000    0.00000000    0.00010866

     Total force =     0.058640     Total SCF correction =     0.000376

     Computing stress (Cartesian axis) and pressure

     negative rho (up, down):  1.527E-03 0.000E+00
          total   stress  (Ry/bohr**3)                   (kbar)     P=       -4.18
   0.00000255   0.00000000   0.00000000            0.37        0.00        0.00
   0.00000000  -0.00002629   0.00000000            0.00       -3.87        0.00
   0.00000000   0.00000000  -0.00006156            0.00        0.00       -9.06

     General routines

     Parallel routines

   This run was terminated on:  22:57: 3  21May2021

   JOB DONE.
[1621652223.346361] [holy7c16104:202425:0]          mpool.c:43   UCX  WARN  object 0x2bb55c0 was not returned to mpool ucp_requests
[1621652223.346376] [holy7c16104:202425:0]          mpool.c:43   UCX  WARN  object 0x2bb5b00 was not returned to mpool ucp_requests
[1621652223.347990] [holy7c12606:131743:0]          mpool.c:43   UCX  WARN  object 0x3758fc0 was not returned to mpool ucp_requests
[1621652223.348007] [holy7c12606:131743:0]          mpool.c:43   UCX  WARN  object 0x37596c0 was not returned to mpool ucp_requests
[1621652223.349470] [holy7c16105:87738:0]          mpool.c:43   UCX  WARN  object 0x4577e80 was not returned to mpool ucp_requests
[1621652223.349682] [holy7c12603:201199:0]          mpool.c:43   UCX  WARN  object 0x3968900 was not returned to mpool ucp_requests
[1621652223.357400] [holy7c16105:87737:0]          mpool.c:43   UCX  WARN  object 0x35dbf80 was not returned to mpool ucp_requests
[1621652223.353414] [holy7c12603:201198:0]          mpool.c:43   UCX  WARN  object 0x36e5500 was not returned to mpool ucp_requests