     Program PWSCF v.6.5 starts on 21May2021 at 23: 6:59

     R & G space division:  proc/nbgrp/npool/nimage =      20
     Reading input from CBCO_BaO_cleave_0.25_sep.pwi
Warning: card &IONS ignored
Warning: card     ION_DYNAMICS = 'BFGS' ignored
Warning: card / ignored
Warning: card &CELL ignored
Warning: card     CELL_DYNAMICS = 'BFGS' ignored
Warning: card     PRESS_CONV_THR = 5 ignored
Warning: card / ignored

     Current dimensions of program PWSCF are:
     Max number of different atomic species (ntypx) = 10
     Max number of k-points (npk) =  40000
     Max angular momentum in pseudopotentials (lmaxx) =  3

     Message from routine setup:
     using ibrav=0 with symmetry is DISCOURAGED, use correct ibrav instead

     bravais-lattice index     =            0
     lattice parameter (alat)  =       7.4270  a.u.
     unit-cell volume          =    4326.9901 (a.u.)^3
     number of atoms/cell      =           28
     number of atomic types    =            4
     number of electrons       =       227.00
     number of Kohn-Sham states=          137
     kinetic-energy cutoff     =      60.0000  Ry
     charge density cutoff     =     720.0000  Ry
     convergence threshold     =      1.0E-08
     mixing beta               =       0.5000
     number of iterations used =           10  local-TF  mixing
     Exchange-correlation= SLA PW PBE PBE
                           (   1   4   3   4   0   0   0)

     celldm(1)=   7.427040  celldm(2)=   0.000000  celldm(3)=   0.000000
     celldm(4)=   0.000000  celldm(5)=   0.000000  celldm(6)=   0.000000

     crystal axes: (cart. coord. in units of alat)
               a(1) = (   1.000000   0.000000   0.000000 )
               a(2) = (   0.000000   0.947081   0.000000 )
               a(3) = (   0.000000   0.000000  11.151966 )

     reciprocal axes: (cart. coord. in units 2 pi/alat)
               b(1) = (  1.000000  0.000000  0.000000 )
               b(2) = (  0.000000  1.055876  0.000000 )
               b(3) = (  0.000000  0.000000  0.089670 )

     PseudoPot. # 1 for Ba read from file:
     ./pseudo/Ba.pbe-nsp-van.UPF
     MD5 check sum: 2b9c31dd849566dd297d80989662b7a0
     Pseudo is Ultrasoft + core correction, Zval = 10.0
     Generated by new atomic code, or converted to UPF format
     Using radial grid of  907 points,  6 beta functions with:
                l(1) =   0
                l(2) =   0
                l(3) =   1
                l(4) =   1
                l(5) =   2
                l(6) =   2
     Q(r) pseudized with  6 coefficients,  rinner =    1.200   1.200   1.200
                                                       1.200   1.200

     PseudoPot. # 2 for Ca read from file:
     ./pseudo/Ca.pbe-nsp-van.UPF
     MD5 check sum: 6471098428ff4fa451746d08035ff179
     Pseudo is Ultrasoft + core correction, Zval = 10.0
     Generated by new atomic code, or converted to UPF format
     Using radial grid of  845 points,  6 beta functions with:
                l(1) =   0
                l(2) =   0
                l(3) =   1
                l(4) =   1
                l(5) =   2
                l(6) =   2
     Q(r) pseudized with  6 coefficients,  rinner =    1.200   1.200   1.200
                                                       1.200   1.200

     PseudoPot. # 3 for Cu read from file:
     ./pseudo/Cu.pbe-n-van_ak.UPF
     MD5 check sum: 34e3282627ffb533726feb647e090d62
     Pseudo is Ultrasoft + core correction, Zval = 11.0
     Generated by new atomic code, or converted to UPF format
     Using radial grid of  867 points,  6 beta functions with:
                l(1) =   0
                l(2) =   0
                l(3) =   1
                l(4) =   1
                l(5) =   2
                l(6) =   2
     Q(r) pseudized with  8 coefficients,  rinner =    1.400   1.400   1.400
                                                       1.400   1.400

     PseudoPot. # 4 for O  read from file:
     ./pseudo/O.pbe-van_ak.UPF
     MD5 check sum: 783ce7fe4c79b6a4916957118fed0856
     Pseudo is Ultrasoft, Zval =  6.0
     Generated by new atomic code, or converted to UPF format
     Using radial grid of  737 points,  4 beta functions with:
                l(1) =   0
                l(2) =   0
                l(3) =   1
                l(4) =   1
     Q(r) pseudized with  8 coefficients,  rinner =    0.800   0.800   0.800

     atomic species   valence    mass     pseudopotential
        Ba            10.00   137.32700     Ba( 1.00)
        Ca            10.00    40.07800     Ca( 1.00)
        Cu            11.00    63.54600     Cu( 1.00)
        O              6.00    15.99900     O ( 1.00)

      4 Sym. Ops. (no inversion) found

   Cartesian axes

     site n.     atom                  positions (alat units)
         1           O   tau(   1) = (   0.0000000   0.4735409  -0.0469745  )
         2           Cu  tau(   2) = (   0.0000000   0.0000000   0.0264565  )
         3           O   tau(   3) = (   0.0000000   0.0000000   0.5030914  )
         4           Ba  tau(   4) = (   0.5000000   0.4735409   0.5690292  )
         5           Cu  tau(   5) = (   0.0000000   0.0000000   1.0374254  )
         6           O   tau(   6) = (   0.5000000   0.0000000   1.0768099  )
         7           O   tau(   7) = (   0.0000000   0.4735409   1.1116985  )
         8           Ca  tau(   8) = (   0.5000000   0.4735409   1.4976260  )
         9           O   tau(   9) = (   0.0000000   0.4735409   1.8667529  )
        10           O   tau(  10) = (   0.5000000   0.0000000   1.9044124  )
        11           Cu  tau(  11) = (   0.0000000   0.0000000   1.9512546  )
        12           Ba  tau(  12) = (   0.5000000   0.4735409   2.4295764  )
        13           O   tau(  13) = (   0.0000000   0.0000000   2.5115362  )
        14           O   tau(  14) = (   0.0000000   0.4735409   2.9918528  )
        15           Cu  tau(  15) = (   0.0000000   0.0000000   2.9919088  )
        16           O   tau(  16) = (   0.0000000   0.0000000   3.4722686  )
        17           Ba  tau(  17) = (   0.5000000   0.4735409   3.5542208  )
        18           Cu  tau(  18) = (   0.0000000   0.0000000   4.0961344  )
        19           O   tau(  19) = (   0.5000000   0.0000000   4.1429766  )
        20           O   tau(  20) = (   0.0000000   0.4735409   4.1806310  )
        21           Ca  tau(  21) = (   0.5000000   0.4735409   4.5497681  )
        22           O   tau(  22) = (   0.0000000   0.4735409   4.9356930  )
        23           O   tau(  23) = (   0.5000000   0.0000000   4.9705816  )
        24           Cu  tau(  24) = (   0.0000000   0.0000000   5.0099687  )
        25           Ba  tau(  25) = (   0.5000000   0.4735409   5.4783624  )
        26           O   tau(  26) = (   0.0000000   0.0000000   5.5442900  )
        27           Cu  tau(  27) = (   0.0000000   0.0000000   6.0209299  )
        28           O   tau(  28) = (   0.0000000   0.4735409   6.0943482  )

     number of k points=    25  Gaussian smearing, width (Ry)=  0.0100
                       cart. coord. in units 2pi/alat
        k(    1) = (   0.0000000   0.0000000   0.0000000), wk =   0.0312500
        k(    2) = (   0.0000000   0.1319845   0.0000000), wk =   0.0625000
        k(    3) = (   0.0000000   0.2639689   0.0000000), wk =   0.0625000
        k(    4) = (   0.0000000   0.3959534   0.0000000), wk =   0.0625000
        k(    5) = (   0.0000000  -0.5279378   0.0000000), wk =   0.0312500
        k(    6) = (   0.1250000   0.0000000   0.0000000), wk =   0.0625000
        k(    7) = (   0.1250000   0.1319845   0.0000000), wk =   0.1250000
        k(    8) = (   0.1250000   0.2639689   0.0000000), wk =   0.1250000
        k(    9) = (   0.1250000   0.3959534   0.0000000), wk =   0.1250000
        k(   10) = (   0.1250000  -0.5279378   0.0000000), wk =   0.0625000
        k(   11) = (   0.2500000   0.0000000   0.0000000), wk =   0.0625000
        k(   12) = (   0.2500000   0.1319845   0.0000000), wk =   0.1250000
        k(   13) = (   0.2500000   0.2639689   0.0000000), wk =   0.1250000
        k(   14) = (   0.2500000   0.3959534   0.0000000), wk =   0.1250000
        k(   15) = (   0.2500000  -0.5279378   0.0000000), wk =   0.0625000
        k(   16) = (   0.3750000   0.0000000   0.0000000), wk =   0.0625000
        k(   17) = (   0.3750000   0.1319845   0.0000000), wk =   0.1250000
        k(   18) = (   0.3750000   0.2639689   0.0000000), wk =   0.1250000
        k(   19) = (   0.3750000   0.3959534   0.0000000), wk =   0.1250000
        k(   20) = (   0.3750000  -0.5279378   0.0000000), wk =   0.0625000
        k(   21) = (  -0.5000000   0.0000000   0.0000000), wk =   0.0312500
        k(   22) = (  -0.5000000   0.1319845   0.0000000), wk =   0.0625000
        k(   23) = (  -0.5000000   0.2639689   0.0000000), wk =   0.0625000
        k(   24) = (  -0.5000000   0.3959534   0.0000000), wk =   0.0625000
        k(   25) = (  -0.5000000  -0.5279378   0.0000000), wk =   0.0312500

     Initial potential from superposition of free atoms

     starting charge  226.84630, renormalised to  227.00000

     negative rho (up, down):  3.559E-03 0.000E+00
     Starting wfcs are  195 randomized atomic wfcs

     Self-consistent Calculation

     iteration #  1     ecut=    60.00 Ry     beta= 0.50
     Davidson diagonalization with overlap
     ethr =  1.00E-02,  avg # of iterations =  2.0

     negative rho (up, down):  5.132E-04 0.000E+00

     total energy              =   -1840.97734911 Ry
     Harris-Foulkes estimate   =   -1845.35004089 Ry
     estimated scf accuracy    <      17.86391967 Ry

[...]

     iteration # 13     ecut=    60.00 Ry     beta= 0.50
     Davidson diagonalization with overlap
     c_bands:  1 eigenvalues not converged
     ethr =  1.18E-05,  avg # of iterations =  6.4

[...]

     iteration # 22     ecut=    60.00 Ry     beta= 0.50
     Davidson diagonalization with overlap
     c_bands:  1 eigenvalues not converged
     c_bands:  1 eigenvalues not converged
     c_bands:  1 eigenvalues not converged
     ethr =  7.76E-08,  avg # of iterations = 10.0

[...]

     total energy              =   -1842.89682700 Ry
     Harris-Foulkes estimate   =   -1842.89682704 Ry
     estimated scf accuracy    <       0.00000002 Ry

     iteration # 33     ecut=    60.00 Ry     beta= 0.50
     Davidson diagonalization with overlap
     ethr =  8.42E-12,  avg # of iterations =  1.0

[...]

     End of self-consistent calculation

          k = 0.0000 0.0000 0.0000 ( 34019 PWs)   bands (ev):

   -35.5160 -35.4491 -22.7211 -22.7202 -22.7081 -22.4641 -17.0205 -16.9423
   -16.5671 -16.5558 -16.5048 -16.4926 -15.2312 -15.1763 -14.7794 -14.6015
   -14.5960 -14.5016 -14.4199 -14.1116 -14.1105 -13.9118 -13.8959 -13.7535
   -13.6342 -13.6246 -13.4526  -7.9257  -7.8524  -7.8491  -7.8149  -7.8142
    -7.6889  -7.6449  -7.6220  -7.6211  -7.5373  -7.5086  -7.3422  -2.2603
    -2.2600  -2.0580  -1.7596  -1.7568  -1.6952  -1.5981  -1.5882  -1.5763
    -1.4690  -1.4113  -1.3907  -1.3620  -1.1510  -1.1504  -0.9805  -0.7746
    -0.7660  -0.5184  -0.3891  -0.3886  -0.3088  -0.3064  -0.2413  -0.2227
    -0.1951  -0.1947  -0.1793  -0.1748  -0.1248  -0.1108  -0.0991  -0.0912
    -0.0859  -0.0231   0.0320   0.0329   0.1683   0.1689   0.1689   0.1712
     0.2305   0.2434   0.2595   0.3467   0.3804   0.3947   0.4258   0.4826
     0.5174   0.8203   0.8712   0.9517   0.9518   1.0143   1.0558   1.2534
     1.2804   1.4188   1.4327   1.4399   1.4659   1.5281   1.5891   1.5953
     1.7309   1.7479   1.8385   1.8428   1.8952   1.9499   2.1046   2.1095
     2.1977   2.2146   2.2510   2.3423   2.3480   2.6004   2.6064   5.2819
     5.2886   5.8132   6.2706   6.4876   6.8200   6.8363   7.0079   7.3427
     8.0423   8.1750   8.3372   8.3880   8.4938   8.6856   8.7730   9.1713
     9.2671

[...]

          k = 0.3750-0.5279 0.0000 ( 34004 PWs)   bands (ev):

[...]

          k =-0.5000 0.0000 0.0000 ( 33930 PWs)   bands (ev):

[...]

          k =-0.5000-0.5279 0.0000 ( 34028 PWs)   bands (ev):

   -35.4963 -35.4294 -22.4670 -22.4482 -22.4473 -22.2016 -16.9422 -16.9332
   -16.8802 -16.8684 -16.5567 -16.4763 -14.5440 -14.5438 -14.3681 -14.3346
   -14.2112 -14.1964 -14.1534 -14.0243 -13.9879 -13.9841 -13.9216 -13.9178
   -13.8637 -13.7102 -13.6583  -8.6811  -8.6802  -8.6608  -8.4229  -8.4132
    -8.4125  -8.3193  -8.0431  -7.9486  -7.9454  -7.9210  -7.6765  -4.0182
    -3.9904  -3.7006  -3.5736  -3.5100  -3.0922  -3.0915  -2.6653  -2.6645
    -2.4978  -2.4114  -2.2252  -2.2172  -2.2167  -2.1970  -2.0303  -1.9066
    -1.8514  -1.6349  -1.2800  -1.2767  -1.1932  -1.1014  -1.0957  -0.9525
    -0.9471  -0.9132  -0.9127  -0.8133  -0.7696  -0.7334  -0.6892  -0.6443
    -0.4668  -0.2604  -0.2599   0.2885   0.3842   0.4771   0.7896   0.9222
     1.1588   1.3721   1.4162   1.4261   1.4345   1.4400   1.4595   1.4763
     1.5023   1.7012   1.7252   1.7590   1.8033   1.8304   1.9094   1.9575
     1.9731   1.9754   2.0570   2.0828   2.1228   2.1498   2.1963   2.2058
     2.2710   2.3083   2.4101   2.4120   2.4704   2.4997   2.6060   2.6186
     2.6342   2.6436   4.3236   4.7786   4.7909   4.8505   4.9052   5.4711
     6.0421   6.0424   7.0954   7.2028   8.6944   8.9313   9.0164   9.1077
     9.1202   9.1676   9.4782   9.6373   9.7086   9.7375   9.9882  10.0645
    10.2365

     the Fermi energy is     2.6372 ev

!    total energy              =   -1842.89682698 Ry
     Harris-Foulkes estimate   =   -1842.89682701 Ry
     estimated scf accuracy    <          6.9E-09 Ry

     The total energy is the sum of the following terms:

     one-electron contribution =  -30464.03689942 Ry
     hartree contribution      =   15385.83239186 Ry
     xc contribution           =    -621.73831802 Ry
     ewald contribution        =   13857.05403615 Ry
     smearing contrib. (-TS)   =      -0.00803755 Ry

     convergence has been achieved in  33 iterations

     negative rho (up, down):  1.509E-03 0.000E+00

     Forces acting on atoms (cartesian axes, Ry/au):

     atom    1 type  4   force =     0.00000000    0.00000000   -0.00016172
     atom    2 type  3   force =     0.00000000    0.00000000    0.00038284
     atom    3 type  4   force =     0.00000000    0.00000000   -0.00076076
     atom    4 type  1   force =     0.00000000    0.00000000   -0.00026720
     atom    5 type  3   force =     0.00000000    0.00000000    0.00053979
     atom    6 type  4   force =     0.00000000    0.00000000   -0.00002388
     atom    7 type  4   force =     0.00000000    0.00000000    0.00029250
     atom    8 type  2   force =     0.00000000    0.00000000   -0.00058880
     atom    9 type  4   force =     0.00000000    0.00000000    0.00027616
     atom   10 type  4   force =     0.00000000    0.00000000    0.00021188
     atom   11 type  3   force =     0.00000000    0.00000000   -0.00002015
     atom   12 type  1   force =     0.00000000    0.00000000   -0.00013809
     atom   13 type  4   force =     0.00000000    0.00000000    0.00261204
     atom   14 type  4   force =     0.00000000    0.00000000    0.00325763
     atom   15 type  3   force =     0.00000000    0.00000000   -0.00129717
     atom   16 type  4   force =     0.00000000    0.00000000    0.00325916
     atom   17 type  1   force =     0.00000000    0.00000000    0.01583237
     atom   18 type  3   force =     0.00000000    0.00000000   -0.00332014
     atom   19 type  4   force =     0.00000000    0.00000000   -0.00787568
     atom   20 type  4   force =     0.00000000    0.00000000   -0.00559778
     atom   21 type  2   force =     0.00000000    0.00000000   -0.00831275
     atom   22 type  4   force =     0.00000000    0.00000000    0.00017501
     atom   23 type  4   force =     0.00000000    0.00000000    0.00086388
     atom   24 type  3   force =     0.00000000    0.00000000   -0.00033131
     atom   25 type  1   force =     0.00000000    0.00000000    0.00025947
     atom   26 type  4   force =     0.00000000    0.00000000    0.00090924
     atom   27 type  3   force =     0.00000000    0.00000000   -0.00037090
     atom   28 type  4   force =     0.00000000    0.00000000    0.00019437

     Total force =     0.021390     Total SCF correction =     0.000390

     Computing stress (Cartesian axis) and pressure

     negative rho (up, down):  1.509E-03 0.000E+00
          total   stress  (Ry/bohr**3)                   (kbar)     P=       -3.59
  -0.00002403   0.00000000   0.00000000           -3.53        0.00        0.00
   0.00000000  -0.00001687   0.00000000            0.00       -2.48        0.00
   0.00000000   0.00000000  -0.00003234            0.00        0.00       -4.76

     General routines

     Parallel routines

   This run was terminated on:  23:18:18  21May2021

   JOB DONE.
[1621653498.813690] [holy7c04404:120448:0]          mpool.c:43   UCX  WARN  object 0x2d0fa40 was not returned to mpool ucp_requests
[1621653498.813710] [holy7c04404:120448:0]          mpool.c:43   UCX  WARN  object 0x2d0ff80 was not returned to mpool ucp_requests
[1621653498.816857] [holy7c04307:189627:0]          mpool.c:43   UCX  WARN  object 0x2f33540 was not returned to mpool ucp_requests
[1621653498.841782] [holy7c04311:4966 :0]          mpool.c:43   UCX  WARN  object 0x42e4200 was not returned to mpool ucp_requests
[1621653498.841805] [holy7c04311:4966 :0]          mpool.c:43   UCX  WARN  object 0x42e43c0 was not returned to mpool ucp_requests
[1621653498.813928] [holy7c04404:120446:0]          mpool.c:43   UCX  WARN  object 0x46e7100 was not returned to mpool ucp_requests
[1621653498.813944] [holy7c04404:120446:0]          mpool.c:43   UCX  WARN  object 0x46e72c0 was not returned to mpool ucp_requests
[1621653498.820054] [holy7c04404:120447:0]          mpool.c:43   UCX  WARN  object 0x3d4ca00 was not returned to mpool ucp_requests
[1621653498.821946] [holy7c04307:189628:0]          mpool.c:43   UCX  WARN  object 0x4086180 was not returned to mpool ucp_requests