     Program PWSCF v.6.5 starts on 21May2021 at 21:22:35

     R & G space division:  proc/nbgrp/npool/nimage =      20
     Reading input from CBCO_CuO_cleave_3.0_sep.pwi
Warning: card &IONS ignored
Warning: card     ION_DYNAMICS = 'BFGS' ignored
Warning: card / ignored
Warning: card &CELL ignored
Warning: card     CELL_DYNAMICS = 'BFGS' ignored
Warning: card     PRESS_CONV_THR = 5 ignored
Warning: card / ignored

     Current dimensions of program PWSCF are:
     Max number of different atomic species (ntypx) = 10
     Max number of k-points (npk) =  40000
     Max angular momentum in pseudopotentials (lmaxx) =  3

     Message from routine setup:
     using ibrav=0 with symmetry is DISCOURAGED, use correct ibrav instead

     bravais-lattice index     =            0
     lattice parameter (alat)  =       7.4270  a.u.
     unit-cell volume          =    4598.4779 (a.u.)^3
     number of atoms/cell      =           28
     number of atomic types    =            4
     number of electrons       =       227.00
     number of Kohn-Sham states=          137
     kinetic-energy cutoff     =      60.0000  Ry
     charge density cutoff     =     720.0000  Ry
     convergence threshold     =      1.0E-08
     mixing beta               =       0.5000
     number of iterations used =           10  local-TF  mixing
     Exchange-correlation= SLA PW PBE PBE
                           (   1   4   3   4   0   0   0)

     celldm(1)=   7.427040  celldm(2)=   0.000000  celldm(3)=   0.000000
     celldm(4)=   0.000000  celldm(5)=   0.000000  celldm(6)=   0.000000

     crystal axes: (cart. coord. in units of alat)
               a(1) = (   1.000000   0.000000   0.000000 )
               a(2) = (   0.000000   0.947081   0.000000 )
               a(3) = (   0.000000   0.000000  11.851673 )

     reciprocal axes: (cart. coord. in units 2 pi/alat)
               b(1) = (  1.000000  0.000000  0.000000 )
               b(2) = (  0.000000  1.055876  0.000000 )
               b(3) = (  0.000000  0.000000  0.084376 )

     PseudoPot. # 1 for Ba read from file:
     ./pseudo/Ba.pbe-nsp-van.UPF
     MD5 check sum: 2b9c31dd849566dd297d80989662b7a0
     Pseudo is Ultrasoft + core correction, Zval = 10.0
     Generated by new atomic code, or converted to UPF format
     Using radial grid of  907 points,  6 beta functions with:
                l(1) =   0
                l(2) =   0
                l(3) =   1
                l(4) =   1
                l(5) =   2
                l(6) =   2
     Q(r) pseudized with  6 coefficients,  rinner =    1.200   1.200   1.200
                                                       1.200   1.200

     PseudoPot. # 2 for Ca read from file:
     ./pseudo/Ca.pbe-nsp-van.UPF
     MD5 check sum: 6471098428ff4fa451746d08035ff179
     Pseudo is Ultrasoft + core correction, Zval = 10.0
     Generated by new atomic code, or converted to UPF format
     Using radial grid of  845 points,  6 beta functions with:
                l(1) =   0
                l(2) =   0
                l(3) =   1
                l(4) =   1
                l(5) =   2
                l(6) =   2
     Q(r) pseudized with  6 coefficients,  rinner =    1.200   1.200   1.200
                                                       1.200   1.200

     PseudoPot. # 3 for Cu read from file:
     ./pseudo/Cu.pbe-n-van_ak.UPF
     MD5 check sum: 34e3282627ffb533726feb647e090d62
     Pseudo is Ultrasoft + core correction, Zval = 11.0
     Generated by new atomic code, or converted to UPF format
     Using radial grid of  867 points,  6 beta functions with:
                l(1) =   0
                l(2) =   0
                l(3) =   1
                l(4) =   1
                l(5) =   2
                l(6) =   2
     Q(r) pseudized with  8 coefficients,  rinner =    1.400   1.400   1.400
                                                       1.400   1.400

     PseudoPot. # 4 for O  read from file:
     ./pseudo/O.pbe-van_ak.UPF
     MD5 check sum: 783ce7fe4c79b6a4916957118fed0856
     Pseudo is Ultrasoft, Zval =  6.0
     Generated by new atomic code, or converted to UPF format
     Using radial grid of  737 points,  4 beta functions with:
                l(1) =   0
                l(2) =   0
                l(3) =   1
                l(4) =   1
     Q(r) pseudized with  8 coefficients,  rinner =    0.800   0.800   0.800

     atomic species   valence    mass     pseudopotential
        Ba            10.00   137.32700     Ba( 1.00)
        Ca            10.00    40.07800     Ca( 1.00)
        Cu            11.00    63.54600     Cu( 1.00)
        O              6.00    15.99900     O ( 1.00)

      4 Sym. Ops. (no inversion) found

   Cartesian axes

     site n.     atom                  positions (alat units)
         1           O   tau(   1) = (   0.0000000   0.4735409  -0.0469745  )
         2           Cu  tau(   2) = (   0.0000000   0.0000000   0.0264565  )
         3           O   tau(   3) = (   0.0000000   0.0000000   0.5030914  )
         4           Ba  tau(   4) = (   0.5000000   0.4735409   0.5690292  )
         5           Cu  tau(   5) = (   0.0000000   0.0000000   1.0374254  )
         6           O   tau(   6) = (   0.5000000   0.0000000   1.0768099  )
         7           O   tau(   7) = (   0.0000000   0.4735409   1.1116985  )
         8           Ca  tau(   8) = (   0.5000000   0.4735409   1.4976260  )
         9           O   tau(   9) = (   0.0000000   0.4735409   1.8667529  )
        10           O   tau(  10) = (   0.5000000   0.0000000   1.9044124  )
        11           Cu  tau(  11) = (   0.0000000   0.0000000   1.9512546  )
        12           Ba  tau(  12) = (   0.5000000   0.4735409   2.4295764  )
        13           O   tau(  13) = (   0.0000000   0.0000000   2.5115362  )
        14           O   tau(  14) = (   0.0000000   0.4735409   2.9918528  )
        15           Cu  tau(  15) = (   0.0000000   0.0000000   2.9919088  )
        16           O   tau(  16) = (   0.0000000   0.0000000   4.2355846  )
        17           Ba  tau(  17) = (   0.5000000   0.4735409   4.3175368  )
        18           Cu  tau(  18) = (   0.0000000   0.0000000   4.7958408  )
        19           O   tau(  19) = (   0.5000000   0.0000000   4.8426830  )
        20           O   tau(  20) = (   0.0000000   0.4735409   4.8803373  )
        21           Ca  tau(  21) = (   0.5000000   0.4735409   5.2494744  )
        22           O   tau(  22) = (   0.0000000   0.4735409   5.6353994  )
        23           O   tau(  23) = (   0.5000000   0.0000000   5.6702880  )
        24           Cu  tau(  24) = (   0.0000000   0.0000000   5.7096751  )
        25           Ba  tau(  25) = (   0.5000000   0.4735409   6.1780687  )
        26           O   tau(  26) = (   0.0000000   0.0000000   6.2439963  )
        27           Cu  tau(  27) = (   0.0000000   0.0000000   6.7206363  )
        28           O   tau(  28) = (   0.0000000   0.4735409   6.7940546  )

     number of k points=    25  Gaussian smearing, width (Ry)=  0.0100
                       cart. coord. in units 2pi/alat
        k(    1) = (   0.0000000   0.0000000   0.0000000), wk =   0.0312500
        k(    2) = (   0.0000000   0.1319845   0.0000000), wk =   0.0625000
        k(    3) = (   0.0000000   0.2639689   0.0000000), wk =   0.0625000
        k(    4) = (   0.0000000   0.3959534   0.0000000), wk =   0.0625000
        k(    5) = (   0.0000000  -0.5279378   0.0000000), wk =   0.0312500
        k(    6) = (   0.1250000   0.0000000   0.0000000), wk =   0.0625000
        k(    7) = (   0.1250000   0.1319845   0.0000000), wk =   0.1250000
        k(    8) = (   0.1250000   0.2639689   0.0000000), wk =   0.1250000
        k(    9) = (   0.1250000   0.3959534   0.0000000), wk =   0.1250000
        k(   10) = (   0.1250000  -0.5279378   0.0000000), wk =   0.0625000
        k(   11) = (   0.2500000   0.0000000   0.0000000), wk =   0.0625000
        k(   12) = (   0.2500000   0.1319845   0.0000000), wk =   0.1250000
        k(   13) = (   0.2500000   0.2639689   0.0000000), wk =   0.1250000
        k(   14) = (   0.2500000   0.3959534   0.0000000), wk =   0.1250000
        k(   15) = (   0.2500000  -0.5279378   0.0000000), wk =   0.0625000
        k(   16) = (   0.3750000   0.0000000   0.0000000), wk =   0.0625000
        k(   17) = (   0.3750000   0.1319845   0.0000000), wk =   0.1250000
        k(   18) = (   0.3750000   0.2639689   0.0000000), wk =   0.1250000
        k(   19) = (   0.3750000   0.3959534   0.0000000), wk =   0.1250000
        k(   20) = (   0.3750000  -0.5279378   0.0000000), wk =   0.0625000
        k(   21) = (  -0.5000000   0.0000000   0.0000000), wk =   0.0312500
        k(   22) = (  -0.5000000   0.1319845   0.0000000), wk =   0.0625000
        k(   23) = (  -0.5000000   0.2639689   0.0000000), wk =   0.0625000
        k(   24) = (  -0.5000000   0.3959534   0.0000000), wk =   0.0625000
        k(   25) = (  -0.5000000  -0.5279378   0.0000000), wk =   0.0312500

     Initial potential from superposition of free atoms

     starting charge  226.84630, renormalised to  227.00000

     negative rho (up, down):  3.442E-03 0.000E+00
     Starting wfcs are  195 randomized atomic wfcs

     Self-consistent Calculation

     iteration #  1     ecut=    60.00 Ry     beta= 0.50
     Davidson diagonalization with overlap
     ethr =  1.00E-02,  avg # of iterations =  2.0

     negative rho (up, down):  4.997E-04 0.000E+00

     total energy              =   -1840.73501023 Ry
     Harris-Foulkes estimate   =   -1845.36317720 Ry
     estimated scf accuracy    <      19.37648404 Ry

[...]

     iteration # 18     ecut=    60.00 Ry     beta= 0.50
     Davidson diagonalization with overlap
     c_bands:  1 eigenvalues not converged
     ethr =  3.60E-06,  avg # of iterations = 11.1

[...]

     iteration # 24     ecut=    60.00 Ry     beta= 0.50
     Davidson diagonalization with overlap
     c_bands:  1 eigenvalues not converged
     ethr =  6.71E-08,  avg # of iterations =  4.8

[...]

     total energy              =   -1842.78605083 Ry
     Harris-Foulkes estimate   =   -1842.78605084 Ry
     estimated scf accuracy    <       0.00000001 Ry

     iteration # 36     ecut=    60.00 Ry     beta= 0.50
     Davidson diagonalization with overlap
     ethr =  4.63E-12,  avg # of iterations =  1.0

[...]

     End of self-consistent calculation

          k = 0.0000 0.0000 0.0000 ( 36187 PWs)   bands (ev):

   -36.0128 -35.9884 -23.1701 -23.1667 -23.0213 -22.9964 -17.5135 -17.4945
   -17.0644 -17.0542 -17.0415 -17.0276 -15.7105 -15.7014 -15.0558 -15.0509
   -15.0420 -14.9852 -14.9744 -14.5570 -14.5544 -14.3822 -14.3697 -14.2868
   -14.2466 -14.2310 -13.0693  -8.3026  -8.3001  -8.2635  -8.2604  -8.2344
    -8.1585  -8.0830  -8.0708  -8.0674  -7.9674  -7.9100  -7.7672  -2.7039
    -2.7037  -2.3818  -2.2326  -2.2288  -2.2049  -2.2006  -2.0755  -2.0589
    -1.9628  -1.9430  -1.9101  -1.9002  -1.5945  -1.5905  -1.2509  -0.8335
    -0.8314  -0.7549  -0.7529  -0.7488  -0.7252  -0.7028  -0.6829  -0.6662
    -0.6658  -0.6469  -0.6415  -0.6401  -0.6378  -0.5802  -0.5659  -0.4148
    -0.4111  -0.3880  -0.3156  -0.2960  -0.2866  -0.2798  -0.2747  -0.2719
    -0.2316  -0.2179  -0.2112  -0.1973  -0.1742  -0.1466  -0.0925  -0.0441
     0.1134   0.4006   0.4888   0.5059   0.5090   0.5493   0.5875   0.7854
     0.7895   0.9462   0.9694   0.9804   0.9966   1.0777   1.1006   1.1217
     1.1301   1.1478   1.1528   1.4128   1.4419   1.4896   1.6490   1.6642
     1.7015   1.8406   1.9627   1.9685   2.0686   2.1575   2.1694   4.6052
     4.8430   4.8503   5.7318   5.8238   6.3374   6.3752   6.4214   6.6184
     7.0191   7.5938   7.7318   7.8097   8.0010   8.1518   8.2016   8.2944
     8.7185

[...]

          k = 0.3750-0.5279 0.0000 ( 36128 PWs)   bands (ev):

[...]

          k =-0.5000 0.0000 0.0000 ( 36070 PWs)   bands (ev):

[...]

          k =-0.5000-0.5279 0.0000 ( 36156 PWs)   bands (ev):

   -35.9931 -35.9687 -22.8973 -22.8938 -22.7562 -22.7561 -17.4383 -17.4310
   -17.4198 -17.4048 -17.0516 -17.0299 -14.9883 -14.9868 -14.8423 -14.8401
   -14.6730 -14.6637 -14.6490 -14.5220 -14.5203 -14.4444 -14.4309 -14.4260
   -14.3610 -14.3237 -13.1830  -9.1301  -9.1266  -8.9937  -8.8618  -8.8588
    -8.7931  -8.6574  -8.5780  -8.3964  -8.3926  -8.2563  -8.2417  -4.4919
    -4.4689  -4.1923  -4.1394  -3.7757  -3.5361  -3.5323  -3.1156  -3.1085
    -3.0018  -2.9883  -2.6824  -2.6659  -2.6614  -2.6604  -2.3580  -2.3449
    -2.3362  -1.7832  -1.7320  -1.7072  -1.5626  -1.5531  -1.4227  -1.4093
    -1.4042  -1.3573  -1.3543  -1.3464  -1.3382  -1.2688  -1.2141  -0.7037
    -0.7017  -0.6905  -0.5805  -0.1705  -0.0199   0.0834   0.4508   0.5627
     0.7417   0.9577   0.9602   0.9625   0.9668   0.9967   1.0048   1.0703
     1.2226   1.2254   1.2256   1.2436   1.2672   1.4632   1.4927   1.5129
     1.5253   1.5979   1.6167   1.6543   1.6888   1.6897   1.7862   1.7937
     1.9628   1.9662   2.0096   2.0203   2.0329   2.0639   2.1464   2.1585
     2.2032   2.2123   2.5561   4.2929   4.2979   4.3661   4.3669   5.5954
     5.5982   5.6675   6.6562   6.7230   7.9459   8.0377   8.6237   8.6486
     8.6621   8.7241   8.9295   8.9975   9.0676   9.1177   9.4043   9.4451
     9.4498

     the Fermi energy is     2.1919 ev

!    total energy              =   -1842.78605083 Ry
     Harris-Foulkes estimate   =   -1842.78605083 Ry
     estimated scf accuracy    <          3.3E-09 Ry

     The total energy is the sum of the following terms:

     one-electron contribution =  -25408.68279145 Ry
     hartree contribution      =   12854.40178388 Ry
     xc contribution           =    -621.62146139 Ry
     ewald contribution        =   11333.12816333 Ry
     smearing contrib. (-TS)   =      -0.01174520 Ry

     convergence has been achieved in  36 iterations

     negative rho (up, down):  1.493E-03 0.000E+00

     Forces acting on atoms (cartesian axes, Ry/au):

     atom    1 type  4   force =     0.00000000    0.00000000   -0.00037259
     atom    2 type  3   force =     0.00000000    0.00000000    0.00043886
     atom    3 type  4   force =     0.00000000    0.00000000   -0.00072353
     atom    4 type  1   force =     0.00000000    0.00000000   -0.00053946
     atom    5 type  3   force =     0.00000000    0.00000000    0.00048956
     atom    6 type  4   force =     0.00000000    0.00000000    0.00093847
     atom    7 type  4   force =     0.00000000    0.00000000    0.00114708
     atom    8 type  2   force =     0.00000000    0.00000000   -0.00279318
     atom    9 type  4   force =     0.00000000    0.00000000    0.00490179
     atom   10 type  4   force =     0.00000000    0.00000000    0.00419134
     atom   11 type  3   force =     0.00000000    0.00000000    0.00117514
     atom   12 type  1   force =     0.00000000    0.00000000    0.00952689
     atom   13 type  4   force =     0.00000000    0.00000000   -0.02000479
     atom   14 type  4   force =     0.00000000    0.00000000    0.03730487
     atom   15 type  3   force =     0.00000000    0.00000000   -0.03448315
     atom   16 type  4   force =     0.00000000    0.00000000    0.02834804
     atom   17 type  1   force =     0.00000000    0.00000000   -0.00583615
     atom   18 type  3   force =     0.00000000    0.00000000   -0.02103726
     atom   19 type  4   force =     0.00000000    0.00000000   -0.00136755
     atom   20 type  4   force =     0.00000000    0.00000000   -0.00212505
     atom   21 type  2   force =     0.00000000    0.00000000    0.00263241
     atom   22 type  4   force =     0.00000000    0.00000000   -0.00178922
     atom   23 type  4   force =     0.00000000    0.00000000   -0.00021604
     atom   24 type  3   force =     0.00000000    0.00000000   -0.00034604
     atom   25 type  1   force =     0.00000000    0.00000000    0.00039142
     atom   26 type  4   force =     0.00000000    0.00000000    0.00025225
     atom   27 type  3   force =     0.00000000    0.00000000   -0.00002106
     atom   28 type  4   force =     0.00000000    0.00000000   -0.00008304

     Total force =     0.066507     Total SCF correction =     0.000272

     Computing stress (Cartesian axis) and pressure

     negative rho (up, down):  1.493E-03 0.000E+00
          total   stress  (Ry/bohr**3)                   (kbar)     P=       -5.61
   0.00000802   0.00000000   0.00000000            1.18        0.00        0.00
   0.00000000  -0.00008843   0.00000000            0.00      -13.01        0.00
   0.00000000   0.00000000  -0.00003399            0.00        0.00       -5.00

     General routines

     Parallel routines

   This run was terminated on:  21:33:37  21May2021

   JOB DONE.
[1621647217.352233] [holy7c08606:228681:0]          mpool.c:43   UCX  WARN  object 0x30b6640 was not returned to mpool ucp_requests
[1621647217.357986] [holy7c06505:200775:0]          mpool.c:43   UCX  WARN  object 0x3e56680 was not returned to mpool ucp_requests
[1621647217.365661] [holy7c06505:200780:0]          mpool.c:43   UCX  WARN  object 0x3720980 was not returned to mpool ucp_requests
[1621647217.365689] [holy7c06505:200780:0]          mpool.c:43   UCX  WARN  object 0x3721080 was not returned to mpool ucp_requests
[1621647217.356311] [holy7c08606:228684:0]          mpool.c:43   UCX  WARN  object 0x437b800 was not returned to mpool ucp_requests
[1621647217.356408] [holy7c08606:228683:0]          mpool.c:43   UCX  WARN  object 0x3175700 was not returned to mpool ucp_requests
[1621647217.356427] [holy7c08606:228683:0]          mpool.c:43   UCX  WARN  object 0x3175e00 was not returned to mpool ucp_requests
[1621647217.351533] [holy7c08606:228685:0]          mpool.c:43   UCX  WARN  object 0x2979e80 was not returned to mpool ucp_requests
[1621647217.351552] [holy7c08606:228685:0]          mpool.c:43   UCX  WARN  object 0x297a3c0 was not returned to mpool ucp_requests
[1621647217.360805] [holy7c06505:200776:0]          mpool.c:43   UCX  WARN  object 0x3eeba40 was not returned to mpool ucp_requests