     Program PWSCF v.6.5 starts on 21May2021 at 22:28:44

     R & G space division:  proc/nbgrp/npool/nimage =      20
     Reading input from CBCO_Y_cleave_1.25_sep.pwi
Warning: card &IONS ignored
Warning: card     ION_DYNAMICS = 'BFGS' ignored
Warning: card / ignored
Warning: card &CELL ignored
Warning: card     CELL_DYNAMICS = 'BFGS' ignored
Warning: card     PRESS_CONV_THR = 5 ignored
Warning: card / ignored

     Current dimensions of program PWSCF are:
     Max number of different atomic species (ntypx) = 10
     Max number of k-points (npk) =  40000
     Max angular momentum in pseudopotentials (lmaxx) =  3

     Message from routine setup:
     using ibrav=0 with symmetry is DISCOURAGED, use correct ibrav instead

     bravais-lattice index     =            0
     lattice parameter (alat)  =       7.4270  a.u.
     unit-cell volume          =    4425.7129 (a.u.)^3
     number of atoms/cell      =           28
     number of atomic types    =            4
     number of electrons       =       227.00
     number of Kohn-Sham states=          137
     kinetic-energy cutoff     =      60.0000  Ry
     charge density cutoff     =     720.0000  Ry
     convergence threshold     =      1.0E-08
     mixing beta               =       0.5000
     number of iterations used =           10  local-TF  mixing
     Exchange-correlation= SLA PW PBE PBE
                           (   1   4   3   4   0   0   0)

     celldm(1)=   7.427040  celldm(2)=   0.000000  celldm(3)=   0.000000
     celldm(4)=   0.000000  celldm(5)=   0.000000  celldm(6)=   0.000000

     crystal axes: (cart. coord. in units of alat)
               a(1) = (   1.000000   0.000000   0.000000 )
               a(2) = (   0.000000   0.947081   0.000000 )
               a(3) = (   0.000000   0.000000  11.406405 )

     reciprocal axes: (cart. coord. in units 2 pi/alat)
               b(1) = (  1.000000  0.000000  0.000000 )
               b(2) = (  0.000000  1.055876  0.000000 )
               b(3) = (  0.000000  0.000000  0.087670 )

     PseudoPot. # 1 for Ba read from file:
     ./pseudo/Ba.pbe-nsp-van.UPF
     MD5 check sum: 2b9c31dd849566dd297d80989662b7a0
     Pseudo is Ultrasoft + core correction, Zval = 10.0
     Generated by new atomic code, or converted to UPF format
     Using radial grid of  907 points,  6 beta functions with:
                l(1) =   0
                l(2) =   0
                l(3) =   1
                l(4) =   1
                l(5) =   2
                l(6) =   2
     Q(r) pseudized with  6 coefficients,  rinner =    1.200   1.200   1.200
                                                       1.200   1.200

     PseudoPot. # 2 for Ca read from file:
     ./pseudo/Ca.pbe-nsp-van.UPF
     MD5 check sum: 6471098428ff4fa451746d08035ff179
     Pseudo is Ultrasoft + core correction, Zval = 10.0
     Generated by new atomic code, or converted to UPF format
     Using radial grid of  845 points,  6 beta functions with:
                l(1) =   0
                l(2) =   0
                l(3) =   1
                l(4) =   1
                l(5) =   2
                l(6) =   2
     Q(r) pseudized with  6 coefficients,  rinner =    1.200   1.200   1.200
                                                       1.200   1.200

     PseudoPot. # 3 for Cu read from file:
     ./pseudo/Cu.pbe-n-van_ak.UPF
     MD5 check sum: 34e3282627ffb533726feb647e090d62
     Pseudo is Ultrasoft + core correction, Zval = 11.0
     Generated by new atomic code, or converted to UPF format
     Using radial grid of  867 points,  6 beta functions with:
                l(1) =   0
                l(2) =   0
                l(3) =   1
                l(4) =   1
                l(5) =   2
                l(6) =   2
     Q(r) pseudized with  8 coefficients,  rinner =    1.400   1.400   1.400
                                                       1.400   1.400

     PseudoPot. # 4 for O  read from file:
     ./pseudo/O.pbe-van_ak.UPF
     MD5 check sum: 783ce7fe4c79b6a4916957118fed0856
     Pseudo is Ultrasoft, Zval =  6.0
     Generated by new atomic code, or converted to UPF format
     Using radial grid of  737 points,  4 beta functions with:
                l(1) =   0
                l(2) =   0
                l(3) =   1
                l(4) =   1
     Q(r) pseudized with  8 coefficients,  rinner =    0.800   0.800   0.800

     atomic species   valence    mass     pseudopotential
        Ba            10.00   137.32700     Ba( 1.00)
        Ca            10.00    40.07800     Ca( 1.00)
        Cu            11.00    63.54600     Cu( 1.00)
        O              6.00    15.99900     O ( 1.00)

      4 Sym. Ops. (no inversion) found

   Cartesian axes

     site n.     atom                  positions (alat units)
         1           O   tau(   1) = (   0.0000000   0.4735409  -0.0469745  )
         2           Cu  tau(   2) = (   0.0000000   0.0000000   0.0264565  )
         3           O   tau(   3) = (   0.0000000   0.0000000   0.5030914  )
         4           Ba  tau(   4) = (   0.5000000   0.4735409   0.5690292  )
         5           Cu  tau(   5) = (   0.0000000   0.0000000   1.0374254  )
         6           O   tau(   6) = (   0.5000000   0.0000000   1.0768099  )
         7           O   tau(   7) = (   0.0000000   0.4735409   1.1116985  )
         8           Ca  tau(   8) = (   0.5000000   0.4735409   1.4976260  )
         9           O   tau(   9) = (   0.0000000   0.4735409   1.8667529  )
        10           O   tau(  10) = (   0.5000000   0.0000000   1.9044124  )
        11           Cu  tau(  11) = (   0.0000000   0.0000000   1.9512546  )
        12           Ba  tau(  12) = (   0.5000000   0.4735409   2.4295764  )
        13           O   tau(  13) = (   0.0000000   0.0000000   2.5115362  )
        14           O   tau(  14) = (   0.0000000   0.4735409   2.9918528  )
        15           Cu  tau(  15) = (   0.0000000   0.0000000   2.9919088  )
        16           O   tau(  16) = (   0.0000000   0.0000000   3.4722686  )
        17           Ba  tau(  17) = (   0.5000000   0.4735409   3.5542208  )
        18           Cu  tau(  18) = (   0.0000000   0.0000000   4.0325248  )
        19           O   tau(  19) = (   0.5000000   0.0000000   4.0793669  )
        20           O   tau(  20) = (   0.0000000   0.4735409   4.1170213  )
        21           Ca  tau(  21) = (   0.5000000   0.4735409   4.4861584  )
        22           O   tau(  22) = (   0.0000000   0.4735409   5.1901317  )
        23           O   tau(  23) = (   0.5000000   0.0000000   5.2250203  )
        24           Cu  tau(  24) = (   0.0000000   0.0000000   5.2644074  )
        25           Ba  tau(  25) = (   0.5000000   0.4735409   5.7328010  )
        26           O   tau(  26) = (   0.0000000   0.0000000   5.7987286  )
        27           Cu  tau(  27) = (   0.0000000   0.0000000   6.2753686  )
        28           O   tau(  28) = (   0.0000000   0.4735409   6.3487869  )

     number of k points=    25  Gaussian smearing, width (Ry)=  0.0100
                       cart. coord. in units 2pi/alat
        k(    1) = (   0.0000000   0.0000000   0.0000000), wk =   0.0312500
        k(    2) = (   0.0000000   0.1319845   0.0000000), wk =   0.0625000
        k(    3) = (   0.0000000   0.2639689   0.0000000), wk =   0.0625000
        k(    4) = (   0.0000000   0.3959534   0.0000000), wk =   0.0625000
        k(    5) = (   0.0000000  -0.5279378   0.0000000), wk =   0.0312500
        k(    6) = (   0.1250000   0.0000000   0.0000000), wk =   0.0625000
        k(    7) = (   0.1250000   0.1319845   0.0000000), wk =   0.1250000
        k(    8) = (   0.1250000   0.2639689   0.0000000), wk =   0.1250000
        k(    9) = (   0.1250000   0.3959534   0.0000000), wk =   0.1250000
        k(   10) = (   0.1250000  -0.5279378   0.0000000), wk =   0.0625000
        k(   11) = (   0.2500000   0.0000000   0.0000000), wk =   0.0625000
        k(   12) = (   0.2500000   0.1319845   0.0000000), wk =   0.1250000
        k(   13) = (   0.2500000   0.2639689   0.0000000), wk =   0.1250000
        k(   14) = (   0.2500000   0.3959534   0.0000000), wk =   0.1250000
        k(   15) = (   0.2500000  -0.5279378   0.0000000), wk =   0.0625000
        k(   16) = (   0.3750000   0.0000000   0.0000000), wk =   0.0625000
        k(   17) = (   0.3750000   0.1319845   0.0000000), wk =   0.1250000
        k(   18) = (   0.3750000   0.2639689   0.0000000), wk =   0.1250000
        k(   19) = (   0.3750000   0.3959534   0.0000000), wk =   0.1250000
        k(   20) = (   0.3750000  -0.5279378   0.0000000), wk =   0.0625000
        k(   21) = (  -0.5000000   0.0000000   0.0000000), wk =   0.0312500
        k(   22) = (  -0.5000000   0.1319845   0.0000000), wk =   0.0625000
        k(   23) = (  -0.5000000   0.2639689   0.0000000), wk =   0.0625000
        k(   24) = (  -0.5000000   0.3959534   0.0000000), wk =   0.0625000
        k(   25) = (  -0.5000000  -0.5279378   0.0000000), wk =   0.0312500

     Initial potential from superposition of free atoms

     starting charge  226.84630, renormalised to  227.00000

     negative rho (up, down):  3.477E-03 0.000E+00
     Starting wfcs are  195 randomized atomic wfcs

     Self-consistent Calculation

     iteration #  1     ecut=    60.00 Ry     beta= 0.50
     Davidson diagonalization with overlap
     ethr =  1.00E-02,  avg # of iterations =  2.0

     negative rho (up, down):  5.061E-04 0.000E+00

     total energy              =   -1840.97678906 Ry
     Harris-Foulkes estimate   =   -1845.29699441 Ry
     estimated scf accuracy    <      17.67093548 Ry

[...]

     iteration # 18     ecut=    60.00 Ry     beta= 0.50
     Davidson diagonalization with overlap
     c_bands:  1 eigenvalues not converged
     ethr =  3.65E-06,  avg # of iterations =  9.3

[...]

     iteration # 23     ecut=    60.00 Ry     beta= 0.50
     Davidson diagonalization with overlap
     c_bands:  1 eigenvalues not converged
     ethr =  6.12E-08,  avg # of iterations =  6.2

[...]

     total energy              =   -1842.77135563 Ry
     Harris-Foulkes estimate   =   -1842.77135563 Ry
     estimated scf accuracy    <       0.00000002 Ry

     iteration # 34     ecut=    60.00 Ry     beta= 0.50
     Davidson diagonalization with overlap
     ethr =  7.75E-12,  avg # of iterations =  1.7

[...]

     End of self-consistent calculation

          k = 0.0000 0.0000 0.0000 ( 34843 PWs)   bands (ev):

   -37.9768 -35.5752 -22.7799 -22.7409 -22.6757 -22.5199 -19.0280 -18.9828
   -18.9662 -17.0796 -16.6264 -16.6150 -15.4935 -15.2901 -15.0101 -14.8435
   -14.6601 -14.6373 -14.5608 -14.3686 -14.1702 -14.1643 -13.9707 -13.8119
   -13.7521 -13.6786 -13.6321  -7.9481  -7.9112  -7.8737  -7.7841  -7.7708
    -7.7562  -7.7009  -7.6808  -7.6138  -7.5877  -7.5647  -7.3986  -2.3187
    -2.3056  -2.2679  -2.1614  -2.0514  -1.8186  -1.7550  -1.6568  -1.5592
    -1.5422  -1.5272  -1.4721  -1.2223  -1.2090  -1.2029  -1.0807  -1.0401
    -0.8444  -0.7301  -0.6037  -0.4473  -0.4349  -0.4320  -0.3653  -0.3191
    -0.2974  -0.2534  -0.2382  -0.2333  -0.2299  -0.1977  -0.1954  -0.1725
    -0.1527  -0.0931  -0.0259   0.0017   0.1101   0.1104   0.1142   0.1359
     0.1419   0.1808   0.1848   0.1869   0.2285   0.3204   0.3225   0.3352
     0.4119   0.7663   0.8109   0.8932   0.9166   0.9726   1.0257   1.0275
     1.1114   1.1831   1.1982   1.3607   1.3802   1.4395   1.4854   1.5345
     1.5446   1.5702   1.6506   1.7324   1.8404   2.0466   2.0650   2.0976
     2.1540   2.1625   2.2151   2.2704   2.2861   2.5305   2.5472   4.2505
     5.2276   5.2784   5.8909   6.3129   6.5922   6.7747   6.7789   6.9779
     7.2220   7.5432   7.7438   7.9902   8.1601   8.2135   8.2409   8.2512
     8.4601

[...]

          k = 0.3750-0.5279 0.0000 ( 34780 PWs)   bands (ev):

[...]

          k =-0.5000 0.0000 0.0000 ( 34714 PWs)   bands (ev):

[...]

          k =-0.5000-0.5279 0.0000 ( 34796 PWs)   bands (ev):

   -37.9615 -35.5555 -22.5070 -22.4794 -22.4014 -22.2574 -19.1715 -19.1130
   -18.8929 -17.0015 -16.9922 -16.6158 -14.7807 -14.6259 -14.6023 -14.5983
   -14.4273 -14.2620 -14.2585 -14.2548 -14.0839 -14.0456 -14.0428 -14.0340
   -13.9861 -13.9213 -13.8583  -8.7399  -8.7008  -8.6440  -8.4797  -8.4720
    -8.3865  -8.3849  -8.1008  -8.0700  -8.0048  -7.8378  -7.7520  -4.2112
    -4.0763  -3.7568  -3.7290  -3.5928  -3.1501  -3.1408  -2.7235  -2.7229
    -2.6406  -2.5574  -2.4520  -2.2754  -2.2642  -2.2514  -2.2246  -1.9389
    -1.8960  -1.7209  -1.3384  -1.2842  -1.2462  -1.2060  -1.1582  -1.1311
    -1.0601  -1.0114  -0.9713  -0.9623  -0.9598  -0.8722  -0.8532  -0.7898
    -0.5531  -0.3185  -0.3073   0.2476   0.3712   0.3973   0.7626   0.9293
     1.0495   1.1472   1.3238   1.3521   1.3533   1.3551   1.3765   1.4211
     1.4551   1.5211   1.5447   1.6326   1.6458   1.6707   1.7684   1.8507
     1.8771   1.8831   1.9352   1.9702   2.0273   2.0658   2.0826   2.1286
     2.1547   2.2135   2.3515   2.3580   2.3742   2.4411   2.5491   2.5549
     2.5807   2.7811   4.1416   4.5725   4.7239   4.7911   4.8016   5.4284
     5.5174   5.9818   5.9834   6.8940   7.0543   7.1308   7.9126   8.6348
     8.7029   8.9016   8.9535   9.0518   9.1008   9.2040   9.3629   9.5789
     9.6893

     the Fermi energy is     2.5785 ev

!    total energy              =   -1842.77135562 Ry
     Harris-Foulkes estimate   =   -1842.77135563 Ry
     estimated scf accuracy    <          8.7E-09 Ry

     The total energy is the sum of the following terms:

     one-electron contribution =  -29780.92700423 Ry
     hartree contribution      =   15042.72863826 Ry
     xc contribution           =    -621.58744925 Ry
     ewald contribution        =   13517.02280928 Ry
     smearing contrib. (-TS)   =      -0.00834968 Ry

     convergence has been achieved in  34 iterations

     negative rho (up, down):  1.495E-03 0.000E+00

     Forces acting on atoms (cartesian axes, Ry/au):

     atom    1 type  4   force =     0.00000000    0.00000000   -0.00018940
     atom    2 type  3   force =     0.00000000    0.00000000    0.00022940
     atom    3 type  4   force =     0.00000000    0.00000000   -0.00076972
     atom    4 type  1   force =     0.00000000    0.00000000   -0.00029002
     atom    5 type  3   force =     0.00000000    0.00000000    0.00049222
     atom    6 type  4   force =     0.00000000    0.00000000   -0.00002397
     atom    7 type  4   force =     0.00000000    0.00000000    0.00032483
     atom    8 type  2   force =     0.00000000    0.00000000   -0.00059749
     atom    9 type  4   force =     0.00000000    0.00000000    0.00025085
     atom   10 type  4   force =     0.00000000    0.00000000    0.00030614
     atom   11 type  3   force =     0.00000000    0.00000000    0.00026161
     atom   12 type  1   force =     0.00000000    0.00000000    0.00010163
     atom   13 type  4   force =     0.00000000    0.00000000    0.00257330
     atom   14 type  4   force =     0.00000000    0.00000000    0.00257550
     atom   15 type  3   force =     0.00000000    0.00000000   -0.00417667
     atom   16 type  4   force =     0.00000000    0.00000000    0.00243037
     atom   17 type  1   force =     0.00000000    0.00000000   -0.01328797
     atom   18 type  3   force =     0.00000000    0.00000000    0.00259234
     atom   19 type  4   force =     0.00000000    0.00000000    0.04538856
     atom   20 type  4   force =     0.00000000    0.00000000    0.05141445
     atom   21 type  2   force =     0.00000000    0.00000000   -0.02866707
     atom   22 type  4   force =     0.00000000    0.00000000   -0.01602029
     atom   23 type  4   force =     0.00000000    0.00000000   -0.00949912
     atom   24 type  3   force =     0.00000000    0.00000000   -0.01829311
     atom   25 type  1   force =     0.00000000    0.00000000   -0.01645864
     atom   26 type  4   force =     0.00000000    0.00000000   -0.00056306
     atom   27 type  3   force =     0.00000000    0.00000000    0.00058650
     atom   28 type  4   force =     0.00000000    0.00000000   -0.00069120

     Total force =     0.081857     Total SCF correction =     0.000459

     Computing stress (Cartesian axis) and pressure

     negative rho (up, down):  1.495E-03 0.000E+00
          total   stress  (Ry/bohr**3)                   (kbar)     P=       -6.80
  -0.00000707   0.00000000   0.00000000           -1.04        0.00        0.00
   0.00000000   0.00001193   0.00000000            0.00        1.75        0.00
   0.00000000   0.00000000  -0.00014358            0.00        0.00      -21.12

     General routines

     Parallel routines

   This run was terminated on:  22:38:49  21May2021

   JOB DONE.
[1621651129.345268] [holy7c04206:230861:0]          mpool.c:43   UCX  WARN  object 0x2ec8ec0 was not returned to mpool ucp_requests
[1621651129.349977] [holy7c04201:100355:0]          mpool.c:43   UCX  WARN  object 0x4632100 was not returned to mpool ucp_requests
[1621651129.350462] [holy7c04207:209510:0]          mpool.c:43   UCX  WARN  object 0x31f9a80 was not returned to mpool ucp_requests
[1621651129.350484] [holy7c04207:209510:0]          mpool.c:43   UCX  WARN  object 0x31f9e00 was not returned to mpool ucp_requests
[1621651129.351196] [holy7c04201:100354:0]          mpool.c:43   UCX  WARN  object 0x3cd4640 was not returned to mpool ucp_requests
[1621651129.348280] [holy7c04205:154618:0]          mpool.c:43   UCX  WARN  object 0x2d725c0 was not returned to mpool ucp_requests
[1621651129.348302] [holy7c04205:154618:0]          mpool.c:43   UCX  WARN  object 0x2d72e80 was not returned to mpool ucp_requests
[1621651129.347145] [holy7c04207:209511:0]          mpool.c:43   UCX  WARN  object 0x2ff0800 was not returned to mpool ucp_requests
[1621651129.347403] [holy7c04209:127392:0]          mpool.c:43   UCX  WARN  object 0x44ff340 was not returned to mpool ucp_requests
[1621651129.349645] [holy7c04104:161610:0]          mpool.c:43   UCX  WARN  object 0x2db9bc0 was not returned to mpool ucp_requests