     Program PWSCF v.6.5 starts on 20May2021 at 14:18:26

     R & G space division:  proc/nbgrp/npool/nimage =      20
     Reading input from CBCO_first_relax.pwi

     Current dimensions of program PWSCF are:
     Max number of different atomic species (ntypx) = 10
     Max number of k-points (npk) =  40000
     Max angular momentum in pseudopotentials (lmaxx) =  3

     Message from routine setup:
     using ibrav=0 with symmetry is DISCOURAGED, use correct ibrav instead

     bravais-lattice index     =            0
     lattice parameter (alat)  =       7.2654  a.u.
     unit-cell volume          =    1204.4104 (a.u.)^3
     number of atoms/cell      =           13
     number of atomic types    =            4
     number of electrons       =       105.00
     number of Kohn-Sham states=           64
     kinetic-energy cutoff     =      60.0000  Ry
     charge density cutoff     =     720.0000  Ry
     convergence threshold     =      1.0E-06
     mixing beta               =       0.5000
     number of iterations used =           10  local-TF  mixing
     Exchange-correlation= SLA PW PBE PBE
                           (   1   4   3   4   0   0   0)
     nstep                     =          300

     celldm(1)=   7.265373  celldm(2)=   0.000000  celldm(3)=   0.000000
     celldm(4)=   0.000000  celldm(5)=   0.000000  celldm(6)=   0.000000

     crystal axes: (cart. coord. in units of alat)
               a(1) = (   1.000000   0.000000   0.000000 )
               a(2) = (   0.000000   1.021193   0.000000 )
               a(3) = (   0.000000   0.000000   3.075338 )

     reciprocal axes: (cart. coord. in units 2 pi/alat)
               b(1) = (  1.000000  0.000000  0.000000 )
               b(2) = (  0.000000  0.979247  0.000000 )
               b(3) = (  0.000000  0.000000  0.325168 )

     PseudoPot. # 1 for Ca read from file:
     ./pseudo/Ca.pbe-nsp-van.UPF
     MD5 check sum: 6471098428ff4fa451746d08035ff179
     Pseudo is Ultrasoft + core correction, Zval = 10.0
     Generated by new atomic code, or converted to UPF format
     Using radial grid of  845 points,  6 beta functions with:
                l(1) =   0
                l(2) =   0
                l(3) =   1
                l(4) =   1
                l(5) =   2
                l(6) =   2
     Q(r) pseudized with  6 coefficients,  rinner =    1.200   1.200   1.200
                                                       1.200   1.200

     PseudoPot. # 2 for Ba read from file:
     ./pseudo/Ba.pbe-nsp-van.UPF
     MD5 check sum: 2b9c31dd849566dd297d80989662b7a0
     Pseudo is Ultrasoft + core correction, Zval = 10.0
     Generated by new atomic code, or converted to UPF format
     Using radial grid of  907 points,  6 beta functions with:
                l(1) =   0
                l(2) =   0
                l(3) =   1
                l(4) =   1
                l(5) =   2
                l(6) =   2
     Q(r) pseudized with  6 coefficients,  rinner =    1.200   1.200   1.200
                                                       1.200   1.200

     PseudoPot. # 3 for O  read from file:
     ./pseudo/O.pbe-van_ak.UPF
     MD5 check sum: 783ce7fe4c79b6a4916957118fed0856
     Pseudo is Ultrasoft, Zval =  6.0
     Generated by new atomic code, or converted to UPF format
     Using radial grid of  737 points,  4 beta functions with:
                l(1) =   0
                l(2) =   0
                l(3) =   1
                l(4) =   1
     Q(r) pseudized with  8 coefficients,  rinner =    0.800   0.800   0.800

     PseudoPot. # 4 for Cu read from file:
     ./pseudo/Cu.pbe-n-van_ak.UPF
     MD5 check sum: 34e3282627ffb533726feb647e090d62
     Pseudo is Ultrasoft + core correction, Zval = 11.0
     Generated by new atomic code, or converted to UPF format
     Using radial grid of  867 points,  6 beta functions with:
                l(1) =   0
                l(2) =   0
                l(3) =   1
                l(4) =   1
                l(5) =   2
                l(6) =   2
     Q(r) pseudized with  8 coefficients,  rinner =    1.400   1.400   1.400
                                                       1.400   1.400

     atomic species   valence    mass     pseudopotential
        Ca            10.00    40.07800     Ca( 1.00)
        Ba            10.00   137.32700     Ba( 1.00)
        O              6.00    15.99900     O ( 1.00)
        Cu            11.00    63.55000     Cu( 1.00)

      8 Sym. Ops., with inversion, found

   Cartesian axes

     site n.     atom                  positions (alat units)
         1           Ba  tau(   1) = (   0.4999997   0.5105967   2.5199052  )
         2           Ba  tau(   2) = (   0.4999997   0.5105967   0.5554339  )
         3           Ca  tau(   3) = (   0.4999997   0.5105967   1.5376696  )
         4           Cu  tau(   4) = (   0.0000000   0.0000000   1.9887540  )
         5           Cu  tau(   5) = (   0.0000000   0.0000000   1.0865848  )
         6           Cu  tau(   6) = (   0.0000000   0.0000000   0.0000000  )
         7           O   tau(   7) = (   0.0000000   0.5105967   0.0000000  )
         8           O   tau(   8) = (   0.4999997   0.0000000   1.9087183  )
         9           O   tau(   9) = (   0.4999997   0.0000000   1.1666205  )
        10           O   tau(  10) = (   0.0000000   0.5105967   1.9117875  )
        11           O   tau(  11) = (   0.0000000   0.5105967   1.1635516  )
        12           O   tau(  12) = (   0.0000000   0.0000000   2.5858066  )
        13           O   tau(  13) = (   0.0000000   0.0000000   0.4895325  )

     number of k points=    25  Gaussian smearing, width (Ry)=  0.0100
                       cart. coord. in units 2pi/alat
        k(    1) = (   0.0000000   0.0000000   0.0000000), wk =   0.0312500
        k(    2) = (   0.0000000   0.1224059   0.0000000), wk =   0.0625000
        k(    3) = (   0.0000000   0.2448117   0.0000000), wk =   0.0625000
        k(    4) = (   0.0000000   0.3672176   0.0000000), wk =   0.0625000
        k(    5) = (   0.0000000  -0.4896234   0.0000000), wk =   0.0312500
        k(    6) = (   0.1250000   0.0000000   0.0000000), wk =   0.0625000
        k(    7) = (   0.1250000   0.1224059   0.0000000), wk =   0.1250000
        k(    8) = (   0.1250000   0.2448117   0.0000000), wk =   0.1250000
        k(    9) = (   0.1250000   0.3672176   0.0000000), wk =   0.1250000
        k(   10) = (   0.1250000  -0.4896234   0.0000000), wk =   0.0625000
        k(   11) = (   0.2500000   0.0000000   0.0000000), wk =   0.0625000
        k(   12) = (   0.2500000   0.1224059   0.0000000), wk =   0.1250000
        k(   13) = (   0.2500000   0.2448117   0.0000000), wk =   0.1250000
        k(   14) = (   0.2500000   0.3672176   0.0000000), wk =   0.1250000
        k(   15) = (   0.2500000  -0.4896234   0.0000000), wk =   0.0625000
        k(   16) = (   0.3750000   0.0000000   0.0000000), wk =   0.0625000
        k(   17) = (   0.3750000   0.1224059   0.0000000), wk =   0.1250000
        k(   18) = (   0.3750000   0.2448117   0.0000000), wk =   0.1250000
        k(   19) = (   0.3750000   0.3672176   0.0000000), wk =   0.1250000
        k(   20) = (   0.3750000  -0.4896234   0.0000000), wk =   0.0625000
        k(   21) = (  -0.5000000   0.0000000   0.0000000), wk =   0.0312500
        k(   22) = (  -0.5000000   0.1224059   0.0000000), wk =   0.0625000
        k(   23) = (  -0.5000000   0.2448117   0.0000000), wk =   0.0625000
        k(   24) = (  -0.5000000   0.3672176   0.0000000), wk =   0.0625000
        k(   25) = (  -0.5000000  -0.4896234   0.0000000), wk =   0.0312500

     Initial potential from superposition of free atoms

     starting charge  104.92906, renormalised to  105.00000

     negative rho (up, down):  1.330E-04 0.000E+00
     Starting wfcs are   91 randomized atomic wfcs

     Self-consistent Calculation

     iteration #  1     ecut=    60.00 Ry     beta= 0.50
     Davidson diagonalization with overlap
     ethr =  1.00E-02,  avg # of iterations =  2.0

     negative rho (up, down):  1.252E-04 0.000E+00

     total energy              =    -843.87848703 Ry
     Harris-Foulkes estimate   =    -845.85823159 Ry
     estimated scf accuracy    <       6.30903140 Ry

[...]

     End of self-consistent calculation

          k = 0.0000 0.0000 0.0000 (  9393 PWs)   bands (ev):

   -29.0018 -16.8289 -16.8037 -10.6681 -10.0854 -10.0671  -9.0209  -8.6521
    -8.1096  -7.8432  -7.7321  -7.6588  -7.6309  -2.0388  -2.0024  -1.8732
    -1.8452  -1.7331  -1.6843   3.8240   4.4381   4.4599   4.4997   4.5107
     4.6563   5.0254   5.1424   5.1481   5.3483   5.6288   5.7367   5.7531
     5.8281   5.8576   6.0768   6.1748   6.2470   6.2641   6.2844   6.2853
     6.5028   6.7076   6.7811   7.2549   7.3500   7.4947   7.5413   7.6348
     7.8580   7.8944   7.9607   8.0057   8.1111   8.1245   8.1255  11.4359
    12.5071  12.9368  13.4259  14.0381  14.4068  15.1243  15.4472  15.6125

[...]

          k =-0.5000 0.0000 0.0000 (  9438 PWs)   bands (ev):

[...]

     the Fermi energy is     8.3814 ev

!    total energy              =    -844.73696541 Ry
     Harris-Foulkes estimate   =    -844.73696552 Ry
     estimated scf accuracy    <       0.00000020 Ry

     The total energy is the sum of the following terms:

     one-electron contribution =    -270.45083272 Ry
     hartree contribution      =     227.17466867 Ry
     xc contribution           =    -285.91184179 Ry
     ewald contribution        =    -515.54537637 Ry
     smearing contrib. (-TS)   =      -0.00358320 Ry

     convergence has been achieved in  12 iterations

[...]

     Forces acting on atoms (cartesian axes, Ry/au):

     atom    1 type  2   force =     0.00000000    0.00000000   -0.01535077
     atom    2 type  2   force =     0.00000000    0.00000000    0.01535077
     atom    3 type  1   force =     0.00000000    0.00000000    0.00000000
     atom    4 type  4   force =     0.00000000    0.00000000    0.00065549
     atom    5 type  4   force =     0.00000000    0.00000000   -0.00065549
     atom    6 type  4   force =     0.00000000    0.00000000    0.00000000
     atom    7 type  3   force =     0.00000000    0.00000000    0.00000000
     atom    8 type  3   force =     0.00000000    0.00000000    0.02622009
     atom    9 type  3   force =     0.00000000    0.00000000   -0.02622009
     atom   10 type  3   force =     0.00000000    0.00000000    0.02996831
     atom   11 type  3   force =     0.00000000    0.00000000   -0.02996831
     atom   12 type  3   force =     0.00000000    0.00000000    0.00511220
     atom   13 type  3   force =     0.00000000    0.00000000   -0.00511220

     Total force =     0.060791     Total SCF correction =     0.001486

     Computing stress (Cartesian axis) and pressure

     negative rho (up, down):  1.078E-04 0.000E+00
          total   stress  (Ry/bohr**3)                   (kbar)     P=      -31.29
  -0.00031843   0.00000000   0.00000000          -46.84        0.00        0.00
   0.00000000  -0.00029866   0.00000000            0.00      -43.93        0.00
   0.00000000   0.00000000  -0.00002099            0.00        0.00       -3.09

     BFGS Geometry Optimization

     number of scf cycles    =   1
[...]
O             0.0000000000        1.9484186287        4.4552740696
O             0.0000000000        0.0000000000        9.9390594466
O             0.0000000000        0.0000000000        1.8783994255

     NEW-OLD atomic charge density approx. for the potential

     negative rho (up, down):  1.081E-04 0.000E+00
     extrapolated charge  103.30635, renormalised to  105.00000

[...]

     iteration #  1     ecut=    60.00 Ry     beta= 0.50
     Davidson diagonalization with overlap
     c_bands:  1 eigenvalues not converged
     c_bands:  1 eigenvalues not converged
     ethr =  1.00E-06,  avg # of iterations = 13.9

[...]

     enthalpy old            =    -844.7369654134 Ry
     enthalpy new            =    -844.7449581106 Ry

     CASE: enthalpy_new < enthalpy_old

[...]

     Total force =     0.011020     Total SCF correction =     0.002887
     SCF correction compared to forces is large: reduce conv_thr to get better values

[...]

     WARNING: bfgs curvature condition failed, Theta= 0.990
     new trust radius        =       0.0087688439 bohr
     new conv_thr            =       0.0000001449 Ry

[...]

     Threshold (ethr) on eigenvalues was too large:
     Diagonalizing with lowered threshold

     Davidson diagonalization with overlap
     ethr =  8.91E-09,  avg # of iterations =  3.8

[...]

     Total force =     0.001317     Total SCF correction =     0.000087

[...]

     CASE: enthalpy_new > enthalpy_old

     new trust radius        =       0.0003137488 bohr
     new conv_thr            =       0.0000000100 Ry

[...]

     WARNING: info= 48 for Hessian
     new trust radius        =       0.0002351684 bohr
     new conv_thr            =       0.0000000100 Ry

[...]

     CASE: enthalpy_new > enthalpy_old

     new trust radius        =       0.0000943910 bohr

     trust_radius < trust_radius_min

     resetting bfgs history

     new conv_thr            =       0.0000000100 Ry

[...]

     number of scf cycles    =  27
     number of bfgs steps    =  24

     enthalpy old            =    -844.7589773249 Ry
     enthalpy new            =    -844.7589773689 Ry

     CASE: enthalpy_new < enthalpy_old

     WARNING: bfgs curvature condition failed, Theta= 0.651
     new trust radius        =       0.0001973625 bohr
     new conv_thr            =       0.0000000100 Ry

     new unit-cell volume =   1166.66899 a.u.^3 (   172.88250 Ang^3 )
     density =      5.92990 g/cm^3

[...]

ATOMIC_POSITIONS (angstrom)
Ba            1.8978252492        1.9330938218        9.5918754643
Ba            1.8978252492        1.9330938218        2.1891214982
Ca            1.8978252492        1.9330938218        5.8904984813
Cu            0.0000000000        0.0000000000        7.6931782876
Cu            0.0000000000        0.0000000000        4.0878176786
Cu            0.0000000000        0.0000000000        0.0000000000
O             0.0000000000        1.9330938218        0.0000000000
O             1.8978252492        0.0000000000        7.4415496479
O             1.8978252492        0.0000000000        4.3394463182
O             0.0000000000        1.9330938218        7.4562330020
O             0.0000000000        1.9330938218        4.3247639606
O             0.0000000000        0.0000000000        9.9165012247
O             0.0000000000        0.0000000000        1.8644957378

     NEW-OLD atomic charge density approx. for the potential

     negative rho (up, down):  1.152E-04 0.000E+00
     extrapolated charge  105.00459, renormalised to  105.00000

[...]

     Threshold (ethr) on eigenvalues was too large:
     Diagonalizing with lowered threshold

     Davidson diagonalization with overlap
     ethr =  3.14E-08,  avg # of iterations =  1.0

[...]

     bfgs converged in  28 scf cycles and  25 bfgs steps
     (criteria: energy <  1.0E-05 Ry, force <  1.0E-04Ry/Bohr, cell <  5.0E-01kbar)

     End of BFGS Geometry Optimization

     Final enthalpy =    -844.7589773920 Ry
Begin final coordinates
     new unit-cell volume =   1166.66899 a.u.^3 (   172.88250 Ang^3 )
     density =      5.92990 g/cm^3

CELL_PARAMETERS (angstrom)
   3.795652473   0.000000000   0.000000000
   0.000000000   3.866185674   0.000000000
   0.000000000   0.000000000  11.780992977

ATOMIC_POSITIONS (angstrom)
Ba            1.8978252492        1.9330938218        9.5918754643
Ba            1.8978252492        1.9330938218        2.1891214982
Ca            1.8978252492        1.9330938218        5.8904984813
Cu            0.0000000000        0.0000000000        7.6931782876
Cu            0.0000000000        0.0000000000        4.0878176786
Cu            0.0000000000        0.0000000000        0.0000000000
O             0.0000000000        1.9330938218        0.0000000000
O             1.8978252492        0.0000000000        7.4415496479
O             1.8978252492        0.0000000000        4.3394463182
O             0.0000000000        1.9330938218        7.4562330020
O             0.0000000000        1.9330938218        4.3247639606
O             0.0000000000        0.0000000000        9.9165012247
O             0.0000000000        0.0000000000        1.8644957378
End final coordinates

     Final scf calculation at the relaxed structure.
     The G-vectors are recalculated for the final unit cell
     Results may differ from those at the preceding step.

     bravais-lattice index     =            0
     lattice parameter (alat)  =       7.2654  a.u.
     unit-cell volume          =    1166.6690 (a.u.)^3
     number of atoms/cell      =           13
     number of atomic types    =            4
     number of electrons       =       105.00
     number of Kohn-Sham states=           64
     kinetic-energy cutoff     =      60.0000  Ry
     charge density cutoff     =     720.0000  Ry
     convergence threshold     =      1.0E-08
     mixing beta               =       0.5000
     number of iterations used =           10  local-TF  mixing
     Exchange-correlation= SLA PW PBE PBE
                           (   1   4   3   4   0   0   0)

     celldm(1)=   7.265373  celldm(2)=   0.000000  celldm(3)=   0.000000
     celldm(4)=   0.000000  celldm(5)=   0.000000  celldm(6)=   0.000000

     crystal axes: (cart. coord. in units of alat)
               a(1) = (   0.987251   0.000000   0.000000 )
               a(2) = (   0.000000   1.005596   0.000000 )
               a(3) = (   0.000000   0.000000   3.064240 )

     reciprocal axes: (cart. coord. in units 2 pi/alat)
               b(1) = (  1.012914  0.000000  0.000000 )
               b(2) = (  0.000000  0.994435  0.000000 )
               b(3) = (  0.000000  0.000000  0.326345 )

     PseudoPot. # 1 for Ca read from file:
     ./pseudo/Ca.pbe-nsp-van.UPF
     MD5 check sum: 6471098428ff4fa451746d08035ff179
     Pseudo is Ultrasoft + core correction, Zval = 10.0
     Generated by new atomic code, or converted to UPF format
     Using radial grid of  845 points,  6 beta functions with:
                l(1) =   0
                l(2) =   0
                l(3) =   1
                l(4) =   1
                l(5) =   2
                l(6) =   2
     Q(r) pseudized with  6 coefficients,  rinner =    1.200   1.200   1.200
                                                       1.200   1.200

     PseudoPot. # 2 for Ba read from file:
     ./pseudo/Ba.pbe-nsp-van.UPF
     MD5 check sum: 2b9c31dd849566dd297d80989662b7a0
     Pseudo is Ultrasoft + core correction, Zval = 10.0
     Generated by new atomic code, or converted to UPF format
     Using radial grid of  907 points,  6 beta functions with:
                l(1) =   0
                l(2) =   0
                l(3) =   1
                l(4) =   1
                l(5) =   2
                l(6) =   2
     Q(r) pseudized with  6 coefficients,  rinner =    1.200   1.200   1.200
                                                       1.200   1.200

     PseudoPot. # 3 for O  read from file:
     ./pseudo/O.pbe-van_ak.UPF
     MD5 check sum: 783ce7fe4c79b6a4916957118fed0856
     Pseudo is Ultrasoft, Zval =  6.0
     Generated by new atomic code, or converted to UPF format
     Using radial grid of  737 points,  4 beta functions with:
                l(1) =   0
                l(2) =   0
                l(3) =   1
                l(4) =   1
     Q(r) pseudized with  8 coefficients,  rinner =    0.800   0.800   0.800

     PseudoPot. # 4 for Cu read from file:
     ./pseudo/Cu.pbe-n-van_ak.UPF
     MD5 check sum: 34e3282627ffb533726feb647e090d62
     Pseudo is Ultrasoft + core correction, Zval = 11.0
     Generated by new atomic code, or converted to UPF format
     Using radial grid of  867 points,  6 beta functions with:
                l(1) =   0
                l(2) =   0
                l(3) =   1
                l(4) =   1
                l(5) =   2
                l(6) =   2
     Q(r) pseudized with  8 coefficients,  rinner =    1.400   1.400   1.400
                                                       1.400   1.400

     atomic species   valence    mass     pseudopotential
        Ca            10.00    40.07800     Ca( 1.00)
        Ba            10.00   137.32700     Ba( 1.00)
        O              6.00    15.99900     O ( 1.00)
        Cu            11.00    63.55000     Cu( 1.00)

      8 Sym. Ops., with inversion, found

   Cartesian axes

     site n.     atom                  positions (alat units)
         1           Ba  tau(   1) = (   0.4936250   0.5027984   2.4948501  )
         2           Ba  tau(   2) = (   0.4936250   0.5027984   0.5693913  )
         3           Ca  tau(   3) = (   0.4936250   0.5027984   1.5321207  )
         4           Cu  tau(   4) = (   0.0000000   0.0000000   2.0009983  )
         5           Cu  tau(   5) = (   0.0000000   0.0000000   1.0632428  )
         6           Cu  tau(   6) = (   0.0000000   0.0000000   0.0000000  )
         7           O   tau(   7) = (   0.0000000   0.5027984   0.0000000  )
         8           O   tau(   8) = (   0.4936250   0.0000000   1.9355496  )
         9           O   tau(   9) = (   0.4936250   0.0000000   1.1286915  )
        10           O   tau(  10) = (   0.0000000   0.5027984   1.9393688  )
        11           O   tau(  11) = (   0.0000000   0.5027984   1.1248726  )
        12           O   tau(  12) = (   0.0000000   0.0000000   2.5792854  )
        13           O   tau(  13) = (   0.0000000   0.0000000   0.4849560  )

     number of k points=    25  Gaussian smearing, width (Ry)=  0.0100
                       cart. coord. in units 2pi/alat
        k(    1) = (   0.0000000   0.0000000   0.0000000), wk =   0.0312500
        k(    2) = (   0.0000000   0.1243044   0.0000000), wk =   0.0625000
        k(    3) = (   0.0000000   0.2486087   0.0000000), wk =   0.0625000
        k(    4) = (   0.0000000   0.3729131   0.0000000), wk =   0.0625000
        k(    5) = (   0.0000000  -0.4972175   0.0000000), wk =   0.0312500
        k(    6) = (   0.1266143   0.0000000   0.0000000), wk =   0.0625000
        k(    7) = (   0.1266143   0.1243044   0.0000000), wk =   0.1250000
        k(    8) = (   0.1266143   0.2486087   0.0000000), wk =   0.1250000
        k(    9) = (   0.1266143   0.3729131   0.0000000), wk =   0.1250000
        k(   10) = (   0.1266143  -0.4972175   0.0000000), wk =   0.0625000
        k(   11) = (   0.2532285   0.0000000   0.0000000), wk =   0.0625000
        k(   12) = (   0.2532285   0.1243044   0.0000000), wk =   0.1250000
        k(   13) = (   0.2532285   0.2486087   0.0000000), wk =   0.1250000
        k(   14) = (   0.2532285   0.3729131   0.0000000), wk =   0.1250000
        k(   15) = (   0.2532285  -0.4972175   0.0000000), wk =   0.0625000
        k(   16) = (   0.3798428   0.0000000   0.0000000), wk =   0.0625000
        k(   17) = (   0.3798428   0.1243044   0.0000000), wk =   0.1250000
        k(   18) = (   0.3798428   0.2486087   0.0000000), wk =   0.1250000
        k(   19) = (   0.3798428   0.3729131   0.0000000), wk =   0.1250000
        k(   20) = (   0.3798428  -0.4972175   0.0000000), wk =   0.0625000
        k(   21) = (  -0.5064571   0.0000000   0.0000000), wk =   0.0312500
        k(   22) = (  -0.5064571   0.1243044   0.0000000), wk =   0.0625000
        k(   23) = (  -0.5064571   0.2486087   0.0000000), wk =   0.0625000
        k(   24) = (  -0.5064571   0.3729131   0.0000000), wk =   0.0625000
        k(   25) = (  -0.5064571  -0.4972175   0.0000000), wk =   0.0312500

     Initial potential from superposition of free atoms

     starting charge  104.92906, renormalised to  105.00000

     negative rho (up, down):  1.384E-04 0.000E+00
     Starting wfcs are   91 randomized atomic wfcs

     Self-consistent Calculation

     iteration #  1     ecut=    60.00 Ry     beta= 0.50
     Davidson diagonalization with overlap
     c_bands:  1 eigenvalues not converged
     c_bands:  1 eigenvalues not converged
     c_bands:  1 eigenvalues not converged
     c_bands:  1 eigenvalues not converged
     c_bands:  1 eigenvalues not converged
     c_bands:  1 eigenvalues not converged
     c_bands:  1 eigenvalues not converged
     c_bands:  1 eigenvalues not converged
     c_bands:  1 eigenvalues not converged
     c_bands:  1 eigenvalues not converged
     c_bands:  1 eigenvalues not converged
     ethr =  1.00E-06,  avg # of iterations = 16.4

[...]

     total energy              =    -844.75891569 Ry
     Harris-Foulkes estimate   =    -844.75891570 Ry
     estimated scf accuracy    <       0.00000003 Ry

     iteration # 14     ecut=    60.00 Ry     beta= 0.50
     Davidson diagonalization with overlap
     ethr =  2.82E-11,  avg # of iterations =  3.0

[...]

     End of self-consistent calculation

[...]

          k = 0.3798-0.4972 0.0000 (  9202 PWs)   bands (ev):

[...]

          k =-0.5065-0.4972 0.0000 (  9204 PWs)   bands (ev):

   -29.1706 -15.8523 -15.8415 -10.6084 -10.5939 -10.2240  -7.9585  -7.8677
    -7.7363  -7.7307  -7.6647  -7.5398  -7.5302  -1.9741  -1.9506  -1.9267
    -1.7329  -1.4914  -1.2392   2.3523   2.6728   3.2291   3.6928   3.7157
     4.0504   4.0864   4.4610   4.8616   5.2650   5.3887   5.4055   5.4242
     5.4618   5.6102   5.7729   6.6080   7.0779   7.6160   7.7124   7.8280
     7.9576   8.0067   8.0734   8.1908   8.2229   8.3408   8.3761   8.4662
     8.6280   8.7575   8.8339   8.8360  10.4367  11.1262  11.1628  11.9051
    13.4762  15.2833  15.5772  15.7369  16.0749  16.1915  16.2254  17.1111

     the Fermi energy is     8.8394 ev

!    total energy              =    -844.75891569 Ry
     Harris-Foulkes estimate   =    -844.75891569 Ry
     estimated scf accuracy    <          9.1E-09 Ry

     The total energy is the sum of the following terms:

     one-electron contribution =    -253.79340786 Ry
     hartree contribution      =     220.30829076 Ry
     xc contribution           =    -286.13584585 Ry
     ewald contribution        =    -525.13424656 Ry
     smearing contrib. (-TS)   =      -0.00370617 Ry

     convergence has been achieved in  14 iterations

     negative rho (up, down):  1.143E-04 0.000E+00

     Forces acting on atoms (cartesian axes, Ry/au):

     atom    1 type  2   force =     0.00000000    0.00000000   -0.00004159
     atom    2 type  2   force =     0.00000000    0.00000000    0.00004159
     atom    3 type  1   force =     0.00000000    0.00000000    0.00000000
     atom    4 type  4   force =     0.00000000    0.00000000    0.00055647
     atom    5 type  4   force =     0.00000000    0.00000000   -0.00055647
     atom    6 type  4   force =     0.00000000    0.00000000    0.00000000
     atom    7 type  3   force =     0.00000000    0.00000000    0.00000000
     atom    8 type  3   force =     0.00000000    0.00000000   -0.00000679
     atom    9 type  3   force =     0.00000000    0.00000000    0.00000679
     atom   10 type  3   force =     0.00000000    0.00000000   -0.00003857
     atom   11 type  3   force =     0.00000000    0.00000000    0.00003857
     atom   12 type  3   force =     0.00000000    0.00000000    0.00008949
     atom   13 type  3   force =     0.00000000    0.00000000   -0.00008949

     Total force =     0.000801     Total SCF correction =     0.000757
     SCF correction compared to forces is large: reduce conv_thr to get better values

     Computing stress (Cartesian axis) and pressure

     negative rho (up, down):  1.143E-04 0.000E+00
          total   stress  (Ry/bohr**3)                   (kbar)     P=        0.03
   0.00000027   0.00000000   0.00000000            0.04        0.00        0.00
   0.00000000  -0.00000022   0.00000000            0.00       -0.03        0.00
   0.00000000   0.00000000   0.00000062            0.00        0.00        0.09

     General routines

     Parallel routines

   This run was terminated on:  14:35:21  20May2021

   JOB DONE.