     Program PWSCF v.6.5 starts on  5May2021 at 17:56:38

     R & G space division:  proc/nbgrp/npool/nimage =      20
     Reading input from YBCO_BaO_cleave_6.5_sep_scf.pwi
Warning: card &IONS ignored
Warning: card     ION_DYNAMICS = 'BFGS' ignored
Warning: card / ignored
Warning: card &CELL ignored
Warning: card     CELL_DYNAMICS = 'BFGS' ignored
Warning: card / ignored

     Current dimensions of program PWSCF are:
     Max number of different atomic species (ntypx) = 10
     Max number of k-points (npk) =  40000
     Max angular momentum in pseudopotentials (lmaxx) =  3

     Message from routine setup:
     using ibrav=0 with symmetry is DISCOURAGED, use correct ibrav instead

     bravais-lattice index     =            0
     lattice parameter (alat)  =       7.3477  a.u.
     unit-cell volume          =    5003.7270 (a.u.)^3
     number of atoms/cell      =           28
     number of atomic types    =            4
     number of electrons       =       229.00
     number of Kohn-Sham states=          138
     kinetic-energy cutoff     =      60.0000  Ry
     charge density cutoff     =     720.0000  Ry
     convergence threshold     =      1.0E-06
     mixing beta               =       0.2000
     number of iterations used =           10  local-TF  mixing
     Exchange-correlation= SLA PW PBE PBE
                           (   1   4   3   4   0   0   0)

     celldm(1)=   7.347715  celldm(2)=   0.000000  celldm(3)=   0.000000
     celldm(4)=   0.000000  celldm(5)=   0.000000  celldm(6)=   0.000000

     crystal axes: (cart. coord. in units of alat)
               a(1) = (   1.000000   0.000000   0.000000 )
               a(2) = (   0.000000   0.975577   0.000000 )
               a(3) = (   0.000000   0.000000  12.929299 )

     reciprocal axes: (cart. coord. in units 2 pi/alat)
               b(1) = (  1.000000  0.000000  0.000000 )
               b(2) = (  0.000000  1.025034  0.000000 )
               b(3) = (  0.000000  0.000000  0.077344 )

     PseudoPot. # 1 for Ba read from file:
     /n/holyscratch01/hoffman_lab/ruizhe/YBCO_Project/pseudo/Ba.pbe-nsp-van.UPF
     MD5 check sum: 2b9c31dd849566dd297d80989662b7a0
     Pseudo is Ultrasoft + core correction, Zval = 10.0
     Generated by new atomic code, or converted to UPF format
     Using radial grid of  907 points,  6 beta functions with:
                l(1) =   0
                l(2) =   0
                l(3) =   1
                l(4) =   1
                l(5) =   2
                l(6) =   2
     Q(r) pseudized with  6 coefficients,  rinner =    1.200   1.200   1.200
                                                       1.200   1.200

     PseudoPot. # 2 for Cu read from file:
     /n/holyscratch01/hoffman_lab/ruizhe/YBCO_Project/pseudo/Cu.pbe-n-van_ak.UPF
     MD5 check sum: 34e3282627ffb533726feb647e090d62
     Pseudo is Ultrasoft + core correction, Zval = 11.0
     Generated by new atomic code, or converted to UPF format
     Using radial grid of  867 points,  6 beta functions with:
                l(1) =   0
                l(2) =   0
                l(3) =   1
                l(4) =   1
                l(5) =   2
                l(6) =   2
     Q(r) pseudized with  8 coefficients,  rinner =    1.400   1.400   1.400
                                                       1.400   1.400

     PseudoPot. # 3 for O  read from file:
     /n/holyscratch01/hoffman_lab/ruizhe/YBCO_Project/pseudo/O.pbe-van_ak.UPF
     MD5 check sum: 783ce7fe4c79b6a4916957118fed0856
     Pseudo is Ultrasoft, Zval =  6.0
     Generated by new atomic code, or converted to UPF format
     Using radial grid of  737 points,  4 beta functions with:
                l(1) =   0
                l(2) =   0
                l(3) =   1
                l(4) =   1
     Q(r) pseudized with  8 coefficients,  rinner =    0.800   0.800   0.800

     PseudoPot. # 4 for Y  read from file:
     /n/holyscratch01/hoffman_lab/ruizhe/YBCO_Project/pseudo/Y.pbe-nsp-van.UPF
     MD5 check sum: 4412fed3ab108fed87a1b7d6a69a4a38
     Pseudo is Ultrasoft + core correction, Zval = 11.0
     Generated by new atomic code, or converted to UPF format
     Using radial grid of  885 points,  6 beta functions with:
                l(1) =   0
                l(2) =   0
                l(3) =   1
                l(4) =   1
                l(5) =   2
                l(6) =   2
     Q(r) pseudized with  6 coefficients,  rinner =    1.200   1.200   1.200
                                                       1.200   1.200

     atomic species   valence    mass     pseudopotential
        Ba            10.00   137.32700     Ba( 1.00)
        Cu            11.00    63.54600     Cu( 1.00)
        O              6.00    15.99900     O ( 1.00)
        Y             11.00    88.90584     Y ( 1.00)

      4 Sym. Ops. (no inversion) found

   Cartesian axes

     site n.     atom                  positions (alat units)
         1           O   tau(   1) = (   0.0000000   0.4877884  -0.0257983  )
         2           Cu  tau(   2) = (   0.0000000   0.0000000   0.0215779  )
         3           O   tau(   3) = (   0.0000000   0.0000000   0.5073114  )
         4           Ba  tau(   4) = (   0.4999996   0.4877884   0.5319677  )
         5           Cu  tau(   5) = (   0.0000000   0.0000000   1.0495845  )
         6           O   tau(   6) = (   0.4999996   0.0000000   1.1181579  )
         7           O   tau(   7) = (   0.0000000   0.4877884   1.1273137  )
         8           Y   tau(   8) = (   0.4999996   0.4877884   1.4938777  )
         9           O   tau(   9) = (   0.0000000   0.4877884   1.8497402  )
        10           O   tau(  10) = (   0.4999996   0.0000000   1.8692709  )
        11           Cu  tau(  11) = (   0.0000000   0.0000000   1.9417560  )
        12           Ba  tau(  12) = (   0.4999996   0.4877884   2.4526063  )
        13           O   tau(  13) = (   0.0000000   0.0000000   2.5103470  )
        14           O   tau(  14) = (   0.0000000   0.4877884   2.9968469  )
        15           Cu  tau(  15) = (   0.0000000   0.0000000   2.9968521  )
        16           O   tau(  16) = (   0.0000000   0.0000000   3.4833288  )
        17           Ba  tau(  17) = (   0.4999996   0.4877884   3.5410618  )
        18           Cu  tau(  18) = (   0.0000000   0.0000000   5.7236413  )
        19           O   tau(  19) = (   0.4999996   0.0000000   5.7961136  )
        20           O   tau(  20) = (   0.0000000   0.4877884   5.8156263  )
        21           Y   tau(  21) = (   0.4999996   0.4877884   6.1714913  )
        22           O   tau(  22) = (   0.0000000   0.4877884   6.5380553  )
        23           O   tau(  23) = (   0.4999996   0.0000000   6.5472240  )
        24           Cu  tau(  24) = (   0.0000000   0.0000000   6.6158025  )
        25           Ba  tau(  25) = (   0.4999996   0.4877884   7.1334039  )
        26           O   tau(  26) = (   0.0000000   0.0000000   7.1580602  )
        27           Cu  tau(  27) = (   0.0000000   0.0000000   7.6437654  )
        28           O   tau(  28) = (   0.0000000   0.4877884   7.6911467  )

     number of k points=    25  Gaussian smearing, width (Ry)=  0.0100
                       cart. coord. in units 2pi/alat
        k(    1) = (   0.0000000   0.0000000   0.0000000), wk =   0.0312500
        k(    2) = (   0.0000000   0.1281293   0.0000000), wk =   0.0625000
        k(    3) = (   0.0000000   0.2562585   0.0000000), wk =   0.0625000
        k(    4) = (   0.0000000   0.3843878   0.0000000), wk =   0.0625000
        k(    5) = (   0.0000000  -0.5125170   0.0000000), wk =   0.0312500
        k(    6) = (   0.1250000   0.0000000   0.0000000), wk =   0.0625000
        k(    7) = (   0.1250000   0.1281293   0.0000000), wk =   0.1250000
        k(    8) = (   0.1250000   0.2562585   0.0000000), wk =   0.1250000
        k(    9) = (   0.1250000   0.3843878   0.0000000), wk =   0.1250000
        k(   10) = (   0.1250000  -0.5125170   0.0000000), wk =   0.0625000
        k(   11) = (   0.2500000   0.0000000   0.0000000), wk =   0.0625000
        k(   12) = (   0.2500000   0.1281293   0.0000000), wk =   0.1250000
        k(   13) = (   0.2500000   0.2562585   0.0000000), wk =   0.1250000
        k(   14) = (   0.2500000   0.3843878   0.0000000), wk =   0.1250000
        k(   15) = (   0.2500000  -0.5125170   0.0000000), wk =   0.0625000
        k(   16) = (   0.3750000   0.0000000   0.0000000), wk =   0.0625000
        k(   17) = (   0.3750000   0.1281293   0.0000000), wk =   0.1250000
        k(   18) = (   0.3750000   0.2562585   0.0000000), wk =   0.1250000
        k(   19) = (   0.3750000   0.3843878   0.0000000), wk =   0.1250000
        k(   20) = (   0.3750000  -0.5125170   0.0000000), wk =   0.0625000
        k(   21) = (  -0.5000000   0.0000000   0.0000000), wk =   0.0312500
        k(   22) = (  -0.5000000   0.1281293   0.0000000), wk =   0.0625000
        k(   23) = (  -0.5000000   0.2562585   0.0000000), wk =   0.0625000
        k(   24) = (  -0.5000000   0.3843878   0.0000000), wk =   0.0625000
        k(   25) = (  -0.5000000  -0.5125170   0.0000000), wk =   0.0312500

     Initial potential from superposition of free atoms

     starting charge  228.84827, renormalised to  229.00000

     negative rho (up, down):  8.950E-02 0.000E+00
     Starting wfcs are  201 randomized atomic wfcs

     Self-consistent Calculation

     iteration #  1     ecut=    60.00 Ry     beta= 0.20
     Davidson diagonalization with overlap
     ethr =  1.00E-02,  avg # of iterations =  2.0

     negative rho (up, down):  8.743E-02 0.000E+00

     total energy              =   -1869.57246602 Ry
     Harris-Foulkes estimate   =   -1871.20339022 Ry
     estimated scf accuracy    <      17.11710106 Ry

[...]

     iteration # 17     ecut=    60.00 Ry     beta= 0.20
     Davidson diagonalization with overlap
     c_bands:  1 eigenvalues not converged
     ethr =  5.65E-06,  avg # of iterations =  9.4

[...]

     iteration # 29     ecut=    60.00 Ry     beta= 0.20
     Davidson diagonalization with overlap
     c_bands:  1 eigenvalues not converged
     ethr =  6.47E-07,  avg # of iterations =  6.6

[...]

     total energy              =   -1868.76683221 Ry
     Harris-Foulkes estimate   =   -1868.76683119 Ry
     estimated scf accuracy    <       0.00000195 Ry

     iteration # 39     ecut=    60.00 Ry     beta= 0.20
     Davidson diagonalization with overlap
     ethr =  8.52E-10,  avg # of iterations =  2.7

[...]

     End of self-consistent calculation

          k = 0.0000 0.0000 0.0000 ( 39193 PWs)   bands (ev):

   -38.6794 -38.3119 -24.7078 -23.3304 -23.3013 -23.2459 -19.2140 -18.8176
   -18.6836 -18.6744 -18.3354 -18.3180 -16.0079 -15.7126 -15.3373 -15.0490
   -14.8273 -14.8147 -14.7931 -14.6117 -14.6029 -14.5319 -14.3206 -14.3129
   -14.3076 -14.0688 -14.0272 -10.0287  -9.5370  -9.5130  -8.5570  -8.5194
    -8.5160  -8.3226  -8.2959  -8.2958  -8.2680  -8.1993  -8.1760  -2.6366
    -2.6022  -2.4729  -2.4171  -2.4159  -2.4147  -2.4070  -2.3933  -2.3462
    -2.2717  -2.2233  -2.0024  -1.8707  -1.5356  -1.4387  -1.1340  -1.1180
    -1.1080  -1.0208  -1.0128  -1.0004  -0.6668  -0.6235  -0.6216  -0.5869
    -0.5846  -0.4953  -0.4420  -0.4286  -0.4212  -0.4071  -0.3232  -0.2705
    -0.2650  -0.2463  -0.2371  -0.1788  -0.1721  -0.1577  -0.1466  -0.1126
    -0.0433  -0.0217  -0.0180  -0.0093   0.0009   0.1069   0.1076   0.2808
     0.3294   0.3614   0.5117   0.5488   0.6743   0.6823   0.6920   0.7983
     0.8084   0.8155   0.8483   0.8524   0.9181   0.9489   0.9557   1.0120
     1.1634   1.1704   1.3834   1.3991   1.4314   1.4899   1.5346   1.6300
     1.6387   1.6584   1.7862   1.7949   1.8265   2.1147   2.1153   3.4359
     4.6208   4.7279   4.7337   5.2171   5.2775   5.7472   6.1057   6.1441
     6.2278   6.6137   6.9318   7.0728   7.3420   7.6097   7.6200   7.7781
     7.9577   7.9723

[...]

          k = 0.3750-0.5125 0.0000 ( 39430 PWs)   bands (ev):

[...]

          k =-0.5000 0.0000 0.0000 ( 39274 PWs)   bands (ev):

[...]

          k =-0.5000-0.5125 0.0000 ( 39388 PWs)   bands (ev):

   -38.6516 -38.2838 -24.5027 -23.0883 -23.0589 -23.0105 -19.2335 -19.2063
   -18.8813 -18.8662 -18.7331 -18.3257 -15.0631 -15.0511 -14.8324 -14.8277
   -14.8061 -14.8012 -14.7748 -14.5945 -14.5481 -14.4964 -14.2796 -14.2017
   -14.1952 -14.1218 -13.9711 -10.4996 -10.1487  -9.9466  -9.2823  -9.2541
    -9.1453  -8.9932  -8.9669  -8.8447  -8.5399  -8.5086  -8.4942  -4.7473
    -4.5479  -4.1658  -3.8122  -3.7518  -3.2877  -3.2821  -3.0772  -2.8907
    -2.8481  -2.8431  -2.7683  -2.5273  -2.4036  -2.3976  -2.3954  -2.3734
    -2.0408  -1.9693  -1.6326  -1.5828  -1.4993  -1.4809  -1.3668  -1.2970
    -1.2751  -1.2221  -1.1391  -1.0647  -1.0602  -0.9511  -0.8906  -0.8209
    -0.7972  -0.4216  -0.4182  -0.1188   0.0368   0.1306   0.3487   0.5215
     0.7096   0.8340   0.8520   0.9491   0.9846   1.0118   1.0341   1.0403
     1.0494   1.0755   1.1258   1.2060   1.2096   1.2861   1.2900   1.4565
     1.4746   1.4858   1.5021   1.5041   1.5149   1.5440   1.5688   1.5837
     1.5977   1.8179   1.9131   1.9563   2.0022   2.0070   2.1101   2.1145
     2.4437   2.4518   3.7875   3.9796   4.2180   4.3058   4.3134   4.4626
     5.2512   5.2630   5.9694   6.0584   6.0773   6.2630   6.9402   7.6455
     7.8513   8.1667   8.3523   8.4377   8.5662   8.5708   8.6307   8.6740
     8.9371   9.0377

     the Fermi energy is     2.4130 ev

!    total energy              =   -1868.76683202 Ry
     Harris-Foulkes estimate   =   -1868.76683240 Ry
     estimated scf accuracy    <       0.00000073 Ry

     The total energy is the sum of the following terms:

     one-electron contribution =  -23682.63503933 Ry
     hartree contribution      =   11990.56837043 Ry
     xc contribution           =    -642.20247926 Ry
     ewald contribution        =   10465.51077629 Ry
     smearing contrib. (-TS)   =      -0.00846015 Ry

     convergence has been achieved in  39 iterations

     negative rho (up, down):  9.057E-02 0.000E+00

     Forces acting on atoms (cartesian axes, Ry/au):

     atom    1 type  3   force =     0.00000000    0.00000000    0.00000218
     atom    2 type  2   force =     0.00000000    0.00000000   -0.00129022
     atom    3 type  3   force =     0.00000000    0.00000000   -0.00003917
     atom    4 type  1   force =     0.00000000    0.00000000   -0.00007345
     atom    5 type  2   force =     0.00000000    0.00000000   -0.00099723
     atom    6 type  3   force =     0.00000000    0.00000000    0.00048858
     atom    7 type  3   force =     0.00000000    0.00000000   -0.00002913
     atom    8 type  4   force =     0.00000000    0.00000000   -0.00073149
     atom    9 type  3   force =     0.00000000    0.00000000    0.00141405
     atom   10 type  3   force =     0.00000000    0.00000000    0.00174203
     atom   11 type  2   force =     0.00000000    0.00000000   -0.00231952
     atom   12 type  1   force =     0.00000000    0.00000000   -0.00559479
     atom   13 type  3   force =     0.00000000    0.00000000    0.00311973
     atom   14 type  3   force =     0.00000000    0.00000000    0.01780033
     atom   15 type  2   force =     0.00000000    0.00000000   -0.01714831
     atom   16 type  3   force =     0.00000000    0.00000000    0.04545980
     atom   17 type  1   force =     0.00000000    0.00000000   -0.04317808
     atom   18 type  2   force =     0.00000000    0.00000000   -0.00038949
     atom   19 type  3   force =     0.00000000    0.00000000    0.02005403
     atom   20 type  3   force =     0.00000000    0.00000000    0.01119323
     atom   21 type  4   force =     0.00000000    0.00000000   -0.04319459
     atom   22 type  3   force =     0.00000000    0.00000000    0.00429378
     atom   23 type  3   force =     0.00000000    0.00000000    0.00722751
     atom   24 type  2   force =     0.00000000    0.00000000    0.00209764
     atom   25 type  1   force =     0.00000000    0.00000000   -0.00178920
     atom   26 type  3   force =     0.00000000    0.00000000    0.00142555
     atom   27 type  2   force =     0.00000000    0.00000000   -0.00004675
     atom   28 type  3   force =     0.00000000    0.00000000    0.00050300

     Total force =     0.084087     Total SCF correction =     0.003235

     Computing stress (Cartesian axis) and pressure

     negative rho (up, down):  9.057E-02 0.000E+00
          total   stress  (Ry/bohr**3)                   (kbar)     P=       -5.67
  -0.00007411   0.00000000   0.00000000          -10.90        0.00        0.00
   0.00000000  -0.00003110   0.00000000            0.00       -4.58        0.00
   0.00000000   0.00000000  -0.00001050            0.00        0.00       -1.54

     General routines

     Parallel routines

   This run was terminated on:  18:10:30   5May2021

   JOB DONE.
[1620252631.019800] [holy7c06101:71812:0]          mpool.c:43   UCX  WARN  object 0x28e5e40 was not returned to mpool ucp_requests
[1620252631.019816] [holy7c06101:71812:0]          mpool.c:43   UCX  WARN  object 0x28e68c0 was not returned to mpool ucp_requests
[1620252631.018324] [holy7c04409:155882:0]          mpool.c:43   UCX  WARN  object 0x45d2e40 was not returned to mpool ucp_requests
[1620252631.020861] [holy7c06201:82408:0]          mpool.c:43   UCX  WARN  object 0x3398f00 was not returned to mpool ucp_requests
[1620252631.023858] [holy7c06202:67864:0]          mpool.c:43   UCX  WARN  object 0x39a3c00 was not returned to mpool ucp_requests
[1620252631.023878] [holy7c06202:67864:0]          mpool.c:43   UCX  WARN  object 0x39a3dc0 was not returned to mpool ucp_requests
[1620252631.032502] [holy7c04408:104920:0]          mpool.c:43   UCX  WARN  object 0x2e7ea00 was not returned to mpool ucp_requests
[1620252631.032522] [holy7c04408:104920:0]          mpool.c:43   UCX  WARN  object 0x2e7ebc0 was not returned to mpool ucp_requests
[1620252631.025590] [holy7c06108:87766:0]          mpool.c:43   UCX  WARN  object 0x4279c80 was not returned to mpool ucp_requests
[1620252631.027497] [holy7c06201:82407:0]          mpool.c:43   UCX  WARN  object 0x34fb6c0 was not returned to mpool ucp_requests
[1620252631.027516] [holy7c06201:82407:0]          mpool.c:43   UCX  WARN  object 0x34fb880 was not returned to mpool ucp_requests