     Program PWSCF v.6.5 starts on  5May2021 at 17:23:47

     R & G space division:  proc/nbgrp/npool/nimage =      20
     Reading input from YBCO_Y_cleave_0.5_sep_scf.pwi
Warning: card &IONS ignored
Warning: card     ION_DYNAMICS = 'BFGS' ignored
Warning: card / ignored
Warning: card &CELL ignored
Warning: card     CELL_DYNAMICS = 'BFGS' ignored
Warning: card / ignored

     Current dimensions of program PWSCF are:
     Max number of different atomic species (ntypx) = 10
     Max number of k-points (npk) =  40000
     Max angular momentum in pseudopotentials (lmaxx) =  3

     Message from routine setup:
     using ibrav=0 with symmetry is DISCOURAGED, use correct ibrav instead

     bravais-lattice index     =            0
     lattice parameter (alat)  =       7.3477  a.u.
     unit-cell volume          =    4406.5316 (a.u.)^3
     number of atoms/cell      =           28
     number of atomic types    =            4
     number of electrons       =       229.00
     number of Kohn-Sham states=          138
     kinetic-energy cutoff     =      60.0000  Ry
     charge density cutoff     =     720.0000  Ry
     convergence threshold     =      1.0E-06
     mixing beta               =       0.2000
     number of iterations used =           10  local-TF  mixing
     Exchange-correlation= SLA PW PBE PBE
                           (   1   4   3   4   0   0   0)

     celldm(1)=   7.347715  celldm(2)=   0.000000  celldm(3)=   0.000000
     celldm(4)=   0.000000  celldm(5)=   0.000000  celldm(6)=   0.000000

     crystal axes: (cart. coord. in units of alat)
               a(1) = (   1.000000   0.000000   0.000000 )
               a(2) = (   0.000000   0.975577   0.000000 )
               a(3) = (   0.000000   0.000000  11.386186 )

     reciprocal axes: (cart. coord. in units 2 pi/alat)
               b(1) = (  1.000000  0.000000  0.000000 )
               b(2) = (  0.000000  1.025034  0.000000 )
               b(3) = (  0.000000  0.000000  0.087826 )

     PseudoPot. # 1 for Ba read from file:
     /n/holyscratch01/hoffman_lab/ruizhe/YBCO_Project/pseudo/Ba.pbe-nsp-van.UPF
     MD5 check sum: 2b9c31dd849566dd297d80989662b7a0
     Pseudo is Ultrasoft + core correction, Zval = 10.0
     Generated by new atomic code, or converted to UPF format
     Using radial grid of  907 points,  6 beta functions with:
                l(1) =   0
                l(2) =   0
                l(3) =   1
                l(4) =   1
                l(5) =   2
                l(6) =   2
     Q(r) pseudized with  6 coefficients,  rinner =    1.200   1.200   1.200
                                                       1.200   1.200

     PseudoPot. # 2 for Cu read from file:
     /n/holyscratch01/hoffman_lab/ruizhe/YBCO_Project/pseudo/Cu.pbe-n-van_ak.UPF
     MD5 check sum: 34e3282627ffb533726feb647e090d62
     Pseudo is Ultrasoft + core correction, Zval = 11.0
     Generated by new atomic code, or converted to UPF format
     Using radial grid of  867 points,  6 beta functions with:
                l(1) =   0
                l(2) =   0
                l(3) =   1
                l(4) =   1
                l(5) =   2
                l(6) =   2
     Q(r) pseudized with  8 coefficients,  rinner =    1.400   1.400   1.400
                                                       1.400   1.400

     PseudoPot. # 3 for O  read from file:
     /n/holyscratch01/hoffman_lab/ruizhe/YBCO_Project/pseudo/O.pbe-van_ak.UPF
     MD5 check sum: 783ce7fe4c79b6a4916957118fed0856
     Pseudo is Ultrasoft, Zval =  6.0
     Generated by new atomic code, or converted to UPF format
     Using radial grid of  737 points,  4 beta functions with:
                l(1) =   0
                l(2) =   0
                l(3) =   1
                l(4) =   1
     Q(r) pseudized with  8 coefficients,  rinner =    0.800   0.800   0.800

     PseudoPot. # 4 for Y  read from file:
     /n/holyscratch01/hoffman_lab/ruizhe/YBCO_Project/pseudo/Y.pbe-nsp-van.UPF
     MD5 check sum: 4412fed3ab108fed87a1b7d6a69a4a38
     Pseudo is Ultrasoft + core correction, Zval = 11.0
     Generated by new atomic code, or converted to UPF format
     Using radial grid of  885 points,  6 beta functions with:
                l(1) =   0
                l(2) =   0
                l(3) =   1
                l(4) =   1
                l(5) =   2
                l(6) =   2
     Q(r) pseudized with  6 coefficients,  rinner =    1.200   1.200   1.200
                                                       1.200   1.200

     atomic species   valence    mass     pseudopotential
        Ba            10.00   137.32700     Ba( 1.00)
        Cu            11.00    63.54600     Cu( 1.00)
        O              6.00    15.99900     O ( 1.00)
        Y             11.00    88.90584     Y ( 1.00)

      4 Sym. Ops. (no inversion) found

   Cartesian axes

     site n.     atom                  positions (alat units)
         1           O   tau(   1) = (   0.0000000   0.4877884  -0.0257983  )
         2           Cu  tau(   2) = (   0.0000000   0.0000000   0.0215779  )
         3           O   tau(   3) = (   0.0000000   0.0000000   0.5073114  )
         4           Ba  tau(   4) = (   0.4999996   0.4877884   0.5319677  )
         5           Cu  tau(   5) = (   0.0000000   0.0000000   1.0495845  )
         6           O   tau(   6) = (   0.4999996   0.0000000   1.1181579  )
         7           O   tau(   7) = (   0.0000000   0.4877884   1.1273137  )
         8           Y   tau(   8) = (   0.4999996   0.4877884   1.4938777  )
         9           O   tau(   9) = (   0.0000000   0.4877884   1.8497402  )
        10           O   tau(  10) = (   0.4999996   0.0000000   1.8692709  )
        11           Cu  tau(  11) = (   0.0000000   0.0000000   1.9417560  )
        12           Ba  tau(  12) = (   0.4999996   0.4877884   2.4526063  )
        13           O   tau(  13) = (   0.0000000   0.0000000   2.5103470  )
        14           O   tau(  14) = (   0.0000000   0.4877884   2.9968469  )
        15           Cu  tau(  15) = (   0.0000000   0.0000000   2.9968521  )
        16           O   tau(  16) = (   0.0000000   0.0000000   3.4833288  )
        17           Ba  tau(  17) = (   0.4999996   0.4877884   3.5410618  )
        18           Cu  tau(  18) = (   0.0000000   0.0000000   4.0519352  )
        19           O   tau(  19) = (   0.4999996   0.0000000   4.1244075  )
        20           O   tau(  20) = (   0.0000000   0.4877884   4.1439202  )
        21           Y   tau(  21) = (   0.4999996   0.4877884   4.4997853  )
        22           O   tau(  22) = (   0.0000000   0.4877884   4.9949420  )
        23           O   tau(  23) = (   0.4999996   0.0000000   5.0041107  )
        24           Cu  tau(  24) = (   0.0000000   0.0000000   5.0726892  )
        25           Ba  tau(  25) = (   0.4999996   0.4877884   5.5902906  )
        26           O   tau(  26) = (   0.0000000   0.0000000   5.6149469  )
        27           Cu  tau(  27) = (   0.0000000   0.0000000   6.1006521  )
        28           O   tau(  28) = (   0.0000000   0.4877884   6.1480334  )

     number of k points=    25  Gaussian smearing, width (Ry)=  0.0100
                       cart. coord. in units 2pi/alat
        k(    1) = (   0.0000000   0.0000000   0.0000000), wk =   0.0312500
        k(    2) = (   0.0000000   0.1281293   0.0000000), wk =   0.0625000
        k(    3) = (   0.0000000   0.2562585   0.0000000), wk =   0.0625000
        k(    4) = (   0.0000000   0.3843878   0.0000000), wk =   0.0625000
        k(    5) = (   0.0000000  -0.5125170   0.0000000), wk =   0.0312500
        k(    6) = (   0.1250000   0.0000000   0.0000000), wk =   0.0625000
        k(    7) = (   0.1250000   0.1281293   0.0000000), wk =   0.1250000
        k(    8) = (   0.1250000   0.2562585   0.0000000), wk =   0.1250000
        k(    9) = (   0.1250000   0.3843878   0.0000000), wk =   0.1250000
        k(   10) = (   0.1250000  -0.5125170   0.0000000), wk =   0.0625000
        k(   11) = (   0.2500000   0.0000000   0.0000000), wk =   0.0625000
        k(   12) = (   0.2500000   0.1281293   0.0000000), wk =   0.1250000
        k(   13) = (   0.2500000   0.2562585   0.0000000), wk =   0.1250000
        k(   14) = (   0.2500000   0.3843878   0.0000000), wk =   0.1250000
        k(   15) = (   0.2500000  -0.5125170   0.0000000), wk =   0.0625000
        k(   16) = (   0.3750000   0.0000000   0.0000000), wk =   0.0625000
        k(   17) = (   0.3750000   0.1281293   0.0000000), wk =   0.1250000
        k(   18) = (   0.3750000   0.2562585   0.0000000), wk =   0.1250000
        k(   19) = (   0.3750000   0.3843878   0.0000000), wk =   0.1250000
        k(   20) = (   0.3750000  -0.5125170   0.0000000), wk =   0.0625000
        k(   21) = (  -0.5000000   0.0000000   0.0000000), wk =   0.0312500
        k(   22) = (  -0.5000000   0.1281293   0.0000000), wk =   0.0625000
        k(   23) = (  -0.5000000   0.2562585   0.0000000), wk =   0.0625000
        k(   24) = (  -0.5000000   0.3843878   0.0000000), wk =   0.0625000
        k(   25) = (  -0.5000000  -0.5125170   0.0000000), wk =   0.0312500

     Initial potential from superposition of free atoms

     starting charge  228.84827, renormalised to  229.00000

     negative rho (up, down):  8.989E-02 0.000E+00
     Starting wfcs are  201 randomized atomic wfcs

     Self-consistent Calculation

     iteration #  1     ecut=    60.00 Ry     beta= 0.20
     Davidson diagonalization with overlap
     ethr =  1.00E-02,  avg # of iterations =  2.0

     negative rho (up, down):  8.755E-02 0.000E+00

     total energy              =   -1869.53450401 Ry
     Harris-Foulkes estimate   =   -1871.06129868 Ry
     estimated scf accuracy    <      13.16264527 Ry

[...]

     iteration # 21     ecut=    60.00 Ry     beta= 0.20
     Davidson diagonalization with overlap
     c_bands:  1 eigenvalues not converged
     ethr =  2.33E-06,  avg # of iterations =  4.0

[...]

     iteration # 28     ecut=    60.00 Ry     beta= 0.20
     Davidson diagonalization with overlap
     c_bands:  1 eigenvalues not converged
     ethr =  2.25E-08,  avg # of iterations =  4.0

[...]

     total energy              =   -1868.78138878 Ry
     Harris-Foulkes estimate   =   -1868.78138871 Ry
     estimated scf accuracy    <       0.00000240 Ry

     iteration # 33     ecut=    60.00 Ry     beta= 0.20
     Davidson diagonalization with overlap
     ethr =  1.05E-09,  avg # of iterations =  1.0

[...]

     End of self-consistent calculation

          k = 0.0000 0.0000 0.0000 ( 34453 PWs)   bands (ev):

   -39.1101 -37.9030 -22.5630 -22.5458 -22.4103 -22.3837 -19.2461 -19.0453
   -19.0437 -18.4379 -17.9079 -17.8975 -15.2429 -15.2337 -14.5426 -14.3241
   -14.3078 -14.2692 -14.0474 -14.0273 -14.0193 -13.7574 -13.5456 -13.5307
   -13.3604 -13.2983 -13.1921  -7.8373  -7.7832  -7.6573  -7.5757  -7.5553
    -7.5286  -7.4937  -7.4766  -7.4195  -7.3902  -7.3348  -7.3190  -2.0571
    -2.0497  -1.8623  -1.8298  -1.7728  -1.6838  -1.6465  -1.6395  -1.6294
    -1.5761  -1.4969  -1.2166  -1.1476  -0.6646  -0.6600  -0.5462  -0.5302
    -0.3011  -0.2494  -0.2470  -0.2453  -0.1117   0.1143   0.1437   0.1677
     0.1802   0.2013   0.3455   0.3543   0.3659   0.3716   0.4246   0.4416
     0.4744   0.4988   0.4996   0.5075   0.5944   0.6097   0.6099   0.6195
     0.7337   0.7509   0.7516   0.7580   0.7587   0.7743   0.8749   0.8768
     0.8825   1.1504   1.2937   1.3302   1.3649   1.3968   1.4522   1.5092
     1.5284   1.5813   1.6077   1.6741   1.7125   1.7182   1.7808   1.9671
     2.0136   2.0432   2.0712   2.1568   2.1994   2.3739   2.3970   2.4602
     2.5093   2.5622   2.5761   2.6452   2.6458   2.8828   2.8879   5.0506
     5.4893   5.6221   5.9639   6.3000   6.8824   6.8960   7.1097   7.2342
     7.5341   7.5763   7.8640   8.2718   8.3923   8.3952   8.5588   8.6511
     8.8719   8.9287

[...]

          k = 0.3750-0.5125 0.0000 ( 34698 PWs)   bands (ev):

[...]

          k =-0.5000 0.0000 0.0000 ( 34574 PWs)   bands (ev):

[...]

          k =-0.5000-0.5125 0.0000 ( 34692 PWs)   bands (ev):

   -39.0879 -37.8752 -22.3209 -22.3102 -22.1666 -22.1485 -19.3867 -19.3564
   -18.9755 -18.4566 -18.4314 -17.9568 -14.4842 -14.4708 -14.2931 -14.2730
   -14.0393 -14.0111 -13.8121 -13.7985 -13.7715 -13.7179 -13.7111 -13.5940
   -13.4277 -13.4187 -13.4049  -8.5150  -8.4493  -8.3816  -8.2899  -8.2259
    -8.2216  -8.0966  -7.9212  -7.9161  -7.7609  -7.5865  -7.5476  -3.9901
    -3.9708  -3.3902  -3.2237  -2.9309  -2.5148  -2.5091  -2.3440  -2.2874
    -2.1347  -2.1231  -1.9978  -1.9668  -1.7120  -1.6316  -1.6240  -1.6106
    -1.5870  -1.0968  -0.8152  -0.7957  -0.7301  -0.7076  -0.6783  -0.6419
    -0.5382  -0.5279  -0.4781  -0.4410  -0.4169  -0.3658  -0.2928  -0.2852
    -0.0581   0.3489   0.3584   0.7071   0.8747   0.9363   1.2302   1.3301
     1.3903   1.6042   1.6264   1.6305   1.7064   1.7427   1.7437   1.7710
     1.7802   1.8433   1.8721   1.8812   1.9120   2.0109   2.0309   2.0653
     2.1567   2.2495   2.2512   2.2723   2.2775   2.3062   2.3663   2.4735
     2.5252   2.7732   2.7745   2.7788   2.8739   2.8820   2.8880   2.9788
     3.2110   3.2292   4.5084   4.8722   4.9869   5.0738   5.2043   5.4146
     5.8097   6.0185   6.0488   6.8579   8.0540   8.1278   8.2143   8.6307
     8.7785   8.8955   9.1960   9.3301   9.3492   9.4309   9.5878   9.6649
     9.6699   9.7512

     the Fermi energy is     3.1804 ev

!    total energy              =   -1868.78138813 Ry
     Harris-Foulkes estimate   =   -1868.78138885 Ry
     estimated scf accuracy    <       0.00000082 Ry

     The total energy is the sum of the following terms:

     one-electron contribution =  -32028.17467945 Ry
     hartree contribution      =   16169.55635600 Ry
     xc contribution           =    -642.17947439 Ry
     ewald contribution        =   14632.02493159 Ry
     smearing contrib. (-TS)   =      -0.00852188 Ry

     convergence has been achieved in  33 iterations

     negative rho (up, down):  9.059E-02 0.000E+00

     Forces acting on atoms (cartesian axes, Ry/au):

     atom    1 type  3   force =     0.00000000    0.00000000   -0.00009761
     atom    2 type  2   force =     0.00000000    0.00000000   -0.00019108
     atom    3 type  3   force =     0.00000000    0.00000000    0.00004429
     atom    4 type  1   force =     0.00000000    0.00000000   -0.00016714
     atom    5 type  2   force =     0.00000000    0.00000000    0.00080735
     atom    6 type  3   force =     0.00000000    0.00000000    0.00013364
     atom    7 type  3   force =     0.00000000    0.00000000    0.00013808
     atom    8 type  4   force =     0.00000000    0.00000000   -0.00038418
     atom    9 type  3   force =     0.00000000    0.00000000    0.00029316
     atom   10 type  3   force =     0.00000000    0.00000000    0.00038289
     atom   11 type  2   force =     0.00000000    0.00000000    0.00049462
     atom   12 type  1   force =     0.00000000    0.00000000   -0.00063705
     atom   13 type  3   force =     0.00000000    0.00000000    0.00103517
     atom   14 type  3   force =     0.00000000    0.00000000    0.00222684
     atom   15 type  2   force =     0.00000000    0.00000000   -0.00277889
     atom   16 type  3   force =     0.00000000    0.00000000    0.00477960
     atom   17 type  1   force =     0.00000000    0.00000000   -0.00874489
     atom   18 type  2   force =     0.00000000    0.00000000    0.00121751
     atom   19 type  3   force =     0.00000000    0.00000000    0.03824644
     atom   20 type  3   force =     0.00000000    0.00000000    0.04023412
     atom   21 type  4   force =     0.00000000    0.00000000    0.04481299
     atom   22 type  3   force =     0.00000000    0.00000000   -0.04464903
     atom   23 type  3   force =     0.00000000    0.00000000   -0.04313851
     atom   24 type  2   force =     0.00000000    0.00000000   -0.01509062
     atom   25 type  1   force =     0.00000000    0.00000000   -0.02013875
     atom   26 type  3   force =     0.00000000    0.00000000    0.00166243
     atom   27 type  2   force =     0.00000000    0.00000000   -0.00224276
     atom   28 type  3   force =     0.00000000    0.00000000    0.00175138

     Total force =     0.098513     Total SCF correction =     0.004922

     Computing stress (Cartesian axis) and pressure

     negative rho (up, down):  9.059E-02 0.000E+00
          total   stress  (Ry/bohr**3)                   (kbar)     P=      -11.11
  -0.00003126   0.00000000   0.00000000           -4.60        0.00        0.00
   0.00000000  -0.00002607   0.00000000            0.00       -3.83        0.00
   0.00000000   0.00000000  -0.00016925            0.00        0.00      -24.90

     General routines

     Parallel routines

   This run was terminated on:  17:34: 1   5May2021

   JOB DONE.
[1620250441.321965] [holy7c04409:152253:0]          mpool.c:43   UCX  WARN  object 0x435a140 was not returned to mpool ucp_requests
[1620250441.323098] [holy7c04408:102534:0]          mpool.c:43   UCX  WARN  object 0x443da80 was not returned to mpool ucp_requests
[1620250441.323117] [holy7c04408:102534:0]          mpool.c:43   UCX  WARN  object 0x443dc40 was not returned to mpool ucp_requests
[1620250441.323380] [holy7c04404:123324:0]          mpool.c:43   UCX  WARN  object 0x2c83e40 was not returned to mpool ucp_requests
[1620250441.323397] [holy7c04404:123324:0]          mpool.c:43   UCX  WARN  object 0x2c841c0 was not returned to mpool ucp_requests
[1620250441.323779] [holy7c02601:69764:0]          mpool.c:43   UCX  WARN  object 0x3b94d40 was not returned to mpool ucp_requests
[1620250441.326732] [holy7c02502:118677:0]          mpool.c:43   UCX  WARN  object 0x45354c0 was not returned to mpool ucp_requests
[1620250441.322626] [holy7c04406:105976:0]          mpool.c:43   UCX  WARN  object 0x3912180 was not returned to mpool ucp_requests
[1620250441.341398] [holy7c04502:150765:0]          mpool.c:43   UCX  WARN  object 0x4685d40 was not returned to mpool ucp_requests
[1620250441.330032] [holy7c02601:69763:0]          mpool.c:43   UCX  WARN  object 0x3aae740 was not returned to mpool ucp_requests