     Program PWSCF v.6.5 starts on  5May2021 at 17:29:20

     R & G space division:  proc/nbgrp/npool/nimage =      20
     Reading input from YBCO_BaO_cleave_4.5_sep_scf.pwi
Warning: card &IONS ignored
Warning: card     ION_DYNAMICS = 'BFGS' ignored
Warning: card / ignored
Warning: card &CELL ignored
Warning: card     CELL_DYNAMICS = 'BFGS' ignored
Warning: card / ignored

     Current dimensions of program PWSCF are:
     Max number of different atomic species (ntypx) = 10
     Max number of k-points (npk) =  40000
     Max angular momentum in pseudopotentials (lmaxx) =  3

     Message from routine setup:
     using ibrav=0 with symmetry is DISCOURAGED, use correct ibrav instead

     bravais-lattice index     =            0
     lattice parameter (alat)  =       7.3477  a.u.
     unit-cell volume          =    4804.6619 (a.u.)^3
     number of atoms/cell      =           28
     number of atomic types    =            4
     number of electrons       =       229.00
     number of Kohn-Sham states=          138
     kinetic-energy cutoff     =      60.0000  Ry
     charge density cutoff     =     720.0000  Ry
     convergence threshold     =      1.0E-06
     mixing beta               =       0.2000
     number of iterations used =           10  local-TF  mixing
     Exchange-correlation= SLA PW PBE PBE
                           (   1   4   3   4   0   0   0)

     celldm(1)=   7.347715  celldm(2)=   0.000000  celldm(3)=   0.000000
     celldm(4)=   0.000000  celldm(5)=   0.000000  celldm(6)=   0.000000

     crystal axes: (cart. coord. in units of alat)
               a(1) = (   1.000000   0.000000   0.000000 )
               a(2) = (   0.000000   0.975577   0.000000 )
               a(3) = (   0.000000   0.000000  12.414928 )

     reciprocal axes: (cart. coord. in units 2 pi/alat)
               b(1) = (  1.000000  0.000000  0.000000 )
               b(2) = (  0.000000  1.025034  0.000000 )
               b(3) = (  0.000000  0.000000  0.080548 )

     PseudoPot. # 1 for Ba read from file:
     /n/holyscratch01/hoffman_lab/ruizhe/YBCO_Project/pseudo/Ba.pbe-nsp-van.UPF
     MD5 check sum: 2b9c31dd849566dd297d80989662b7a0
     Pseudo is Ultrasoft + core correction, Zval = 10.0
     Generated by new atomic code, or converted to UPF format
     Using radial grid of  907 points,  6 beta functions with:
                l(1) =   0
                l(2) =   0
                l(3) =   1
                l(4) =   1
                l(5) =   2
                l(6) =   2
     Q(r) pseudized with  6 coefficients,  rinner =    1.200   1.200   1.200
                                                       1.200   1.200

     PseudoPot. # 2 for Cu read from file:
     /n/holyscratch01/hoffman_lab/ruizhe/YBCO_Project/pseudo/Cu.pbe-n-van_ak.UPF
     MD5 check sum: 34e3282627ffb533726feb647e090d62
     Pseudo is Ultrasoft + core correction, Zval = 11.0
     Generated by new atomic code, or converted to UPF format
     Using radial grid of  867 points,  6 beta functions with:
                l(1) =   0
                l(2) =   0
                l(3) =   1
                l(4) =   1
                l(5) =   2
                l(6) =   2
     Q(r) pseudized with  8 coefficients,  rinner =    1.400   1.400   1.400
                                                       1.400   1.400

     PseudoPot. # 3 for O  read from file:
     /n/holyscratch01/hoffman_lab/ruizhe/YBCO_Project/pseudo/O.pbe-van_ak.UPF
     MD5 check sum: 783ce7fe4c79b6a4916957118fed0856
     Pseudo is Ultrasoft, Zval =  6.0
     Generated by new atomic code, or converted to UPF format
     Using radial grid of  737 points,  4 beta functions with:
                l(1) =   0
                l(2) =   0
                l(3) =   1
                l(4) =   1
     Q(r) pseudized with  8 coefficients,  rinner =    0.800   0.800   0.800

     PseudoPot. # 4 for Y  read from file:
     /n/holyscratch01/hoffman_lab/ruizhe/YBCO_Project/pseudo/Y.pbe-nsp-van.UPF
     MD5 check sum: 4412fed3ab108fed87a1b7d6a69a4a38
     Pseudo is Ultrasoft + core correction, Zval = 11.0
     Generated by new atomic code, or converted to UPF format
     Using radial grid of  885 points,  6 beta functions with:
                l(1) =   0
                l(2) =   0
                l(3) =   1
                l(4) =   1
                l(5) =   2
                l(6) =   2
     Q(r) pseudized with  6 coefficients,  rinner =    1.200   1.200   1.200
                                                       1.200   1.200

     atomic species   valence    mass     pseudopotential
        Ba            10.00   137.32700     Ba( 1.00)
        Cu            11.00    63.54600     Cu( 1.00)
        O              6.00    15.99900     O ( 1.00)
        Y             11.00    88.90584     Y ( 1.00)

      4 Sym. Ops. (no inversion) found

   Cartesian axes

     site n.     atom                  positions (alat units)
         1           O   tau(   1) = (   0.0000000   0.4877884  -0.0257983  )
         2           Cu  tau(   2) = (   0.0000000   0.0000000   0.0215779  )
         3           O   tau(   3) = (   0.0000000   0.0000000   0.5073114  )
         4           Ba  tau(   4) = (   0.4999996   0.4877884   0.5319677  )
         5           Cu  tau(   5) = (   0.0000000   0.0000000   1.0495845  )
         6           O   tau(   6) = (   0.4999996   0.0000000   1.1181579  )
         7           O   tau(   7) = (   0.0000000   0.4877884   1.1273137  )
         8           Y   tau(   8) = (   0.4999996   0.4877884   1.4938777  )
         9           O   tau(   9) = (   0.0000000   0.4877884   1.8497402  )
        10           O   tau(  10) = (   0.4999996   0.0000000   1.8692709  )
        11           Cu  tau(  11) = (   0.0000000   0.0000000   1.9417560  )
        12           Ba  tau(  12) = (   0.4999996   0.4877884   2.4526063  )
        13           O   tau(  13) = (   0.0000000   0.0000000   2.5103470  )
        14           O   tau(  14) = (   0.0000000   0.4877884   2.9968469  )
        15           Cu  tau(  15) = (   0.0000000   0.0000000   2.9968521  )
        16           O   tau(  16) = (   0.0000000   0.0000000   3.4833288  )
        17           Ba  tau(  17) = (   0.4999996   0.4877884   3.5410618  )
        18           Cu  tau(  18) = (   0.0000000   0.0000000   5.2092702  )
        19           O   tau(  19) = (   0.4999996   0.0000000   5.2817425  )
        20           O   tau(  20) = (   0.0000000   0.4877884   5.3012552  )
        21           Y   tau(  21) = (   0.4999996   0.4877884   5.6571202  )
        22           O   tau(  22) = (   0.0000000   0.4877884   6.0236842  )
        23           O   tau(  23) = (   0.4999996   0.0000000   6.0328529  )
        24           Cu  tau(  24) = (   0.0000000   0.0000000   6.1014314  )
        25           Ba  tau(  25) = (   0.4999996   0.4877884   6.6190328  )
        26           O   tau(  26) = (   0.0000000   0.0000000   6.6436891  )
        27           Cu  tau(  27) = (   0.0000000   0.0000000   7.1293943  )
        28           O   tau(  28) = (   0.0000000   0.4877884   7.1767756  )

     number of k points=    25  Gaussian smearing, width (Ry)=  0.0100
                       cart. coord. in units 2pi/alat
        k(    1) = (   0.0000000   0.0000000   0.0000000), wk =   0.0312500
        k(    2) = (   0.0000000   0.1281293   0.0000000), wk =   0.0625000
        k(    3) = (   0.0000000   0.2562585   0.0000000), wk =   0.0625000
        k(    4) = (   0.0000000   0.3843878   0.0000000), wk =   0.0625000
        k(    5) = (   0.0000000  -0.5125170   0.0000000), wk =   0.0312500
        k(    6) = (   0.1250000   0.0000000   0.0000000), wk =   0.0625000
        k(    7) = (   0.1250000   0.1281293   0.0000000), wk =   0.1250000
        k(    8) = (   0.1250000   0.2562585   0.0000000), wk =   0.1250000
        k(    9) = (   0.1250000   0.3843878   0.0000000), wk =   0.1250000
        k(   10) = (   0.1250000  -0.5125170   0.0000000), wk =   0.0625000
        k(   11) = (   0.2500000   0.0000000   0.0000000), wk =   0.0625000
        k(   12) = (   0.2500000   0.1281293   0.0000000), wk =   0.1250000
        k(   13) = (   0.2500000   0.2562585   0.0000000), wk =   0.1250000
        k(   14) = (   0.2500000   0.3843878   0.0000000), wk =   0.1250000
        k(   15) = (   0.2500000  -0.5125170   0.0000000), wk =   0.0625000
        k(   16) = (   0.3750000   0.0000000   0.0000000), wk =   0.0625000
        k(   17) = (   0.3750000   0.1281293   0.0000000), wk =   0.1250000
        k(   18) = (   0.3750000   0.2562585   0.0000000), wk =   0.1250000
        k(   19) = (   0.3750000   0.3843878   0.0000000), wk =   0.1250000
        k(   20) = (   0.3750000  -0.5125170   0.0000000), wk =   0.0625000
        k(   21) = (  -0.5000000   0.0000000   0.0000000), wk =   0.0312500
        k(   22) = (  -0.5000000   0.1281293   0.0000000), wk =   0.0625000
        k(   23) = (  -0.5000000   0.2562585   0.0000000), wk =   0.0625000
        k(   24) = (  -0.5000000   0.3843878   0.0000000), wk =   0.0625000
        k(   25) = (  -0.5000000  -0.5125170   0.0000000), wk =   0.0312500

     Initial potential from superposition of free atoms

     starting charge  228.84827, renormalised to  229.00000

     negative rho (up, down):  8.956E-02 0.000E+00
     Starting wfcs are  201 randomized atomic wfcs

     Self-consistent Calculation

     iteration #  1     ecut=    60.00 Ry     beta= 0.20
     Davidson diagonalization with overlap
     ethr =  1.00E-02,  avg # of iterations =  2.0

     negative rho (up, down):  8.743E-02 0.000E+00

     total energy              =   -1869.58370554 Ry
     Harris-Foulkes estimate   =   -1871.19851093 Ry
     estimated scf accuracy    <      15.68119038 Ry

[...]

     iteration # 17     ecut=    60.00 Ry     beta= 0.20
     Davidson diagonalization with overlap
     c_bands:  1 eigenvalues not converged
     ethr =  4.35E-06,  avg # of iterations =  6.4

[...]

     iteration # 18     ecut=    60.00 Ry     beta= 0.20
     Davidson diagonalization with overlap
     c_bands:  1 eigenvalues not converged
     ethr =  3.62E-06,  avg # of iterations =  2.9

[...]

     total energy              =   -1868.77152962 Ry
     Harris-Foulkes estimate   =   -1868.77152996 Ry
     estimated scf accuracy    <       0.00000199 Ry

     iteration # 37     ecut=    60.00 Ry     beta= 0.20
     Davidson diagonalization with overlap
     ethr =  8.68E-10,  avg # of iterations =  1.6

[...]

     End of self-consistent calculation

          k = 0.0000 0.0000 0.0000 ( 37611 PWs)   bands (ev):

   -38.4509 -38.1034 -24.3632 -23.1045 -23.0759 -23.0086 -18.9859 -18.6090
   -18.4552 -18.4459 -18.1266 -18.1095 -15.7812 -15.4983 -15.0769 -14.8219
   -14.6022 -14.5888 -14.5665 -14.4013 -14.3878 -14.3053 -14.0868 -14.0824
   -14.0178 -13.8301 -13.8283  -9.6751  -9.1943  -9.1717  -8.3290  -8.2909
    -8.2836  -8.0968  -8.0704  -8.0701  -8.0426  -7.9621  -7.9392  -2.4098
    -2.3756  -2.2430  -2.1978  -2.1902  -2.1885  -2.1868  -2.1458  -2.1199
    -2.0449  -2.0149  -1.7979  -1.6667  -1.2809  -1.2117  -0.9205  -0.8818
    -0.8315  -0.7948  -0.7864  -0.7510  -0.4379  -0.3977  -0.3957  -0.3611
    -0.3586  -0.2596  -0.2346  -0.1987  -0.1953  -0.1810  -0.0976  -0.0443
    -0.0386  -0.0297   0.0189   0.0441   0.0537   0.0686   0.0807   0.1121
     0.1712   0.2049   0.2083   0.2168   0.2309   0.3319   0.3337   0.4849
     0.5334   0.6112   0.7295   0.7486   0.9014   0.9054   0.9330   1.0257
     1.0347   1.0572   1.0705   1.0716   1.1494   1.1751   1.1997   1.2345
     1.4248   1.4663   1.5937   1.6283   1.6571   1.7060   1.7375   1.8556
     1.8808   1.8820   2.0003   2.0202   2.0580   2.3395   2.3411   3.9431
     4.9125   4.9569   5.0181   5.4779   5.5690   6.0620   6.3521   6.3898
     6.6657   7.0156   7.3432   7.3985   7.6510   7.8452   7.8480   8.0348
     8.1467   8.2730

[...]

          k = 0.3750-0.5125 0.0000 ( 37814 PWs)   bands (ev):

[...]

          k =-0.5000 0.0000 0.0000 ( 37718 PWs)   bands (ev):

[...]

          k =-0.5000-0.5125 0.0000 ( 37836 PWs)   bands (ev):

   -38.4230 -38.0753 -24.1578 -22.8624 -22.8336 -22.7731 -19.0052 -18.9783
   -18.6724 -18.6571 -18.5048 -18.1177 -14.8369 -14.8240 -14.6151 -14.5808
   -14.5753 -14.5733 -14.5576 -14.3216 -14.2915 -14.2691 -14.0352 -13.9763
   -13.9685 -13.9188 -13.7712 -10.1568  -9.8098  -9.5948  -9.0564  -9.0287
    -8.9088  -8.7674  -8.7415  -8.6061  -8.3099  -8.2734  -8.2690  -4.5206
    -4.3294  -3.9387  -3.5704  -3.5477  -3.0618  -3.0559  -2.8500  -2.6648
    -2.6265  -2.6237  -2.5419  -2.3174  -2.1735  -2.1695  -2.1517  -2.1458
    -1.8349  -1.7235  -1.3881  -1.3562  -1.2771  -1.2543  -1.1448  -1.0708
    -1.0502  -0.9946  -0.9126  -0.8385  -0.8338  -0.7044  -0.6234  -0.6174
    -0.6016  -0.1956  -0.1924   0.0922   0.2705   0.3663   0.5684   0.7496
     0.9850   1.0543   1.0788   1.1807   1.2138   1.2378   1.2554   1.2634
     1.2793   1.2961   1.3967   1.4272   1.4446   1.5136   1.5377   1.6760
     1.7023   1.7119   1.7229   1.7298   1.7564   1.7578   1.7940   1.8013
     1.8163   2.0677   2.1574   2.1608   2.2281   2.2333   2.3364   2.3410
     2.6687   2.6781   4.0380   4.2852   4.4444   4.5318   4.5363   4.6742
     5.4775   5.4890   6.1515   6.3056   6.5085   6.6494   7.4321   8.0327
     8.0822   8.3980   8.5608   8.6576   8.7122   8.8428   8.8609   8.9136
     9.1668   9.1895

     the Fermi energy is     2.6390 ev

!    total energy              =   -1868.77152935 Ry
     Harris-Foulkes estimate   =   -1868.77152971 Ry
     estimated scf accuracy    <       0.00000074 Ry

     The total energy is the sum of the following terms:

     one-electron contribution =  -25426.20672965 Ry
     hartree contribution      =   12864.30313303 Ry
     xc contribution           =    -642.20582895 Ry
     ewald contribution        =   11335.34640969 Ry
     smearing contrib. (-TS)   =      -0.00851348 Ry

     convergence has been achieved in  37 iterations

     negative rho (up, down):  9.057E-02 0.000E+00

     Forces acting on atoms (cartesian axes, Ry/au):

     atom    1 type  3   force =     0.00000000    0.00000000   -0.00017116
     atom    2 type  2   force =     0.00000000    0.00000000    0.00050504
     atom    3 type  3   force =     0.00000000    0.00000000   -0.00013000
     atom    4 type  1   force =     0.00000000    0.00000000   -0.00018254
     atom    5 type  2   force =     0.00000000    0.00000000   -0.00062947
     atom    6 type  3   force =     0.00000000    0.00000000    0.00039321
     atom    7 type  3   force =     0.00000000    0.00000000   -0.00004584
     atom    8 type  4   force =     0.00000000    0.00000000   -0.00091545
     atom    9 type  3   force =     0.00000000    0.00000000    0.00119205
     atom   10 type  3   force =     0.00000000    0.00000000    0.00154791
     atom   11 type  2   force =     0.00000000    0.00000000   -0.00095259
     atom   12 type  1   force =     0.00000000    0.00000000   -0.00524063
     atom   13 type  3   force =     0.00000000    0.00000000    0.00298322
     atom   14 type  3   force =     0.00000000    0.00000000    0.01649693
     atom   15 type  2   force =     0.00000000    0.00000000   -0.01460010
     atom   16 type  3   force =     0.00000000    0.00000000    0.03929873
     atom   17 type  1   force =     0.00000000    0.00000000   -0.03747318
     atom   18 type  2   force =     0.00000000    0.00000000    0.00299940
     atom   19 type  3   force =     0.00000000    0.00000000    0.01764156
     atom   20 type  3   force =     0.00000000    0.00000000    0.00920361
     atom   21 type  4   force =     0.00000000    0.00000000   -0.04191306
     atom   22 type  3   force =     0.00000000    0.00000000    0.00388487
     atom   23 type  3   force =     0.00000000    0.00000000    0.00655666
     atom   24 type  2   force =     0.00000000    0.00000000    0.00214700
     atom   25 type  1   force =     0.00000000    0.00000000   -0.00180971
     atom   26 type  3   force =     0.00000000    0.00000000    0.00128068
     atom   27 type  2   force =     0.00000000    0.00000000   -0.00248081
     atom   28 type  3   force =     0.00000000    0.00000000    0.00041369

     Total force =     0.075580     Total SCF correction =     0.003907

     Computing stress (Cartesian axis) and pressure

     negative rho (up, down):  9.057E-02 0.000E+00
          total   stress  (Ry/bohr**3)                   (kbar)     P=       -5.25
  -0.00006974   0.00000000   0.00000000          -10.26        0.00        0.00
   0.00000000  -0.00002805   0.00000000            0.00       -4.13        0.00
   0.00000000   0.00000000  -0.00000928            0.00        0.00       -1.37

     General routines

     Parallel routines

   This run was terminated on:  17:43: 9   5May2021

   JOB DONE.
[1620250989.157766] [holy7c08207:231519:0]          mpool.c:43   UCX  WARN  object 0x3dd9600 was not returned to mpool ucp_requests
[1620250989.159723] [holy7c06502:54407:0]          mpool.c:43   UCX  WARN  object 0x2d00bc0 was not returned to mpool ucp_requests
[1620250989.159742] [holy7c06502:54407:0]          mpool.c:43   UCX  WARN  object 0x2d00d80 was not returned to mpool ucp_requests
[1620250989.159863] [holy7c08205:56066:0]          mpool.c:43   UCX  WARN  object 0x295f780 was not returned to mpool ucp_requests
[1620250989.159882] [holy7c08205:56066:0]          mpool.c:43   UCX  WARN  object 0x295fb00 was not returned to mpool ucp_requests
[1620250989.161674] [holy7c06602:241972:0]          mpool.c:43   UCX  WARN  object 0x2c1e000 was not returned to mpool ucp_requests
[1620250989.158636] [holy7c08207:231518:0]          mpool.c:43   UCX  WARN  object 0x3e85ac0 was not returned to mpool ucp_requests
[1620250989.171636] [holy7c06607:175584:0]          mpool.c:43   UCX  WARN  object 0x4184300 was not returned to mpool ucp_requests
[1620250989.171662] [holy7c06607:175584:0]          mpool.c:43   UCX  WARN  object 0x4184bc0 was not returned to mpool ucp_requests