     Program PWSCF v.6.5 starts on  5May2021 at 17:59:33

     R & G space division:  proc/nbgrp/npool/nimage =      20
     Reading input from YBCO_CuO_cleave_3.5_sep_scf.pwi
Warning: card &IONS ignored
Warning: card     ION_DYNAMICS = 'BFGS' ignored
Warning: card / ignored
Warning: card &CELL ignored
Warning: card     CELL_DYNAMICS = 'BFGS' ignored
Warning: card / ignored

     Current dimensions of program PWSCF are:
     Max number of different atomic species (ntypx) = 10
     Max number of k-points (npk) =  40000
     Max angular momentum in pseudopotentials (lmaxx) =  3

     Message from routine setup:
     using ibrav=0 with symmetry is DISCOURAGED, use correct ibrav instead

     bravais-lattice index     =            0
     lattice parameter (alat)  =       7.3477  a.u.
     unit-cell volume          =    4705.1293 (a.u.)^3
     number of atoms/cell      =           28
     number of atomic types    =            4
     number of electrons       =       229.00
     number of Kohn-Sham states=          138
     kinetic-energy cutoff     =      60.0000  Ry
     charge density cutoff     =     720.0000  Ry
     convergence threshold     =      1.0E-06
     mixing beta               =       0.2000
     number of iterations used =           10  local-TF  mixing
     Exchange-correlation= SLA PW PBE PBE
                           (   1   4   3   4   0   0   0)

     celldm(1)=   7.347715  celldm(2)=   0.000000  celldm(3)=   0.000000
     celldm(4)=   0.000000  celldm(5)=   0.000000  celldm(6)=   0.000000

     crystal axes: (cart. coord. in units of alat)
               a(1) = (   1.000000   0.000000   0.000000 )
               a(2) = (   0.000000   0.975577   0.000000 )
               a(3) = (   0.000000   0.000000  12.157743 )

     reciprocal axes: (cart. coord. in units 2 pi/alat)
               b(1) = (  1.000000  0.000000  0.000000 )
               b(2) = (  0.000000  1.025034  0.000000 )
               b(3) = (  0.000000  0.000000  0.082252 )

     PseudoPot. # 1 for Ba read from file:
     /n/holyscratch01/hoffman_lab/ruizhe/YBCO_Project/pseudo/Ba.pbe-nsp-van.UPF
     MD5 check sum: 2b9c31dd849566dd297d80989662b7a0
     Pseudo is Ultrasoft + core correction, Zval = 10.0
     Generated by new atomic code, or converted to UPF format
     Using radial grid of  907 points,  6 beta functions with:
                l(1) =   0
                l(2) =   0
                l(3) =   1
                l(4) =   1
                l(5) =   2
                l(6) =   2
     Q(r) pseudized with  6 coefficients,  rinner =    1.200   1.200   1.200
                                                       1.200   1.200

     PseudoPot. # 2 for Cu read from file:
     /n/holyscratch01/hoffman_lab/ruizhe/YBCO_Project/pseudo/Cu.pbe-n-van_ak.UPF
     MD5 check sum: 34e3282627ffb533726feb647e090d62
     Pseudo is Ultrasoft + core correction, Zval = 11.0
     Generated by new atomic code, or converted to UPF format
     Using radial grid of  867 points,  6 beta functions with:
                l(1) =   0
                l(2) =   0
                l(3) =   1
                l(4) =   1
                l(5) =   2
                l(6) =   2
     Q(r) pseudized with  8 coefficients,  rinner =    1.400   1.400   1.400
                                                       1.400   1.400

     PseudoPot. # 3 for O  read from file:
     /n/holyscratch01/hoffman_lab/ruizhe/YBCO_Project/pseudo/O.pbe-van_ak.UPF
     MD5 check sum: 783ce7fe4c79b6a4916957118fed0856
     Pseudo is Ultrasoft, Zval =  6.0
     Generated by new atomic code, or converted to UPF format
     Using radial grid of  737 points,  4 beta functions with:
                l(1) =   0
                l(2) =   0
                l(3) =   1
                l(4) =   1
     Q(r) pseudized with  8 coefficients,  rinner =    0.800   0.800   0.800

     PseudoPot. # 4 for Y  read from file:
     /n/holyscratch01/hoffman_lab/ruizhe/YBCO_Project/pseudo/Y.pbe-nsp-van.UPF
     MD5 check sum: 4412fed3ab108fed87a1b7d6a69a4a38
     Pseudo is Ultrasoft + core correction, Zval = 11.0
     Generated by new atomic code, or converted to UPF format
     Using radial grid of  885 points,  6 beta functions with:
                l(1) =   0
                l(2) =   0
                l(3) =   1
                l(4) =   1
                l(5) =   2
                l(6) =   2
     Q(r) pseudized with  6 coefficients,  rinner =    1.200   1.200   1.200
                                                       1.200   1.200

     atomic species   valence    mass     pseudopotential
        Ba            10.00   137.32700     Ba( 1.00)
        Cu            11.00    63.54600     Cu( 1.00)
        O              6.00    15.99900     O ( 1.00)
        Y             11.00    88.90584     Y ( 1.00)

      4 Sym. Ops. (no inversion) found

   Cartesian axes

     site n.     atom                  positions (alat units)
         1           O   tau(   1) = (   0.0000000   0.4877884  -0.0257983  )
         2           Cu  tau(   2) = (   0.0000000   0.0000000   0.0215779  )
         3           O   tau(   3) = (   0.0000000   0.0000000   0.5073114  )
         4           Ba  tau(   4) = (   0.4999996   0.4877884   0.5319677  )
         5           Cu  tau(   5) = (   0.0000000   0.0000000   1.0495845  )
         6           O   tau(   6) = (   0.4999996   0.0000000   1.1181579  )
         7           O   tau(   7) = (   0.0000000   0.4877884   1.1273137  )
         8           Y   tau(   8) = (   0.4999996   0.4877884   1.4938777  )
         9           O   tau(   9) = (   0.0000000   0.4877884   1.8497402  )
        10           O   tau(  10) = (   0.4999996   0.0000000   1.8692709  )
        11           Cu  tau(  11) = (   0.0000000   0.0000000   1.9417560  )
        12           Ba  tau(  12) = (   0.4999996   0.4877884   2.4526063  )
        13           O   tau(  13) = (   0.0000000   0.0000000   2.5103470  )
        14           O   tau(  14) = (   0.0000000   0.4877884   2.9968469  )
        15           Cu  tau(  15) = (   0.0000000   0.0000000   2.9968521  )
        16           O   tau(  16) = (   0.0000000   0.0000000   4.3834782  )
        17           Ba  tau(  17) = (   0.4999996   0.4877884   4.4412112  )
        18           Cu  tau(  18) = (   0.0000000   0.0000000   4.9520846  )
        19           O   tau(  19) = (   0.4999996   0.0000000   5.0245569  )
        20           O   tau(  20) = (   0.0000000   0.4877884   5.0440696  )
        21           Y   tau(  21) = (   0.4999996   0.4877884   5.3999347  )
        22           O   tau(  22) = (   0.0000000   0.4877884   5.7664987  )
        23           O   tau(  23) = (   0.4999996   0.0000000   5.7756673  )
        24           Cu  tau(  24) = (   0.0000000   0.0000000   5.8442459  )
        25           Ba  tau(  25) = (   0.4999996   0.4877884   6.3618472  )
        26           O   tau(  26) = (   0.0000000   0.0000000   6.3865036  )
        27           Cu  tau(  27) = (   0.0000000   0.0000000   6.8722088  )
        28           O   tau(  28) = (   0.0000000   0.4877884   6.9195901  )

     number of k points=    25  Gaussian smearing, width (Ry)=  0.0100
                       cart. coord. in units 2pi/alat
        k(    1) = (   0.0000000   0.0000000   0.0000000), wk =   0.0312500
        k(    2) = (   0.0000000   0.1281293   0.0000000), wk =   0.0625000
        k(    3) = (   0.0000000   0.2562585   0.0000000), wk =   0.0625000
        k(    4) = (   0.0000000   0.3843878   0.0000000), wk =   0.0625000
        k(    5) = (   0.0000000  -0.5125170   0.0000000), wk =   0.0312500
        k(    6) = (   0.1250000   0.0000000   0.0000000), wk =   0.0625000
        k(    7) = (   0.1250000   0.1281293   0.0000000), wk =   0.1250000
        k(    8) = (   0.1250000   0.2562585   0.0000000), wk =   0.1250000
        k(    9) = (   0.1250000   0.3843878   0.0000000), wk =   0.1250000
        k(   10) = (   0.1250000  -0.5125170   0.0000000), wk =   0.0625000
        k(   11) = (   0.2500000   0.0000000   0.0000000), wk =   0.0625000
        k(   12) = (   0.2500000   0.1281293   0.0000000), wk =   0.1250000
        k(   13) = (   0.2500000   0.2562585   0.0000000), wk =   0.1250000
        k(   14) = (   0.2500000   0.3843878   0.0000000), wk =   0.1250000
        k(   15) = (   0.2500000  -0.5125170   0.0000000), wk =   0.0625000
        k(   16) = (   0.3750000   0.0000000   0.0000000), wk =   0.0625000
        k(   17) = (   0.3750000   0.1281293   0.0000000), wk =   0.1250000
        k(   18) = (   0.3750000   0.2562585   0.0000000), wk =   0.1250000
        k(   19) = (   0.3750000   0.3843878   0.0000000), wk =   0.1250000
        k(   20) = (   0.3750000  -0.5125170   0.0000000), wk =   0.0625000
        k(   21) = (  -0.5000000   0.0000000   0.0000000), wk =   0.0312500
        k(   22) = (  -0.5000000   0.1281293   0.0000000), wk =   0.0625000
        k(   23) = (  -0.5000000   0.2562585   0.0000000), wk =   0.0625000
        k(   24) = (  -0.5000000   0.3843878   0.0000000), wk =   0.0625000
        k(   25) = (  -0.5000000  -0.5125170   0.0000000), wk =   0.0312500

     Initial potential from superposition of free atoms

     starting charge  228.84827, renormalised to  229.00000

     negative rho (up, down):  8.944E-02 0.000E+00
     Starting wfcs are  201 randomized atomic wfcs

     Self-consistent Calculation

     iteration #  1     ecut=    60.00 Ry     beta= 0.20
     Davidson diagonalization with overlap
     ethr =  1.00E-02,  avg # of iterations =  2.0

     negative rho (up, down):  8.729E-02 0.000E+00

     total energy              =   -1869.51647437 Ry
     Harris-Foulkes estimate   =   -1871.09726889 Ry
     estimated scf accuracy    <      13.38988103 Ry

[...]

     iteration # 23     ecut=    60.00 Ry     beta= 0.20
     Davidson diagonalization with overlap
     c_bands:  1 eigenvalues not converged
     c_bands:  1 eigenvalues not converged
     ethr =  1.26E-06,  avg # of iterations =  6.2

[...]

     iteration # 30     ecut=    60.00 Ry     beta= 0.20
     Davidson diagonalization with overlap
     c_bands:  1 eigenvalues not converged
     ethr =  1.75E-08,  avg # of iterations =  5.0

[...]

     total energy              =   -1868.72319854 Ry
     Harris-Foulkes estimate   =   -1868.72319831 Ry
     estimated scf accuracy    <       0.00000136 Ry

     iteration # 34     ecut=    60.00 Ry     beta= 0.20
     Davidson diagonalization with overlap
     ethr =  5.92E-10,  avg # of iterations =  2.0

[...]

     End of self-consistent calculation

          k = 0.0000 0.0000 0.0000 ( 36815 PWs)   bands (ev):

   -38.5041 -38.4274 -23.1331 -23.1208 -23.0103 -22.9747 -19.0370 -18.9692
   -18.5095 -18.5007 -18.4336 -18.4205 -15.8280 -15.7778 -14.8702 -14.8164
   -14.6172 -14.6134 -14.6071 -14.5633 -14.5222 -14.3521 -14.2982 -14.1144
   -14.1019 -13.8608 -12.5713  -8.3806  -8.3537  -8.3328  -8.1892  -8.1253
    -8.1136  -8.0984  -8.0869  -7.9481  -7.9248  -7.8842  -7.8024  -2.4595
    -2.4292  -2.4075  -2.3798  -2.2890  -2.2337  -2.2151  -2.2059  -2.1722
    -2.1328  -2.0959  -2.0417  -1.9204  -1.2648  -1.2026  -0.8127  -0.7959
    -0.7517  -0.4817  -0.4251  -0.4237  -0.4146  -0.3864  -0.3796  -0.2251
    -0.2232  -0.1922  -0.1714  -0.1555  -0.1493  -0.0928  -0.0888  -0.0625
    -0.0530   0.0377   0.0414   0.0527   0.0547   0.0771   0.1382   0.1537
     0.1919   0.1944   0.2057   0.2161   0.2654   0.3058   0.3104   0.3274
     0.5931   0.7504   0.7945   0.8539   0.8599   0.9016   0.9319   0.9705
     1.0089   1.0092   1.0262   1.1120   1.1174   1.1323   1.1433   1.1464
     1.1885   1.5675   1.6087   1.6297   1.6374   1.7197   1.8293   1.8363
     1.9168   2.1327   2.2744   2.3203   2.3601   2.4027   2.4345   4.7772
     4.9397   4.9685   5.5073   5.5886   6.2513   6.3201   6.3553   6.5519
     6.7589   7.0551   7.3303   7.7898   7.8157   7.8635   8.0068   8.2303
     8.2991   8.3537

[...]

          k = 0.3750-0.5125 0.0000 ( 37046 PWs)   bands (ev):

[...]

          k =-0.5000 0.0000 0.0000 ( 36894 PWs)   bands (ev):

[...]

          k =-0.5000-0.5125 0.0000 ( 37044 PWs)   bands (ev):

   -38.4762 -38.3995 -22.8911 -22.8786 -22.8003 -22.7363 -19.0600 -19.0324
   -18.9814 -18.9610 -18.5563 -18.4853 -14.8822 -14.8725 -14.8461 -14.8072
   -14.6051 -14.6043 -14.3704 -14.3273 -14.3174 -14.3012 -14.2473 -13.9982
   -13.9796 -13.9247 -12.6856  -9.0848  -9.0733  -8.8988  -8.7959  -8.7840
    -8.7091  -8.6006  -8.5972  -8.3327  -8.3229  -8.2754  -8.1925  -4.5725
    -4.5093  -3.9888  -3.9092  -3.0833  -3.0806  -3.0671  -2.8864  -2.8420
    -2.6964  -2.6843  -2.6078  -2.5625  -2.1977  -2.1960  -2.1761  -2.1284
    -1.8931  -1.4251  -1.3810  -1.3051  -1.2560  -1.1677  -1.0837  -1.0732
    -1.0626  -0.9641  -0.9403  -0.9357  -0.8606  -0.8459  -0.8111  -0.2170
    -0.2119  -0.2060  -0.1049   0.1168   0.4203   0.5513   0.8266   0.8925
     1.0319   1.0761   1.1241   1.1411   1.1568   1.1695   1.1792   1.1896
     1.2092   1.2875   1.3855   1.4155   1.4611   1.4752   1.5033   1.6606
     1.6836   1.6897   1.6962   1.7028   1.7080   1.8234   1.9088   2.0196
     2.2055   2.2242   2.3131   2.3288   2.3851   2.4221   2.6013   2.6131
     2.6142   2.7052   2.9310   4.3801   4.4075   4.4940   4.5071   5.4506
     5.4629   5.7089   6.2187   6.3350   7.7112   7.7425   8.0314   8.0437
     8.3616   8.5548   8.7884   8.8723   8.8989   8.9095   9.0598   9.1576
     9.1913   9.2137

     the Fermi energy is     2.6095 ev

!    total energy              =   -1868.72319855 Ry
     Harris-Foulkes estimate   =   -1868.72319861 Ry
     estimated scf accuracy    <       0.00000070 Ry

     The total energy is the sum of the following terms:

     one-electron contribution =  -26048.68322113 Ry
     hartree contribution      =   13175.93342074 Ry
     xc contribution           =    -642.19933881 Ry
     ewald contribution        =   11646.23668470 Ry
     smearing contrib. (-TS)   =      -0.01074405 Ry

     convergence has been achieved in  34 iterations

     negative rho (up, down):  9.046E-02 0.000E+00

     Forces acting on atoms (cartesian axes, Ry/au):

     atom    1 type  3   force =     0.00000000    0.00000000   -0.00043450
     atom    2 type  2   force =     0.00000000    0.00000000    0.00187239
     atom    3 type  3   force =     0.00000000    0.00000000    0.00035293
     atom    4 type  1   force =     0.00000000    0.00000000   -0.00018538
     atom    5 type  2   force =     0.00000000    0.00000000   -0.00023979
     atom    6 type  3   force =     0.00000000    0.00000000    0.00132819
     atom    7 type  3   force =     0.00000000    0.00000000    0.00103705
     atom    8 type  4   force =     0.00000000    0.00000000   -0.00284644
     atom    9 type  3   force =     0.00000000    0.00000000    0.00517697
     atom   10 type  3   force =     0.00000000    0.00000000    0.00353902
     atom   11 type  2   force =     0.00000000    0.00000000   -0.00178747
     atom   12 type  1   force =     0.00000000    0.00000000    0.01640804
     atom   13 type  3   force =     0.00000000    0.00000000   -0.01943478
     atom   14 type  3   force =     0.00000000    0.00000000    0.02218619
     atom   15 type  2   force =     0.00000000    0.00000000   -0.02521131
     atom   16 type  3   force =     0.00000000    0.00000000    0.01995819
     atom   17 type  1   force =     0.00000000    0.00000000   -0.00407315
     atom   18 type  2   force =     0.00000000    0.00000000   -0.02295598
     atom   19 type  3   force =     0.00000000    0.00000000    0.00424780
     atom   20 type  3   force =     0.00000000    0.00000000    0.00302878
     atom   21 type  4   force =     0.00000000    0.00000000   -0.00089564
     atom   22 type  3   force =     0.00000000    0.00000000   -0.00048505
     atom   23 type  3   force =     0.00000000    0.00000000    0.00090628
     atom   24 type  2   force =     0.00000000    0.00000000    0.00036859
     atom   25 type  1   force =     0.00000000    0.00000000    0.00006281
     atom   26 type  3   force =     0.00000000    0.00000000   -0.00192601
     atom   27 type  2   force =     0.00000000    0.00000000   -0.00030031
     atom   28 type  3   force =     0.00000000    0.00000000    0.00030258

     Total force =     0.052983     Total SCF correction =     0.004243

     Computing stress (Cartesian axis) and pressure

     negative rho (up, down):  9.046E-02 0.000E+00
          total   stress  (Ry/bohr**3)                   (kbar)     P=       -6.38
   0.00000100   0.00000000   0.00000000            0.15        0.00        0.00
   0.00000000  -0.00010610   0.00000000            0.00      -15.61        0.00
   0.00000000   0.00000000  -0.00002510            0.00        0.00       -3.69

     General routines

     Parallel routines

   This run was terminated on:  18:12:46   5May2021

   JOB DONE.
[1620252766.848455] [holy7c04510:51468:0]          mpool.c:43   UCX  WARN  object 0x42d3440 was not returned to mpool ucp_requests
[1620252766.848716] [holy7c06607:178972:0]          mpool.c:43   UCX  WARN  object 0x436bcc0 was not returned to mpool ucp_requests
[1620252766.848116] [holy7c06606:260874:0]          mpool.c:43   UCX  WARN  object 0x3b2ef00 was not returned to mpool ucp_requests
[1620252766.848137] [holy7c06606:260874:0]          mpool.c:43   UCX  WARN  object 0x3b2f7c0 was not returned to mpool ucp_requests
[1620252766.852369] [holy7c06511:47741:0]          mpool.c:43   UCX  WARN  object 0x36fcf40 was not returned to mpool ucp_requests
[1620252766.852406] [holy7c06511:47741:0]          mpool.c:43   UCX  WARN  object 0x36fd480 was not returned to mpool ucp_requests
[1620252766.849069] [holy7c04510:51467:0]          mpool.c:43   UCX  WARN  object 0x38cc8c0 was not returned to mpool ucp_requests
[1620252766.849086] [holy7c04510:51467:0]          mpool.c:43   UCX  WARN  object 0x38cce00 was not returned to mpool ucp_requests
[1620252766.847700] [holy7c06607:178973:0]          mpool.c:43   UCX  WARN  object 0x4548680 was not returned to mpool ucp_requests