     Program PWSCF v.6.5 starts on  5May2021 at 17:56:41

     R & G space division:  proc/nbgrp/npool/nimage =      20
     Reading input from YBCO_BaO_cleave_7.0_sep_scf.pwi
Warning: card &IONS ignored
Warning: card     ION_DYNAMICS = 'BFGS' ignored
Warning: card / ignored
Warning: card &CELL ignored
Warning: card     CELL_DYNAMICS = 'BFGS' ignored
Warning: card / ignored

     Current dimensions of program PWSCF are:
     Max number of different atomic species (ntypx) = 10
     Max number of k-points (npk) =  40000
     Max angular momentum in pseudopotentials (lmaxx) =  3

     Message from routine setup:
     using ibrav=0 with symmetry is DISCOURAGED, use correct ibrav instead

     bravais-lattice index     =            0
     lattice parameter (alat)  =       7.3477  a.u.
     unit-cell volume          =    5053.4933 (a.u.)^3
     number of atoms/cell      =           28
     number of atomic types    =            4
     number of electrons       =       229.00
     number of Kohn-Sham states=          138
     kinetic-energy cutoff     =      60.0000  Ry
     charge density cutoff     =     720.0000  Ry
     convergence threshold     =      1.0E-06
     mixing beta               =       0.2000
     number of iterations used =           10  local-TF  mixing
     Exchange-correlation= SLA PW PBE PBE
                           (   1   4   3   4   0   0   0)

     celldm(1)=   7.347715  celldm(2)=   0.000000  celldm(3)=   0.000000
     celldm(4)=   0.000000  celldm(5)=   0.000000  celldm(6)=   0.000000

     crystal axes: (cart. coord. in units of alat)
               a(1) = (   1.000000   0.000000   0.000000 )
               a(2) = (   0.000000   0.975577   0.000000 )
               a(3) = (   0.000000   0.000000  13.057892 )

     reciprocal axes: (cart. coord. in units 2 pi/alat)
               b(1) = (  1.000000  0.000000  0.000000 )
               b(2) = (  0.000000  1.025034  0.000000 )
               b(3) = (  0.000000  0.000000  0.076582 )

     PseudoPot. # 1 for Ba read from file:
     /n/holyscratch01/hoffman_lab/ruizhe/YBCO_Project/pseudo/Ba.pbe-nsp-van.UPF
     MD5 check sum: 2b9c31dd849566dd297d80989662b7a0
     Pseudo is Ultrasoft + core correction, Zval = 10.0
     Generated by new atomic code, or converted to UPF format
     Using radial grid of  907 points,  6 beta functions with:
                l(1) =   0
                l(2) =   0
                l(3) =   1
                l(4) =   1
                l(5) =   2
                l(6) =   2
     Q(r) pseudized with  6 coefficients,  rinner =    1.200   1.200   1.200
                                                       1.200   1.200

     PseudoPot. # 2 for Cu read from file:
     /n/holyscratch01/hoffman_lab/ruizhe/YBCO_Project/pseudo/Cu.pbe-n-van_ak.UPF
     MD5 check sum: 34e3282627ffb533726feb647e090d62
     Pseudo is Ultrasoft + core correction, Zval = 11.0
     Generated by new atomic code, or converted to UPF format
     Using radial grid of  867 points,  6 beta functions with:
                l(1) =   0
                l(2) =   0
                l(3) =   1
                l(4) =   1
                l(5) =   2
                l(6) =   2
     Q(r) pseudized with  8 coefficients,  rinner =    1.400   1.400   1.400
                                                       1.400   1.400

     PseudoPot. # 3 for O  read from file:
     /n/holyscratch01/hoffman_lab/ruizhe/YBCO_Project/pseudo/O.pbe-van_ak.UPF
     MD5 check sum: 783ce7fe4c79b6a4916957118fed0856
     Pseudo is Ultrasoft, Zval =  6.0
     Generated by new atomic code, or converted to UPF format
     Using radial grid of  737 points,  4 beta functions with:
                l(1) =   0
                l(2) =   0
                l(3) =   1
                l(4) =   1
     Q(r) pseudized with  8 coefficients,  rinner =    0.800   0.800   0.800

     PseudoPot. # 4 for Y  read from file:
     /n/holyscratch01/hoffman_lab/ruizhe/YBCO_Project/pseudo/Y.pbe-nsp-van.UPF
     MD5 check sum: 4412fed3ab108fed87a1b7d6a69a4a38
     Pseudo is Ultrasoft + core correction, Zval = 11.0
     Generated by new atomic code, or converted to UPF format
     Using radial grid of  885 points,  6 beta functions with:
                l(1) =   0
                l(2) =   0
                l(3) =   1
                l(4) =   1
                l(5) =   2
                l(6) =   2
     Q(r) pseudized with  6 coefficients,  rinner =    1.200   1.200   1.200
                                                       1.200   1.200

     atomic species   valence    mass     pseudopotential
        Ba            10.00   137.32700     Ba( 1.00)
        Cu            11.00    63.54600     Cu( 1.00)
        O              6.00    15.99900     O ( 1.00)
        Y             11.00    88.90584     Y ( 1.00)

      4 Sym. Ops. (no inversion) found

   Cartesian axes

     site n.     atom                  positions (alat units)
         1           O   tau(   1) = (   0.0000000   0.4877884  -0.0257983  )
         2           Cu  tau(   2) = (   0.0000000   0.0000000   0.0215779  )
         3           O   tau(   3) = (   0.0000000   0.0000000   0.5073114  )
         4           Ba  tau(   4) = (   0.4999996   0.4877884   0.5319677  )
         5           Cu  tau(   5) = (   0.0000000   0.0000000   1.0495845  )
         6           O   tau(   6) = (   0.4999996   0.0000000   1.1181579  )
         7           O   tau(   7) = (   0.0000000   0.4877884   1.1273137  )
         8           Y   tau(   8) = (   0.4999996   0.4877884   1.4938777  )
         9           O   tau(   9) = (   0.0000000   0.4877884   1.8497402  )
        10           O   tau(  10) = (   0.4999996   0.0000000   1.8692709  )
        11           Cu  tau(  11) = (   0.0000000   0.0000000   1.9417560  )
        12           Ba  tau(  12) = (   0.4999996   0.4877884   2.4526063  )
        13           O   tau(  13) = (   0.0000000   0.0000000   2.5103470  )
        14           O   tau(  14) = (   0.0000000   0.4877884   2.9968469  )
        15           Cu  tau(  15) = (   0.0000000   0.0000000   2.9968521  )
        16           O   tau(  16) = (   0.0000000   0.0000000   3.4833288  )
        17           Ba  tau(  17) = (   0.4999996   0.4877884   3.5410618  )
        18           Cu  tau(  18) = (   0.0000000   0.0000000   5.8522340  )
        19           O   tau(  19) = (   0.4999996   0.0000000   5.9247064  )
        20           O   tau(  20) = (   0.0000000   0.4877884   5.9442190  )
        21           Y   tau(  21) = (   0.4999996   0.4877884   6.3000841  )
        22           O   tau(  22) = (   0.0000000   0.4877884   6.6666481  )
        23           O   tau(  23) = (   0.4999996   0.0000000   6.6758168  )
        24           Cu  tau(  24) = (   0.0000000   0.0000000   6.7443953  )
        25           Ba  tau(  25) = (   0.4999996   0.4877884   7.2619966  )
        26           O   tau(  26) = (   0.0000000   0.0000000   7.2866530  )
        27           Cu  tau(  27) = (   0.0000000   0.0000000   7.7723582  )
        28           O   tau(  28) = (   0.0000000   0.4877884   7.8197395  )

     number of k points=    25  Gaussian smearing, width (Ry)=  0.0100
                       cart. coord. in units 2pi/alat
        k(    1) = (   0.0000000   0.0000000   0.0000000), wk =   0.0312500
        k(    2) = (   0.0000000   0.1281293   0.0000000), wk =   0.0625000
        k(    3) = (   0.0000000   0.2562585   0.0000000), wk =   0.0625000
        k(    4) = (   0.0000000   0.3843878   0.0000000), wk =   0.0625000
        k(    5) = (   0.0000000  -0.5125170   0.0000000), wk =   0.0312500
        k(    6) = (   0.1250000   0.0000000   0.0000000), wk =   0.0625000
        k(    7) = (   0.1250000   0.1281293   0.0000000), wk =   0.1250000
        k(    8) = (   0.1250000   0.2562585   0.0000000), wk =   0.1250000
        k(    9) = (   0.1250000   0.3843878   0.0000000), wk =   0.1250000
        k(   10) = (   0.1250000  -0.5125170   0.0000000), wk =   0.0625000
        k(   11) = (   0.2500000   0.0000000   0.0000000), wk =   0.0625000
        k(   12) = (   0.2500000   0.1281293   0.0000000), wk =   0.1250000
        k(   13) = (   0.2500000   0.2562585   0.0000000), wk =   0.1250000
        k(   14) = (   0.2500000   0.3843878   0.0000000), wk =   0.1250000
        k(   15) = (   0.2500000  -0.5125170   0.0000000), wk =   0.0625000
        k(   16) = (   0.3750000   0.0000000   0.0000000), wk =   0.0625000
        k(   17) = (   0.3750000   0.1281293   0.0000000), wk =   0.1250000
        k(   18) = (   0.3750000   0.2562585   0.0000000), wk =   0.1250000
        k(   19) = (   0.3750000   0.3843878   0.0000000), wk =   0.1250000
        k(   20) = (   0.3750000  -0.5125170   0.0000000), wk =   0.0625000
        k(   21) = (  -0.5000000   0.0000000   0.0000000), wk =   0.0312500
        k(   22) = (  -0.5000000   0.1281293   0.0000000), wk =   0.0625000
        k(   23) = (  -0.5000000   0.2562585   0.0000000), wk =   0.0625000
        k(   24) = (  -0.5000000   0.3843878   0.0000000), wk =   0.0625000
        k(   25) = (  -0.5000000  -0.5125170   0.0000000), wk =   0.0312500

     Initial potential from superposition of free atoms

     starting charge  228.84827, renormalised to  229.00000

     negative rho (up, down):  8.939E-02 0.000E+00
     Starting wfcs are  201 randomized atomic wfcs

     Self-consistent Calculation

     iteration #  1     ecut=    60.00 Ry     beta= 0.20
     Davidson diagonalization with overlap
     ethr =  1.00E-02,  avg # of iterations =  2.0

     negative rho (up, down):  8.729E-02 0.000E+00

     total energy              =   -1869.56864912 Ry
     Harris-Foulkes estimate   =   -1871.20438326 Ry
     estimated scf accuracy    <      17.54385449 Ry

[...]

     iteration # 18     ecut=    60.00 Ry     beta= 0.20
     Davidson diagonalization with overlap
     c_bands:  1 eigenvalues not converged
     ethr =  3.08E-06,  avg # of iterations =  7.9

[...]

     iteration # 23     ecut=    60.00 Ry     beta= 0.20
     Davidson diagonalization with overlap
     c_bands:  1 eigenvalues not converged
     ethr =  1.62E-06,  avg # of iterations =  7.8

[...]

     total energy              =   -1868.76608319 Ry
     Harris-Foulkes estimate   =   -1868.76608289 Ry
     estimated scf accuracy    <       0.00000110 Ry

     iteration # 37     ecut=    60.00 Ry     beta= 0.20
     Davidson diagonalization with overlap
     ethr =  4.80E-10,  avg # of iterations =  1.5

[...]

     End of self-consistent calculation

          k = 0.0000 0.0000 0.0000 ( 39547 PWs)   bands (ev):

   -38.7319 -38.3615 -24.7785 -23.3845 -23.3549 -23.3005 -19.2669 -18.8678
   -18.7362 -18.7270 -18.3853 -18.3678 -16.0621 -15.7651 -15.3975 -15.1030
   -14.8815 -14.8691 -14.8474 -14.6647 -14.6542 -14.5862 -14.3869 -14.3673
   -14.3617 -14.1245 -14.0770 -10.1008  -9.6077  -9.5834  -8.6113  -8.5741
    -8.5697  -8.3768  -8.3501  -8.3496  -8.3218  -8.2541  -8.2306  -2.6907
    -2.6563  -2.5277  -2.4704  -2.4703  -2.4692  -2.4604  -2.4506  -2.4004
    -2.3258  -2.2747  -2.0531  -1.9212  -1.5948  -1.4928  -1.1862  -1.1741
    -1.1700  -1.0751  -1.0672  -1.0585  -0.7214  -0.6779  -0.6759  -0.6412
    -0.6389  -0.5511  -0.4933  -0.4838  -0.4754  -0.4613  -0.3775  -0.3246
    -0.3193  -0.2989  -0.2965  -0.2327  -0.2263  -0.2120  -0.2009  -0.1667
    -0.0956  -0.0759  -0.0722  -0.0635  -0.0538   0.0529   0.0533   0.2302
     0.2789   0.3030   0.4555   0.5018   0.6200   0.6285   0.6350   0.7438
     0.7509   0.7622   0.7947   0.7993   0.8630   0.8946   0.8994   0.9583
     1.1035   1.1055   1.3315   1.3445   1.3770   1.4375   1.4840   1.5755
     1.5823   1.6047   1.7311   1.7441   1.7714   2.0603   2.0612   3.3221
     4.5462   4.6732   4.6780   5.1677   5.2204   5.6734   6.0365   6.0853
     6.1521   6.5346   6.8481   7.0015   7.2671   7.5492   7.5669   7.6493
     7.8097   7.8813

[...]

          k = 0.3750-0.5125 0.0000 ( 39806 PWs)   bands (ev):

[...]

          k =-0.5000 0.0000 0.0000 ( 39626 PWs)   bands (ev):

[...]

          k =-0.5000-0.5125 0.0000 ( 39764 PWs)   bands (ev):

   -38.7040 -38.3334 -24.5735 -23.1424 -23.1126 -23.0650 -19.2863 -19.2592
   -18.9314 -18.9164 -18.7857 -18.3755 -15.1173 -15.1054 -14.8871 -14.8854
   -14.8607 -14.8558 -14.8278 -14.6611 -14.6021 -14.5505 -14.3358 -14.2557
   -14.2495 -14.1721 -14.0209 -10.5703 -10.2189 -10.0185  -9.3365  -9.3078
    -9.2000  -9.0474  -9.0207  -8.8998  -8.5943  -8.5632  -8.5478  -4.8014
    -4.6010  -4.2201  -3.8694  -3.8024  -3.3419  -3.3365  -3.1314  -2.9449
    -2.9021  -2.8958  -2.8225  -2.5789  -2.4611  -2.4524  -2.4499  -2.4277
    -2.0917  -2.0269  -1.6900  -1.6370  -1.5531  -1.5351  -1.4205  -1.3513
    -1.3291  -1.2764  -1.1933  -1.1188  -1.1144  -1.0088  -0.9520  -0.8703
    -0.8463  -0.4759  -0.4725  -0.1706  -0.0186   0.0748   0.2956   0.4671
     0.6477   0.7807   0.7978   0.8937   0.9299   0.9576   0.9806   0.9864
     0.9947   1.0220   1.0638   1.1501   1.1566   1.2316   1.2334   1.4031
     1.4200   1.4313   1.4484   1.4497   1.4579   1.4920   1.5107   1.5322
     1.5474   1.7606   1.8562   1.9062   1.9481   1.9526   2.0561   2.0602
     2.3895   2.3973   3.7293   3.9132   4.1637   4.2515   4.2595   4.4107
     5.1968   5.2090   5.9227   5.9677   6.0233   6.1828   6.8399   7.5589
     7.7976   8.1122   8.3020   8.3848   8.5068   8.5289   8.5760   8.6174
     8.8825   9.0062

     the Fermi energy is     2.3587 ev

!    total energy              =   -1868.76608357 Ry
     Harris-Foulkes estimate   =   -1868.76608323 Ry
     estimated scf accuracy    <       0.00000048 Ry

     The total energy is the sum of the following terms:

     one-electron contribution =  -23365.15799791 Ry
     hartree contribution      =   11831.33572741 Ry
     xc contribution           =    -642.20273010 Ry
     ewald contribution        =   10307.26736928 Ry
     smearing contrib. (-TS)   =      -0.00845224 Ry

     convergence has been achieved in  37 iterations

     negative rho (up, down):  9.048E-02 0.000E+00

     Forces acting on atoms (cartesian axes, Ry/au):

     atom    1 type  3   force =     0.00000000    0.00000000   -0.00000695
     atom    2 type  2   force =     0.00000000    0.00000000   -0.00105563
     atom    3 type  3   force =     0.00000000    0.00000000    0.00005748
     atom    4 type  1   force =     0.00000000    0.00000000   -0.00011989
     atom    5 type  2   force =     0.00000000    0.00000000   -0.00040474
     atom    6 type  3   force =     0.00000000    0.00000000    0.00058609
     atom    7 type  3   force =     0.00000000    0.00000000    0.00005379
     atom    8 type  4   force =     0.00000000    0.00000000   -0.00090657
     atom    9 type  3   force =     0.00000000    0.00000000    0.00146486
     atom   10 type  3   force =     0.00000000    0.00000000    0.00177394
     atom   11 type  2   force =     0.00000000    0.00000000   -0.00144923
     atom   12 type  1   force =     0.00000000    0.00000000   -0.00570319
     atom   13 type  3   force =     0.00000000    0.00000000    0.00313211
     atom   14 type  3   force =     0.00000000    0.00000000    0.01792443
     atom   15 type  2   force =     0.00000000    0.00000000   -0.01742606
     atom   16 type  3   force =     0.00000000    0.00000000    0.04628291
     atom   17 type  1   force =     0.00000000    0.00000000   -0.04415026
     atom   18 type  2   force =     0.00000000    0.00000000   -0.00144414
     atom   19 type  3   force =     0.00000000    0.00000000    0.02032954
     atom   20 type  3   force =     0.00000000    0.00000000    0.01139643
     atom   21 type  4   force =     0.00000000    0.00000000   -0.04332679
     atom   22 type  3   force =     0.00000000    0.00000000    0.00423796
     atom   23 type  3   force =     0.00000000    0.00000000    0.00721611
     atom   24 type  2   force =     0.00000000    0.00000000    0.00175012
     atom   25 type  1   force =     0.00000000    0.00000000   -0.00186254
     atom   26 type  3   force =     0.00000000    0.00000000    0.00133099
     atom   27 type  2   force =     0.00000000    0.00000000   -0.00016715
     atom   28 type  3   force =     0.00000000    0.00000000    0.00048639

     Total force =     0.085262     Total SCF correction =     0.002272

     Computing stress (Cartesian axis) and pressure

     negative rho (up, down):  9.048E-02 0.000E+00
          total   stress  (Ry/bohr**3)                   (kbar)     P=       -6.14
  -0.00007727   0.00000000   0.00000000          -11.37        0.00        0.00
   0.00000000  -0.00003441   0.00000000            0.00       -5.06        0.00
   0.00000000   0.00000000  -0.00001357            0.00        0.00       -2.00

     General routines

     Parallel routines

   This run was terminated on:  18:10:47   5May2021

   JOB DONE.
[1620252647.173062] [holy7c06302:23917:0]          mpool.c:43   UCX  WARN  object 0x4448040 was not returned to mpool ucp_requests
[1620252647.173079] [holy7c06302:23917:0]          mpool.c:43   UCX  WARN  object 0x4448580 was not returned to mpool ucp_requests
[1620252647.172789] [holy7c06305:7757 :0]          mpool.c:43   UCX  WARN  object 0x4648f40 was not returned to mpool ucp_requests
[1620252647.172804] [holy7c06305:7757 :0]          mpool.c:43   UCX  WARN  object 0x4649100 was not returned to mpool ucp_requests
[1620252647.172543] [holy7c06301:148186:0]          mpool.c:43   UCX  WARN  object 0x31758c0 was not returned to mpool ucp_requests
[1620252647.174242] [holy7c06409:121317:0]          mpool.c:43   UCX  WARN  object 0x3d28780 was not returned to mpool ucp_requests
[1620252647.176274] [holy7c06406:155866:0]          mpool.c:43   UCX  WARN  object 0x2941ac0 was not returned to mpool ucp_requests
[1620252647.176309] [holy7c06406:155866:0]          mpool.c:43   UCX  WARN  object 0x2941c80 was not returned to mpool ucp_requests
[1620252647.179622] [holy7c06303:275241:0]          mpool.c:43   UCX  WARN  object 0x4693f80 was not returned to mpool ucp_requests
[1620252647.176467] [holy7c06311:196995:0]          mpool.c:43   UCX  WARN  object 0x36e9d00 was not returned to mpool ucp_requests
[1620252647.175806] [holy7c06409:121316:0]          mpool.c:43   UCX  WARN  object 0x3072200 was not returned to mpool ucp_requests