     Program PWSCF v.6.5 starts on  5May2021 at 17:16:27

     R & G space division:  proc/nbgrp/npool/nimage =      20
     Reading input from YBCO_CuO_cleave_2.5_sep_scf.pwi
Warning: card &IONS ignored
Warning: card     ION_DYNAMICS = 'BFGS' ignored
Warning: card / ignored
Warning: card &CELL ignored
Warning: card     CELL_DYNAMICS = 'BFGS' ignored
Warning: card / ignored

     Current dimensions of program PWSCF are:
     Max number of different atomic species (ntypx) = 10
     Max number of k-points (npk) =  40000
     Max angular momentum in pseudopotentials (lmaxx) =  3

     Message from routine setup:
     using ibrav=0 with symmetry is DISCOURAGED, use correct ibrav instead

     bravais-lattice index     =            0
     lattice parameter (alat)  =       7.3477  a.u.
     unit-cell volume          =    4605.5967 (a.u.)^3
     number of atoms/cell      =           28
     number of atomic types    =            4
     number of electrons       =       229.00
     number of Kohn-Sham states=          138
     kinetic-energy cutoff     =      60.0000  Ry
     charge density cutoff     =     720.0000  Ry
     convergence threshold     =      1.0E-06
     mixing beta               =       0.2000
     number of iterations used =           10  local-TF  mixing
     Exchange-correlation= SLA PW PBE PBE
                           (   1   4   3   4   0   0   0)

     celldm(1)=   7.347715  celldm(2)=   0.000000  celldm(3)=   0.000000
     celldm(4)=   0.000000  celldm(5)=   0.000000  celldm(6)=   0.000000

     crystal axes: (cart. coord. in units of alat)
               a(1) = (   1.000000   0.000000   0.000000 )
               a(2) = (   0.000000   0.975577   0.000000 )
               a(3) = (   0.000000   0.000000  11.900557 )

     reciprocal axes: (cart. coord. in units 2 pi/alat)
               b(1) = (  1.000000  0.000000  0.000000 )
               b(2) = (  0.000000  1.025034  0.000000 )
               b(3) = (  0.000000  0.000000  0.084030 )

     PseudoPot. # 1 for Ba read from file:
     /n/holyscratch01/hoffman_lab/ruizhe/YBCO_Project/pseudo/Ba.pbe-nsp-van.UPF
     MD5 check sum: 2b9c31dd849566dd297d80989662b7a0
     Pseudo is Ultrasoft + core correction, Zval = 10.0
     Generated by new atomic code, or converted to UPF format
     Using radial grid of  907 points,  6 beta functions with:
                l(1) =   0
                l(2) =   0
                l(3) =   1
                l(4) =   1
                l(5) =   2
                l(6) =   2
     Q(r) pseudized with  6 coefficients,  rinner =    1.200   1.200   1.200
                                                       1.200   1.200

     PseudoPot. # 2 for Cu read from file:
     /n/holyscratch01/hoffman_lab/ruizhe/YBCO_Project/pseudo/Cu.pbe-n-van_ak.UPF
     MD5 check sum: 34e3282627ffb533726feb647e090d62
     Pseudo is Ultrasoft + core correction, Zval = 11.0
     Generated by new atomic code, or converted to UPF format
     Using radial grid of  867 points,  6 beta functions with:
                l(1) =   0
                l(2) =   0
                l(3) =   1
                l(4) =   1
                l(5) =   2
                l(6) =   2
     Q(r) pseudized with  8 coefficients,  rinner =    1.400   1.400   1.400
                                                       1.400   1.400

     PseudoPot. # 3 for O  read from file:
     /n/holyscratch01/hoffman_lab/ruizhe/YBCO_Project/pseudo/O.pbe-van_ak.UPF
     MD5 check sum: 783ce7fe4c79b6a4916957118fed0856
     Pseudo is Ultrasoft, Zval =  6.0
     Generated by new atomic code, or converted to UPF format
     Using radial grid of  737 points,  4 beta functions with:
                l(1) =   0
                l(2) =   0
                l(3) =   1
                l(4) =   1
     Q(r) pseudized with  8 coefficients,  rinner =    0.800   0.800   0.800

     PseudoPot. # 4 for Y  read from file:
     /n/holyscratch01/hoffman_lab/ruizhe/YBCO_Project/pseudo/Y.pbe-nsp-van.UPF
     MD5 check sum: 4412fed3ab108fed87a1b7d6a69a4a38
     Pseudo is Ultrasoft + core correction, Zval = 11.0
     Generated by new atomic code, or converted to UPF format
     Using radial grid of  885 points,  6 beta functions with:
                l(1) =   0
                l(2) =   0
                l(3) =   1
                l(4) =   1
                l(5) =   2
                l(6) =   2
     Q(r) pseudized with  6 coefficients,  rinner =    1.200   1.200   1.200
                                                       1.200   1.200

     atomic species   valence    mass     pseudopotential
        Ba            10.00   137.32700     Ba( 1.00)
        Cu            11.00    63.54600     Cu( 1.00)
        O              6.00    15.99900     O ( 1.00)
        Y             11.00    88.90584     Y ( 1.00)

      4 Sym. Ops. (no inversion) found

   Cartesian axes

     site n.     atom                  positions (alat units)
         1           O   tau(   1) = (   0.0000000   0.4877884  -0.0257983  )
         2           Cu  tau(   2) = (   0.0000000   0.0000000   0.0215779  )
         3           O   tau(   3) = (   0.0000000   0.0000000   0.5073114  )
         4           Ba  tau(   4) = (   0.4999996   0.4877884   0.5319677  )
         5           Cu  tau(   5) = (   0.0000000   0.0000000   1.0495845  )
         6           O   tau(   6) = (   0.4999996   0.0000000   1.1181579  )
         7           O   tau(   7) = (   0.0000000   0.4877884   1.1273137  )
         8           Y   tau(   8) = (   0.4999996   0.4877884   1.4938777  )
         9           O   tau(   9) = (   0.0000000   0.4877884   1.8497402  )
        10           O   tau(  10) = (   0.4999996   0.0000000   1.8692709  )
        11           Cu  tau(  11) = (   0.0000000   0.0000000   1.9417560  )
        12           Ba  tau(  12) = (   0.4999996   0.4877884   2.4526063  )
        13           O   tau(  13) = (   0.0000000   0.0000000   2.5103470  )
        14           O   tau(  14) = (   0.0000000   0.4877884   2.9968469  )
        15           Cu  tau(  15) = (   0.0000000   0.0000000   2.9968521  )
        16           O   tau(  16) = (   0.0000000   0.0000000   4.1262927  )
        17           Ba  tau(  17) = (   0.4999996   0.4877884   4.1840257  )
        18           Cu  tau(  18) = (   0.0000000   0.0000000   4.6948991  )
        19           O   tau(  19) = (   0.4999996   0.0000000   4.7673714  )
        20           O   tau(  20) = (   0.0000000   0.4877884   4.7868841  )
        21           Y   tau(  21) = (   0.4999996   0.4877884   5.1427491  )
        22           O   tau(  22) = (   0.0000000   0.4877884   5.5093131  )
        23           O   tau(  23) = (   0.4999996   0.0000000   5.5184818  )
        24           Cu  tau(  24) = (   0.0000000   0.0000000   5.5870603  )
        25           Ba  tau(  25) = (   0.4999996   0.4877884   6.1046617  )
        26           O   tau(  26) = (   0.0000000   0.0000000   6.1293180  )
        27           Cu  tau(  27) = (   0.0000000   0.0000000   6.6150232  )
        28           O   tau(  28) = (   0.0000000   0.4877884   6.6624045  )

     number of k points=    25  Gaussian smearing, width (Ry)=  0.0100
                       cart. coord. in units 2pi/alat
        k(    1) = (   0.0000000   0.0000000   0.0000000), wk =   0.0312500
        k(    2) = (   0.0000000   0.1281293   0.0000000), wk =   0.0625000
        k(    3) = (   0.0000000   0.2562585   0.0000000), wk =   0.0625000
        k(    4) = (   0.0000000   0.3843878   0.0000000), wk =   0.0625000
        k(    5) = (   0.0000000  -0.5125170   0.0000000), wk =   0.0312500
        k(    6) = (   0.1250000   0.0000000   0.0000000), wk =   0.0625000
        k(    7) = (   0.1250000   0.1281293   0.0000000), wk =   0.1250000
        k(    8) = (   0.1250000   0.2562585   0.0000000), wk =   0.1250000
        k(    9) = (   0.1250000   0.3843878   0.0000000), wk =   0.1250000
        k(   10) = (   0.1250000  -0.5125170   0.0000000), wk =   0.0625000
        k(   11) = (   0.2500000   0.0000000   0.0000000), wk =   0.0625000
        k(   12) = (   0.2500000   0.1281293   0.0000000), wk =   0.1250000
        k(   13) = (   0.2500000   0.2562585   0.0000000), wk =   0.1250000
        k(   14) = (   0.2500000   0.3843878   0.0000000), wk =   0.1250000
        k(   15) = (   0.2500000  -0.5125170   0.0000000), wk =   0.0625000
        k(   16) = (   0.3750000   0.0000000   0.0000000), wk =   0.0625000
        k(   17) = (   0.3750000   0.1281293   0.0000000), wk =   0.1250000
        k(   18) = (   0.3750000   0.2562585   0.0000000), wk =   0.1250000
        k(   19) = (   0.3750000   0.3843878   0.0000000), wk =   0.1250000
        k(   20) = (   0.3750000  -0.5125170   0.0000000), wk =   0.0625000
        k(   21) = (  -0.5000000   0.0000000   0.0000000), wk =   0.0312500
        k(   22) = (  -0.5000000   0.1281293   0.0000000), wk =   0.0625000
        k(   23) = (  -0.5000000   0.2562585   0.0000000), wk =   0.0625000
        k(   24) = (  -0.5000000   0.3843878   0.0000000), wk =   0.0625000
        k(   25) = (  -0.5000000  -0.5125170   0.0000000), wk =   0.0312500

     Initial potential from superposition of free atoms

     starting charge  228.84827, renormalised to  229.00000

     negative rho (up, down):  8.944E-02 0.000E+00
     Starting wfcs are  201 randomized atomic wfcs

     Self-consistent Calculation

     iteration #  1     ecut=    60.00 Ry     beta= 0.20
     Davidson diagonalization with overlap
     ethr =  1.00E-02,  avg # of iterations =  2.0

     negative rho (up, down):  8.728E-02 0.000E+00

     total energy              =   -1869.50708202 Ry
     Harris-Foulkes estimate   =   -1871.08791744 Ry
     estimated scf accuracy    <      13.30946970 Ry

[...]

     iteration # 23     ecut=    60.00 Ry     beta= 0.20
     Davidson diagonalization with overlap
     c_bands:  1 eigenvalues not converged
     ethr =  7.63E-07,  avg # of iterations =  4.8

[...]

     iteration # 28     ecut=    60.00 Ry     beta= 0.20
     Davidson diagonalization with overlap
     c_bands:  1 eigenvalues not converged
     ethr =  3.03E-08,  avg # of iterations =  4.0

[...]

     total energy              =   -1868.72635394 Ry
     Harris-Foulkes estimate   =   -1868.72635378 Ry
     estimated scf accuracy    <       0.00000260 Ry

     iteration # 33     ecut=    60.00 Ry     beta= 0.20
     Davidson diagonalization with overlap
     ethr =  1.14E-09,  avg # of iterations =  2.0

[...]

     End of self-consistent calculation

          k = 0.0000 0.0000 0.0000 ( 36065 PWs)   bands (ev):

   -38.3476 -38.2713 -22.9778 -22.9658 -22.8277 -22.8200 -18.8809 -18.8133
   -18.3531 -18.3442 -18.2777 -18.2645 -15.6729 -15.6227 -14.7150 -14.6612
   -14.4623 -14.4585 -14.4525 -14.4085 -14.3702 -14.1971 -14.1433 -13.9595
   -13.9473 -13.7082 -12.4208  -8.1992  -8.1985  -8.1685  -8.0353  -7.9702
    -7.9588  -7.9432  -7.9320  -7.7933  -7.7699  -7.7041  -7.6235  -2.3044
    -2.2740  -2.2526  -2.2251  -2.1338  -2.0789  -2.0602  -2.0512  -2.0171
    -1.9784  -1.9408  -1.8871  -1.7629  -1.1095  -1.0479  -0.6576  -0.6413
    -0.6003  -0.3265  -0.2711  -0.2688  -0.2600  -0.2314  -0.2248  -0.0701
    -0.0683  -0.0363  -0.0160  -0.0028   0.0042   0.0624   0.0661   0.0918
     0.1012   0.1929   0.1966   0.2073   0.2082   0.2258   0.2937   0.3092
     0.3473   0.3479   0.3607   0.3682   0.4154   0.4608   0.4651   0.4822
     0.7386   0.9056   0.9490   1.0044   1.0151   1.0560   1.0862   1.1253
     1.1551   1.1641   1.1809   1.2673   1.2710   1.2874   1.2974   1.3013
     1.3431   1.7227   1.7631   1.7846   1.7921   1.8755   1.9841   1.9909
     2.0729   2.2864   2.4300   2.4750   2.5153   2.5587   2.5935   4.9240
     5.0936   5.1288   5.6689   5.7612   6.4498   6.4801   6.5607   6.7311
     7.1077   7.2333   7.8559   7.9458   7.9763   8.0188   8.1846   8.3845
     8.4617   8.5205

[...]

          k = 0.3750-0.5125 0.0000 ( 36266 PWs)   bands (ev):

[...]

          k =-0.5000 0.0000 0.0000 ( 36146 PWs)   bands (ev):

[...]

          k =-0.5000-0.5125 0.0000 ( 36252 PWs)   bands (ev):

   -38.3197 -38.2434 -22.7358 -22.7236 -22.6173 -22.5816 -18.9037 -18.8762
   -18.8256 -18.8052 -18.4000 -18.3292 -14.7273 -14.7173 -14.6911 -14.6524
   -14.4507 -14.4497 -14.2153 -14.1722 -14.1621 -14.1438 -14.0923 -13.8433
   -13.8249 -13.7774 -12.5356  -8.9296  -8.9185  -8.7438  -8.6408  -8.6293
    -8.5312  -8.4460  -8.4172  -8.1775  -8.1654  -8.0873  -8.0386  -4.4174
    -4.3548  -3.8337  -3.7549  -2.9310  -2.9271  -2.9125  -2.7314  -2.6861
    -2.5415  -2.5296  -2.4525  -2.4090  -2.0429  -2.0413  -2.0211  -1.9726
    -1.7356  -1.2702  -1.2262  -1.1499  -1.1013  -1.0144  -0.9292  -0.9190
    -0.9071  -0.8102  -0.7861  -0.7810  -0.7054  -0.6910  -0.6630  -0.0622
    -0.0618  -0.0512   0.0506   0.2726   0.5746   0.7071   0.9815   1.0471
     1.1872   1.2311   1.2795   1.2964   1.3118   1.3230   1.3336   1.3447
     1.3637   1.4429   1.5382   1.5707   1.6148   1.6304   1.6580   1.8156
     1.8384   1.8443   1.8514   1.8577   1.8627   1.9789   2.0648   2.1676
     2.3605   2.3788   2.4684   2.4837   2.5314   2.5691   2.7604   2.7690
     2.7695   2.8588   3.0904   4.5354   4.5612   4.6489   4.6617   5.6057
     5.6176   5.8336   6.3740   6.4890   7.9036   7.9489   8.1961   8.1993
     8.5182   8.7146   8.9263   9.0329   9.0361   9.0689   9.1986   9.3166
     9.3265   9.4374

     the Fermi energy is     2.7645 ev

!    total energy              =   -1868.72635353 Ry
     Harris-Foulkes estimate   =   -1868.72635412 Ry
     estimated scf accuracy    <       0.00000088 Ry

     The total energy is the sum of the following terms:

     one-electron contribution =  -27595.94112284 Ry
     hartree contribution      =   13950.89393221 Ry
     xc contribution           =    -642.19763883 Ry
     ewald contribution        =   12418.52921619 Ry
     smearing contrib. (-TS)   =      -0.01074027 Ry

     convergence has been achieved in  33 iterations

     negative rho (up, down):  9.040E-02 0.000E+00

     Forces acting on atoms (cartesian axes, Ry/au):

     atom    1 type  3   force =     0.00000000    0.00000000   -0.00046676
     atom    2 type  2   force =     0.00000000    0.00000000    0.00124449
     atom    3 type  3   force =     0.00000000    0.00000000    0.00027116
     atom    4 type  1   force =     0.00000000    0.00000000   -0.00014840
     atom    5 type  2   force =     0.00000000    0.00000000   -0.00042369
     atom    6 type  3   force =     0.00000000    0.00000000    0.00129261
     atom    7 type  3   force =     0.00000000    0.00000000    0.00098201
     atom    8 type  4   force =     0.00000000    0.00000000   -0.00276532
     atom    9 type  3   force =     0.00000000    0.00000000    0.00507596
     atom   10 type  3   force =     0.00000000    0.00000000    0.00348422
     atom   11 type  2   force =     0.00000000    0.00000000   -0.00223505
     atom   12 type  1   force =     0.00000000    0.00000000    0.01611990
     atom   13 type  3   force =     0.00000000    0.00000000   -0.01929897
     atom   14 type  3   force =     0.00000000    0.00000000    0.02293777
     atom   15 type  2   force =     0.00000000    0.00000000   -0.02334380
     atom   16 type  3   force =     0.00000000    0.00000000    0.02104239
     atom   17 type  1   force =     0.00000000    0.00000000   -0.00756057
     atom   18 type  2   force =     0.00000000    0.00000000   -0.02245186
     atom   19 type  3   force =     0.00000000    0.00000000    0.00448187
     atom   20 type  3   force =     0.00000000    0.00000000    0.00319738
     atom   21 type  4   force =     0.00000000    0.00000000   -0.00093140
     atom   22 type  3   force =     0.00000000    0.00000000   -0.00048061
     atom   23 type  3   force =     0.00000000    0.00000000    0.00087131
     atom   24 type  2   force =     0.00000000    0.00000000    0.00012324
     atom   25 type  1   force =     0.00000000    0.00000000    0.00005221
     atom   26 type  3   force =     0.00000000    0.00000000   -0.00189272
     atom   27 type  2   force =     0.00000000    0.00000000    0.00048401
     atom   28 type  3   force =     0.00000000    0.00000000    0.00033863

     Total force =     0.052903     Total SCF correction =     0.003416

     Computing stress (Cartesian axis) and pressure

     negative rho (up, down):  9.040E-02 0.000E+00
          total   stress  (Ry/bohr**3)                   (kbar)     P=       -6.11
   0.00000389   0.00000000   0.00000000            0.57        0.00        0.00
   0.00000000  -0.00010199   0.00000000            0.00      -15.00        0.00
   0.00000000   0.00000000  -0.00002640            0.00        0.00       -3.88

     General routines

     Parallel routines

   This run was terminated on:  17:26:33   5May2021

   JOB DONE.
[1620249993.425740] [holy7c08503:124345:0]          mpool.c:43   UCX  WARN  object 0x3d22fc0 was not returned to mpool ucp_requests
[1620249993.429792] [holy7c12506:250774:0]          mpool.c:43   UCX  WARN  object 0x3ea6dc0 was not returned to mpool ucp_requests
[1620249993.430946] [holy7c12505:265682:0]          mpool.c:43   UCX  WARN  object 0x457f440 was not returned to mpool ucp_requests
[1620249993.430965] [holy7c12505:265682:0]          mpool.c:43   UCX  WARN  object 0x457f7c0 was not returned to mpool ucp_requests
[1620249993.429180] [holy7c12508:184031:0]          mpool.c:43   UCX  WARN  object 0x38263c0 was not returned to mpool ucp_requests
[1620249993.427775] [holy7c08503:124344:0]          mpool.c:43   UCX  WARN  object 0x45300c0 was not returned to mpool ucp_requests
[1620249993.427797] [holy7c08503:124344:0]          mpool.c:43   UCX  WARN  object 0x4530280 was not returned to mpool ucp_requests
[1620249993.431686] [holy7c12505:265684:0]          mpool.c:43   UCX  WARN  object 0x2f2d340 was not returned to mpool ucp_requests
[1620249993.432345] [holy7c12505:265686:0]          mpool.c:43   UCX  WARN  object 0x47d8100 was not returned to mpool ucp_requests
[1620249993.432363] [holy7c12505:265686:0]          mpool.c:43   UCX  WARN  object 0x47d8800 was not returned to mpool ucp_requests