     Program PWSCF v.6.5 starts on  5May2021 at 17:15: 5

     R & G space division:  proc/nbgrp/npool/nimage =      20
     Reading input from YBCO_CuO_cleave_1.0_sep_scf.pwi
Warning: card &IONS ignored
Warning: card     ION_DYNAMICS = 'BFGS' ignored
Warning: card / ignored
Warning: card &CELL ignored
Warning: card     CELL_DYNAMICS = 'BFGS' ignored
Warning: card / ignored

     Current dimensions of program PWSCF are:
     Max number of different atomic species (ntypx) = 10
     Max number of k-points (npk) =  40000
     Max angular momentum in pseudopotentials (lmaxx) =  3

     Message from routine setup:
     using ibrav=0 with symmetry is DISCOURAGED, use correct ibrav instead

     bravais-lattice index     =            0
     lattice parameter (alat)  =       7.3477  a.u.
     unit-cell volume          =    4456.2979 (a.u.)^3
     number of atoms/cell      =           28
     number of atomic types    =            4
     number of electrons       =       229.00
     number of Kohn-Sham states=          138
     kinetic-energy cutoff     =      60.0000  Ry
     charge density cutoff     =     720.0000  Ry
     convergence threshold     =      1.0E-06
     mixing beta               =       0.2000
     number of iterations used =           10  local-TF  mixing
     Exchange-correlation= SLA PW PBE PBE
                           (   1   4   3   4   0   0   0)

     celldm(1)=   7.347715  celldm(2)=   0.000000  celldm(3)=   0.000000
     celldm(4)=   0.000000  celldm(5)=   0.000000  celldm(6)=   0.000000

     crystal axes: (cart. coord. in units of alat)
               a(1) = (   1.000000   0.000000   0.000000 )
               a(2) = (   0.000000   0.975577   0.000000 )
               a(3) = (   0.000000   0.000000  11.514779 )

     reciprocal axes: (cart. coord. in units 2 pi/alat)
               b(1) = (  1.000000  0.000000  0.000000 )
               b(2) = (  0.000000  1.025034  0.000000 )
               b(3) = (  0.000000  0.000000  0.086845 )

     PseudoPot. # 1 for Ba read from file:
     /n/holyscratch01/hoffman_lab/ruizhe/YBCO_Project/pseudo/Ba.pbe-nsp-van.UPF
     MD5 check sum: 2b9c31dd849566dd297d80989662b7a0
     Pseudo is Ultrasoft + core correction, Zval = 10.0
     Generated by new atomic code, or converted to UPF format
     Using radial grid of  907 points,  6 beta functions with:
                l(1) =   0
                l(2) =   0
                l(3) =   1
                l(4) =   1
                l(5) =   2
                l(6) =   2
     Q(r) pseudized with  6 coefficients,  rinner =    1.200   1.200   1.200
                                                       1.200   1.200

     PseudoPot. # 2 for Cu read from file:
     /n/holyscratch01/hoffman_lab/ruizhe/YBCO_Project/pseudo/Cu.pbe-n-van_ak.UPF
     MD5 check sum: 34e3282627ffb533726feb647e090d62
     Pseudo is Ultrasoft + core correction, Zval = 11.0
     Generated by new atomic code, or converted to UPF format
     Using radial grid of  867 points,  6 beta functions with:
                l(1) =   0
                l(2) =   0
                l(3) =   1
                l(4) =   1
                l(5) =   2
                l(6) =   2
     Q(r) pseudized with  8 coefficients,  rinner =    1.400   1.400   1.400
                                                       1.400   1.400

     PseudoPot. # 3 for O  read from file:
     /n/holyscratch01/hoffman_lab/ruizhe/YBCO_Project/pseudo/O.pbe-van_ak.UPF
     MD5 check sum: 783ce7fe4c79b6a4916957118fed0856
     Pseudo is Ultrasoft, Zval =  6.0
     Generated by new atomic code, or converted to UPF format
     Using radial grid of  737 points,  4 beta functions with:
                l(1) =   0
                l(2) =   0
                l(3) =   1
                l(4) =   1
     Q(r) pseudized with  8 coefficients,  rinner =    0.800   0.800   0.800

     PseudoPot. # 4 for Y  read from file:
     /n/holyscratch01/hoffman_lab/ruizhe/YBCO_Project/pseudo/Y.pbe-nsp-van.UPF
     MD5 check sum: 4412fed3ab108fed87a1b7d6a69a4a38
     Pseudo is Ultrasoft + core correction, Zval = 11.0
     Generated by new atomic code, or converted to UPF format
     Using radial grid of  885 points,  6 beta functions with:
                l(1) =   0
                l(2) =   0
                l(3) =   1
                l(4) =   1
                l(5) =   2
                l(6) =   2
     Q(r) pseudized with  6 coefficients,  rinner =    1.200   1.200   1.200
                                                       1.200   1.200

     atomic species   valence    mass     pseudopotential
        Ba            10.00   137.32700     Ba( 1.00)
        Cu            11.00    63.54600     Cu( 1.00)
        O              6.00    15.99900     O ( 1.00)
        Y             11.00    88.90584     Y ( 1.00)

      4 Sym. Ops. (no inversion) found

   Cartesian axes

     site n.     atom                  positions (alat units)
         1           O   tau(   1) = (   0.0000000   0.4877884  -0.0257983  )
         2           Cu  tau(   2) = (   0.0000000   0.0000000   0.0215779  )
         3           O   tau(   3) = (   0.0000000   0.0000000   0.5073114  )
         4           Ba  tau(   4) = (   0.4999996   0.4877884   0.5319677  )
         5           Cu  tau(   5) = (   0.0000000   0.0000000   1.0495845  )
         6           O   tau(   6) = (   0.4999996   0.0000000   1.1181579  )
         7           O   tau(   7) = (   0.0000000   0.4877884   1.1273137  )
         8           Y   tau(   8) = (   0.4999996   0.4877884   1.4938777  )
         9           O   tau(   9) = (   0.0000000   0.4877884   1.8497402  )
        10           O   tau(  10) = (   0.4999996   0.0000000   1.8692709  )
        11           Cu  tau(  11) = (   0.0000000   0.0000000   1.9417560  )
        12           Ba  tau(  12) = (   0.4999996   0.4877884   2.4526063  )
        13           O   tau(  13) = (   0.0000000   0.0000000   2.5103470  )
        14           O   tau(  14) = (   0.0000000   0.4877884   2.9968469  )
        15           Cu  tau(  15) = (   0.0000000   0.0000000   2.9968521  )
        16           O   tau(  16) = (   0.0000000   0.0000000   3.7405144  )
        17           Ba  tau(  17) = (   0.4999996   0.4877884   3.7982474  )
        18           Cu  tau(  18) = (   0.0000000   0.0000000   4.3091207  )
        19           O   tau(  19) = (   0.4999996   0.0000000   4.3815931  )
        20           O   tau(  20) = (   0.0000000   0.4877884   4.4011057  )
        21           Y   tau(  21) = (   0.4999996   0.4877884   4.7569708  )
        22           O   tau(  22) = (   0.0000000   0.4877884   5.1235348  )
        23           O   tau(  23) = (   0.4999996   0.0000000   5.1327035  )
        24           Cu  tau(  24) = (   0.0000000   0.0000000   5.2012820  )
        25           Ba  tau(  25) = (   0.4999996   0.4877884   5.7188833  )
        26           O   tau(  26) = (   0.0000000   0.0000000   5.7435397  )
        27           Cu  tau(  27) = (   0.0000000   0.0000000   6.2292449  )
        28           O   tau(  28) = (   0.0000000   0.4877884   6.2766262  )

     number of k points=    25  Gaussian smearing, width (Ry)=  0.0100
                       cart. coord. in units 2pi/alat
        k(    1) = (   0.0000000   0.0000000   0.0000000), wk =   0.0312500
        k(    2) = (   0.0000000   0.1281293   0.0000000), wk =   0.0625000
        k(    3) = (   0.0000000   0.2562585   0.0000000), wk =   0.0625000
        k(    4) = (   0.0000000   0.3843878   0.0000000), wk =   0.0625000
        k(    5) = (   0.0000000  -0.5125170   0.0000000), wk =   0.0312500
        k(    6) = (   0.1250000   0.0000000   0.0000000), wk =   0.0625000
        k(    7) = (   0.1250000   0.1281293   0.0000000), wk =   0.1250000
        k(    8) = (   0.1250000   0.2562585   0.0000000), wk =   0.1250000
        k(    9) = (   0.1250000   0.3843878   0.0000000), wk =   0.1250000
        k(   10) = (   0.1250000  -0.5125170   0.0000000), wk =   0.0625000
        k(   11) = (   0.2500000   0.0000000   0.0000000), wk =   0.0625000
        k(   12) = (   0.2500000   0.1281293   0.0000000), wk =   0.1250000
        k(   13) = (   0.2500000   0.2562585   0.0000000), wk =   0.1250000
        k(   14) = (   0.2500000   0.3843878   0.0000000), wk =   0.1250000
        k(   15) = (   0.2500000  -0.5125170   0.0000000), wk =   0.0625000
        k(   16) = (   0.3750000   0.0000000   0.0000000), wk =   0.0625000
        k(   17) = (   0.3750000   0.1281293   0.0000000), wk =   0.1250000
        k(   18) = (   0.3750000   0.2562585   0.0000000), wk =   0.1250000
        k(   19) = (   0.3750000   0.3843878   0.0000000), wk =   0.1250000
        k(   20) = (   0.3750000  -0.5125170   0.0000000), wk =   0.0625000
        k(   21) = (  -0.5000000   0.0000000   0.0000000), wk =   0.0312500
        k(   22) = (  -0.5000000   0.1281293   0.0000000), wk =   0.0625000
        k(   23) = (  -0.5000000   0.2562585   0.0000000), wk =   0.0625000
        k(   24) = (  -0.5000000   0.3843878   0.0000000), wk =   0.0625000
        k(   25) = (  -0.5000000  -0.5125170   0.0000000), wk =   0.0312500

     Initial potential from superposition of free atoms

     starting charge  228.84827, renormalised to  229.00000

     negative rho (up, down):  8.955E-02 0.000E+00
     Starting wfcs are  201 randomized atomic wfcs

     Self-consistent Calculation

     iteration #  1     ecut=    60.00 Ry     beta= 0.20
     Davidson diagonalization with overlap
     ethr =  1.00E-02,  avg # of iterations =  2.0

     negative rho (up, down):  8.737E-02 0.000E+00

     total energy              =   -1869.49894534 Ry
     Harris-Foulkes estimate   =   -1871.05408706 Ry
     estimated scf accuracy    <      13.03173487 Ry

[...]

     iteration # 23     ecut=    60.00 Ry     beta= 0.20
     Davidson diagonalization with overlap
     c_bands:  2 eigenvalues not converged
     ethr =  1.62E-06,  avg # of iterations =  6.0

[...]

     iteration # 29     ecut=    60.00 Ry     beta= 0.20
     Davidson diagonalization with overlap
     c_bands:  1 eigenvalues not converged
     ethr =  3.05E-08,  avg # of iterations =  6.4

[...]

     total energy              =   -1868.76360907 Ry
     Harris-Foulkes estimate   =   -1868.76361007 Ry
     estimated scf accuracy    <       0.00000159 Ry

     iteration # 36     ecut=    60.00 Ry     beta= 0.20
     Davidson diagonalization with overlap
     ethr =  6.92E-10,  avg # of iterations =  2.2

[...]

     End of self-consistent calculation

          k = 0.0000 0.0000 0.0000 ( 34859 PWs)   bands (ev):

   -38.0927 -38.0398 -22.7319 -22.7249 -22.5293 -22.4514 -18.6259 -18.5783
   -18.0980 -18.0885 -18.0460 -18.0337 -15.4183 -15.3812 -14.4606 -14.4204
   -14.2154 -14.2112 -14.2048 -14.1683 -14.0787 -13.9427 -13.9034 -13.7136
   -13.7074 -13.4075 -12.3178  -7.9522  -7.9442  -7.7905  -7.7487  -7.7241
    -7.7175  -7.6974  -7.6909  -7.4981  -7.4779  -7.3424  -7.2769  -2.0491
    -2.0176  -2.0120  -1.9829  -1.8762  -1.8378  -1.8155  -1.8091  -1.7632
    -1.7351  -1.6857  -1.6475  -1.4574  -0.8530  -0.8090  -0.4132  -0.4043
    -0.3355  -0.0695  -0.0363  -0.0241  -0.0197   0.0126   0.0155   0.1747
     0.1765   0.2336   0.2411   0.2459   0.2501   0.2522   0.3166   0.3182
     0.3348   0.3439   0.4410   0.4426   0.4499   0.4507   0.5534   0.5717
     0.5904   0.5910   0.5977   0.6100   0.6380   0.6807   0.7059   0.7174
     1.0618   1.1586   1.1872   1.2693   1.2731   1.2962   1.3294   1.3621
     1.3756   1.4081   1.4306   1.5197   1.5290   1.5376   1.5416   1.5431
     1.5798   1.9774   2.0067   2.0299   2.0338   2.1671   2.2292   2.2328
     2.3714   2.5472   2.6593   2.6824   2.7211   2.7399   2.8089   5.2870
     5.3361   5.5302   5.9400   6.0940   6.7185   6.7310   6.9664   7.0804
     7.4537   7.5556   8.2026   8.2097   8.2521   8.3909   8.6344   8.7249
     8.7587   8.9926

[...]

          k = 0.3750-0.5125 0.0000 ( 35078 PWs)   bands (ev):

[...]

          k =-0.5000 0.0000 0.0000 ( 34974 PWs)   bands (ev):

[...]

          k =-0.5000-0.5125 0.0000 ( 35092 PWs)   bands (ev):

   -38.0648 -38.0119 -22.4899 -22.4827 -22.2913 -22.2374 -18.6477 -18.6211
   -18.5941 -18.5719 -18.1451 -18.0955 -14.4748 -14.4606 -14.4466 -14.4152
   -14.2075 -14.2054 -13.9622 -13.9290 -13.9060 -13.8564 -13.8135 -13.5965
   -13.5866 -13.5096 -12.4363  -8.6837  -8.6773  -8.4520  -8.3947  -8.3879
    -8.1973  -8.1546  -8.0530  -7.9311  -7.9226  -7.7636  -7.6835  -4.1620
    -4.1158  -3.5774  -3.5161  -2.6842  -2.6817  -2.6746  -2.4780  -2.4401
    -2.2957  -2.2869  -2.1943  -2.1653  -1.7994  -1.7990  -1.7682  -1.7260
    -1.4348  -1.0182  -0.9833  -0.8940  -0.8607  -0.7662  -0.6919  -0.6724
    -0.6444  -0.5724  -0.5438  -0.5143  -0.4625  -0.4564  -0.4529   0.0937
     0.1816   0.1869   0.3082   0.5339   0.7858   0.9597   1.2201   1.2601
     1.4419   1.4728   1.5393   1.5513   1.5623   1.5673   1.5745   1.5967
     1.6101   1.7039   1.7739   1.8275   1.8586   1.8838   1.9030   2.0680
     2.0841   2.0875   2.0949   2.1025   2.1049   2.1631   2.2675   2.3710
     2.6059   2.6158   2.7135   2.7219   2.7329   2.7703   2.9296   2.9976
     3.0291   3.0791   3.5988   4.7921   4.8077   4.8962   4.9056   5.8498
     5.8568   5.8739   6.6327   6.7218   8.3043   8.4501   8.4551   8.4628
     8.7881   8.9970   9.2047   9.2786   9.3392   9.3827   9.5105   9.5788
     9.6038   9.9735

     the Fermi energy is     3.0105 ev

!    total energy              =   -1868.76360865 Ry
     Harris-Foulkes estimate   =   -1868.76360913 Ry
     estimated scf accuracy    <       0.00000073 Ry

     The total energy is the sum of the following terms:

     one-electron contribution =  -30376.55876993 Ry
     hartree contribution      =   15343.33691739 Ry
     xc contribution           =    -642.21573072 Ry
     ewald contribution        =   13806.68419720 Ry
     smearing contrib. (-TS)   =      -0.01022258 Ry

     convergence has been achieved in  36 iterations

     negative rho (up, down):  9.053E-02 0.000E+00

     Forces acting on atoms (cartesian axes, Ry/au):

     atom    1 type  3   force =     0.00000000    0.00000000   -0.00005161
     atom    2 type  2   force =     0.00000000    0.00000000    0.00006134
     atom    3 type  3   force =     0.00000000    0.00000000    0.00019594
     atom    4 type  1   force =     0.00000000    0.00000000   -0.00013686
     atom    5 type  2   force =     0.00000000    0.00000000   -0.00138732
     atom    6 type  3   force =     0.00000000    0.00000000    0.00095396
     atom    7 type  3   force =     0.00000000    0.00000000    0.00062038
     atom    8 type  4   force =     0.00000000    0.00000000   -0.00157978
     atom    9 type  3   force =     0.00000000    0.00000000    0.00276520
     atom   10 type  3   force =     0.00000000    0.00000000    0.00217652
     atom   11 type  2   force =     0.00000000    0.00000000   -0.00121610
     atom   12 type  1   force =     0.00000000    0.00000000    0.01494097
     atom   13 type  3   force =     0.00000000    0.00000000   -0.01356304
     atom   14 type  3   force =     0.00000000    0.00000000    0.02009339
     atom   15 type  2   force =     0.00000000    0.00000000    0.00792612
     atom   16 type  3   force =     0.00000000    0.00000000   -0.00110554
     atom   17 type  1   force =     0.00000000    0.00000000   -0.02030441
     atom   18 type  2   force =     0.00000000    0.00000000   -0.01807647
     atom   19 type  3   force =     0.00000000    0.00000000    0.00473198
     atom   20 type  3   force =     0.00000000    0.00000000    0.00266516
     atom   21 type  4   force =     0.00000000    0.00000000   -0.00089463
     atom   22 type  3   force =     0.00000000    0.00000000   -0.00002292
     atom   23 type  3   force =     0.00000000    0.00000000    0.00059536
     atom   24 type  2   force =     0.00000000    0.00000000    0.00097937
     atom   25 type  1   force =     0.00000000    0.00000000    0.00006777
     atom   26 type  3   force =     0.00000000    0.00000000   -0.00117609
     atom   27 type  2   force =     0.00000000    0.00000000    0.00057407
     atom   28 type  3   force =     0.00000000    0.00000000    0.00016725

     Total force =     0.040829     Total SCF correction =     0.003767

     Computing stress (Cartesian axis) and pressure

     negative rho (up, down):  9.053E-02 0.000E+00
          total   stress  (Ry/bohr**3)                   (kbar)     P=       -5.49
   0.00000905   0.00000000   0.00000000            1.33        0.00        0.00
   0.00000000  -0.00006882   0.00000000            0.00      -10.12        0.00
   0.00000000   0.00000000  -0.00005211            0.00        0.00       -7.67

     General routines

     Parallel routines

   This run was terminated on:  17:26:13   5May2021

   JOB DONE.
[1620249973.504935] [holy7c10410:211291:0]          mpool.c:43   UCX  WARN  object 0x3501900 was not returned to mpool ucp_requests
[1620249973.505677] [holy7c10101:156755:0]          mpool.c:43   UCX  WARN  object 0x2bdf880 was not returned to mpool ucp_requests
[1620249973.505691] [holy7c10101:156755:0]          mpool.c:43   UCX  WARN  object 0x2bdff80 was not returned to mpool ucp_requests
[1620249973.509081] [holy7c10204:9263 :0]          mpool.c:43   UCX  WARN  object 0x4454700 was not returned to mpool ucp_requests
[1620249973.509099] [holy7c10204:9263 :0]          mpool.c:43   UCX  WARN  object 0x4454c40 was not returned to mpool ucp_requests
[1620249973.504738] [holy7c10404:93153:0]          mpool.c:43   UCX  WARN  object 0x387bf80 was not returned to mpool ucp_requests
[1620249973.511682] [holy7c10312:6660 :0]          mpool.c:43   UCX  WARN  object 0x39b8f00 was not returned to mpool ucp_requests
[1620249973.511709] [holy7c10312:6660 :0]          mpool.c:43   UCX  WARN  object 0x39b9280 was not returned to mpool ucp_requests
[1620249973.511793] [holy7c10106:36418:0]          mpool.c:43   UCX  WARN  object 0x4559540 was not returned to mpool ucp_requests
[1620249973.514264] [holy7c10311:237247:0]          mpool.c:43   UCX  WARN  object 0x3e54b00 was not returned to mpool ucp_requests