     Program PWSCF v.6.5 starts on  5May2021 at 17:29:31

     R & G space division:  proc/nbgrp/npool/nimage =      20
     Reading input from YBCO_BaO_cleave_4.0_sep_scf.pwi
Warning: card &IONS ignored
Warning: card     ION_DYNAMICS = 'BFGS' ignored
Warning: card / ignored
Warning: card &CELL ignored
Warning: card     CELL_DYNAMICS = 'BFGS' ignored
Warning: card / ignored

     Current dimensions of program PWSCF are:
     Max number of different atomic species (ntypx) = 10
     Max number of k-points (npk) =  40000
     Max angular momentum in pseudopotentials (lmaxx) =  3

     Message from routine setup:
     using ibrav=0 with symmetry is DISCOURAGED, use correct ibrav instead

     bravais-lattice index     =            0
     lattice parameter (alat)  =       7.3477  a.u.
     unit-cell volume          =    4754.8956 (a.u.)^3
     number of atoms/cell      =           28
     number of atomic types    =            4
     number of electrons       =       229.00
     number of Kohn-Sham states=          138
     kinetic-energy cutoff     =      60.0000  Ry
     charge density cutoff     =     720.0000  Ry
     convergence threshold     =      1.0E-06
     mixing beta               =       0.2000
     number of iterations used =           10  local-TF  mixing
     Exchange-correlation= SLA PW PBE PBE
                           (   1   4   3   4   0   0   0)

     celldm(1)=   7.347715  celldm(2)=   0.000000  celldm(3)=   0.000000
     celldm(4)=   0.000000  celldm(5)=   0.000000  celldm(6)=   0.000000

     crystal axes: (cart. coord. in units of alat)
               a(1) = (   1.000000   0.000000   0.000000 )
               a(2) = (   0.000000   0.975577   0.000000 )
               a(3) = (   0.000000   0.000000  12.286335 )

     reciprocal axes: (cart. coord. in units 2 pi/alat)
               b(1) = (  1.000000  0.000000  0.000000 )
               b(2) = (  0.000000  1.025034  0.000000 )
               b(3) = (  0.000000  0.000000  0.081391 )

     PseudoPot. # 1 for Ba read from file:
     /n/holyscratch01/hoffman_lab/ruizhe/YBCO_Project/pseudo/Ba.pbe-nsp-van.UPF
     MD5 check sum: 2b9c31dd849566dd297d80989662b7a0
     Pseudo is Ultrasoft + core correction, Zval = 10.0
     Generated by new atomic code, or converted to UPF format
     Using radial grid of  907 points,  6 beta functions with:
                l(1) =   0
                l(2) =   0
                l(3) =   1
                l(4) =   1
                l(5) =   2
                l(6) =   2
     Q(r) pseudized with  6 coefficients,  rinner =    1.200   1.200   1.200
                                                       1.200   1.200

     PseudoPot. # 2 for Cu read from file:
     /n/holyscratch01/hoffman_lab/ruizhe/YBCO_Project/pseudo/Cu.pbe-n-van_ak.UPF
     MD5 check sum: 34e3282627ffb533726feb647e090d62
     Pseudo is Ultrasoft + core correction, Zval = 11.0
     Generated by new atomic code, or converted to UPF format
     Using radial grid of  867 points,  6 beta functions with:
                l(1) =   0
                l(2) =   0
                l(3) =   1
                l(4) =   1
                l(5) =   2
                l(6) =   2
     Q(r) pseudized with  8 coefficients,  rinner =    1.400   1.400   1.400
                                                       1.400   1.400

     PseudoPot. # 3 for O  read from file:
     /n/holyscratch01/hoffman_lab/ruizhe/YBCO_Project/pseudo/O.pbe-van_ak.UPF
     MD5 check sum: 783ce7fe4c79b6a4916957118fed0856
     Pseudo is Ultrasoft, Zval =  6.0
     Generated by new atomic code, or converted to UPF format
     Using radial grid of  737 points,  4 beta functions with:
                l(1) =   0
                l(2) =   0
                l(3) =   1
                l(4) =   1
     Q(r) pseudized with  8 coefficients,  rinner =    0.800   0.800   0.800

     PseudoPot. # 4 for Y  read from file:
     /n/holyscratch01/hoffman_lab/ruizhe/YBCO_Project/pseudo/Y.pbe-nsp-van.UPF
     MD5 check sum: 4412fed3ab108fed87a1b7d6a69a4a38
     Pseudo is Ultrasoft + core correction, Zval = 11.0
     Generated by new atomic code, or converted to UPF format
     Using radial grid of  885 points,  6 beta functions with:
                l(1) =   0
                l(2) =   0
                l(3) =   1
                l(4) =   1
                l(5) =   2
                l(6) =   2
     Q(r) pseudized with  6 coefficients,  rinner =    1.200   1.200   1.200
                                                       1.200   1.200

     atomic species   valence    mass     pseudopotential
        Ba            10.00   137.32700     Ba( 1.00)
        Cu            11.00    63.54600     Cu( 1.00)
        O              6.00    15.99900     O ( 1.00)
        Y             11.00    88.90584     Y ( 1.00)

      4 Sym. Ops. (no inversion) found

   Cartesian axes

     site n.     atom                  positions (alat units)
         1           O   tau(   1) = (   0.0000000   0.4877884  -0.0257983  )
         2           Cu  tau(   2) = (   0.0000000   0.0000000   0.0215779  )
         3           O   tau(   3) = (   0.0000000   0.0000000   0.5073114  )
         4           Ba  tau(   4) = (   0.4999996   0.4877884   0.5319677  )
         5           Cu  tau(   5) = (   0.0000000   0.0000000   1.0495845  )
         6           O   tau(   6) = (   0.4999996   0.0000000   1.1181579  )
         7           O   tau(   7) = (   0.0000000   0.4877884   1.1273137  )
         8           Y   tau(   8) = (   0.4999996   0.4877884   1.4938777  )
         9           O   tau(   9) = (   0.0000000   0.4877884   1.8497402  )
        10           O   tau(  10) = (   0.4999996   0.0000000   1.8692709  )
        11           Cu  tau(  11) = (   0.0000000   0.0000000   1.9417560  )
        12           Ba  tau(  12) = (   0.4999996   0.4877884   2.4526063  )
        13           O   tau(  13) = (   0.0000000   0.0000000   2.5103470  )
        14           O   tau(  14) = (   0.0000000   0.4877884   2.9968469  )
        15           Cu  tau(  15) = (   0.0000000   0.0000000   2.9968521  )
        16           O   tau(  16) = (   0.0000000   0.0000000   3.4833288  )
        17           Ba  tau(  17) = (   0.4999996   0.4877884   3.5410618  )
        18           Cu  tau(  18) = (   0.0000000   0.0000000   5.0806774  )
        19           O   tau(  19) = (   0.4999996   0.0000000   5.1531497  )
        20           O   tau(  20) = (   0.0000000   0.4877884   5.1726624  )
        21           Y   tau(  21) = (   0.4999996   0.4877884   5.5285275  )
        22           O   tau(  22) = (   0.0000000   0.4877884   5.8950914  )
        23           O   tau(  23) = (   0.4999996   0.0000000   5.9042601  )
        24           Cu  tau(  24) = (   0.0000000   0.0000000   5.9728386  )
        25           Ba  tau(  25) = (   0.4999996   0.4877884   6.4904400  )
        26           O   tau(  26) = (   0.0000000   0.0000000   6.5150964  )
        27           Cu  tau(  27) = (   0.0000000   0.0000000   7.0008016  )
        28           O   tau(  28) = (   0.0000000   0.4877884   7.0481829  )

     number of k points=    25  Gaussian smearing, width (Ry)=  0.0100
                       cart. coord. in units 2pi/alat
        k(    1) = (   0.0000000   0.0000000   0.0000000), wk =   0.0312500
        k(    2) = (   0.0000000   0.1281293   0.0000000), wk =   0.0625000
        k(    3) = (   0.0000000   0.2562585   0.0000000), wk =   0.0625000
        k(    4) = (   0.0000000   0.3843878   0.0000000), wk =   0.0625000
        k(    5) = (   0.0000000  -0.5125170   0.0000000), wk =   0.0312500
        k(    6) = (   0.1250000   0.0000000   0.0000000), wk =   0.0625000
        k(    7) = (   0.1250000   0.1281293   0.0000000), wk =   0.1250000
        k(    8) = (   0.1250000   0.2562585   0.0000000), wk =   0.1250000
        k(    9) = (   0.1250000   0.3843878   0.0000000), wk =   0.1250000
        k(   10) = (   0.1250000  -0.5125170   0.0000000), wk =   0.0625000
        k(   11) = (   0.2500000   0.0000000   0.0000000), wk =   0.0625000
        k(   12) = (   0.2500000   0.1281293   0.0000000), wk =   0.1250000
        k(   13) = (   0.2500000   0.2562585   0.0000000), wk =   0.1250000
        k(   14) = (   0.2500000   0.3843878   0.0000000), wk =   0.1250000
        k(   15) = (   0.2500000  -0.5125170   0.0000000), wk =   0.0625000
        k(   16) = (   0.3750000   0.0000000   0.0000000), wk =   0.0625000
        k(   17) = (   0.3750000   0.1281293   0.0000000), wk =   0.1250000
        k(   18) = (   0.3750000   0.2562585   0.0000000), wk =   0.1250000
        k(   19) = (   0.3750000   0.3843878   0.0000000), wk =   0.1250000
        k(   20) = (   0.3750000  -0.5125170   0.0000000), wk =   0.0625000
        k(   21) = (  -0.5000000   0.0000000   0.0000000), wk =   0.0312500
        k(   22) = (  -0.5000000   0.1281293   0.0000000), wk =   0.0625000
        k(   23) = (  -0.5000000   0.2562585   0.0000000), wk =   0.0625000
        k(   24) = (  -0.5000000   0.3843878   0.0000000), wk =   0.0625000
        k(   25) = (  -0.5000000  -0.5125170   0.0000000), wk =   0.0312500

     Initial potential from superposition of free atoms

     starting charge  228.84827, renormalised to  229.00000

     negative rho (up, down):  8.950E-02 0.000E+00
     Starting wfcs are  201 randomized atomic wfcs

     Self-consistent Calculation

     iteration #  1     ecut=    60.00 Ry     beta= 0.20
     Davidson diagonalization with overlap
     ethr =  1.00E-02,  avg # of iterations =  2.0

     negative rho (up, down):  8.741E-02 0.000E+00

     total energy              =   -1869.58462078 Ry
     Harris-Foulkes estimate   =   -1871.19648175 Ry
     estimated scf accuracy    <      15.38285801 Ry

[...]

     iteration # 17     ecut=    60.00 Ry     beta= 0.20
     Davidson diagonalization with overlap
     c_bands:  1 eigenvalues not converged
     ethr =  4.17E-06,  avg # of iterations =  3.9

[...]

     iteration # 21     ecut=    60.00 Ry     beta= 0.20
     Davidson diagonalization with overlap
     c_bands:  1 eigenvalues not converged
     ethr =  2.54E-06,  avg # of iterations =  5.2

[...]

     total energy              =   -1868.77348168 Ry
     Harris-Foulkes estimate   =   -1868.77348242 Ry
     estimated scf accuracy    <       0.00000271 Ry

     iteration # 35     ecut=    60.00 Ry     beta= 0.20
     Davidson diagonalization with overlap
     ethr =  1.18E-09,  avg # of iterations =  2.7

[...]

     End of self-consistent calculation

          k = 0.0000 0.0000 0.0000 ( 37185 PWs)   bands (ev):

   -38.3890 -38.0502 -24.2573 -23.0426 -23.0142 -22.9431 -18.9239 -18.5554
   -18.3933 -18.3839 -18.0732 -18.0562 -15.7189 -15.4415 -15.0025 -14.7596
   -14.5400 -14.5267 -14.5043 -14.3476 -14.3291 -14.2430 -14.0248 -14.0203
   -13.9269 -13.7775 -13.7630  -9.5654  -9.0892  -9.0671  -8.2667  -8.2294
    -8.2183  -8.0349  -8.0087  -8.0082  -7.9809  -7.8966  -7.8739  -2.3475
    -2.3134  -2.1798  -2.1390  -2.1276  -2.1275  -2.1259  -2.0755  -2.0578
    -1.9824  -1.9603  -1.7445  -1.6137  -1.2084  -1.1493  -0.8639  -0.8158
    -0.7503  -0.7325  -0.7244  -0.6803  -0.3745  -0.3353  -0.3332  -0.2986
    -0.2960  -0.1938  -0.1799  -0.1349  -0.1327  -0.1184  -0.0350   0.0183
     0.0240   0.0292   0.0912   0.1052   0.1158   0.1308   0.1442   0.1741
     0.2288   0.2677   0.2709   0.2794   0.2951   0.3938   0.3961   0.5387
     0.5870   0.6815   0.7736   0.8139   0.9640   0.9662   0.9991   1.0887
     1.0939   1.1274   1.1309   1.1318   1.2131   1.2377   1.2708   1.2955
     1.5006   1.5554   1.6489   1.6921   1.7196   1.7649   1.7900   1.9181
     1.9422   1.9509   2.0541   2.0853   2.1222   2.4014   2.4036   4.1069
     4.9856   5.0210   5.1201   5.5523   5.6797   6.1549   6.4159   6.4546
     6.7903   7.1482   7.4683   7.5117   7.7789   7.9100   7.9102   8.0984
     8.2008   8.3402

[...]

          k = 0.3750-0.5125 0.0000 ( 37434 PWs)   bands (ev):

[...]

          k =-0.5000 0.0000 0.0000 ( 37306 PWs)   bands (ev):

[...]

          k =-0.5000-0.5125 0.0000 ( 37436 PWs)   bands (ev):

   -38.3611 -38.0221 -24.0519 -22.8006 -22.7719 -22.7076 -18.9432 -18.9164
   -18.6189 -18.6034 -18.4428 -18.0645 -14.7750 -14.7614 -14.5571 -14.5183
   -14.5124 -14.5011 -14.4998 -14.2597 -14.2065 -14.2018 -13.9649 -13.9145
   -13.9068 -13.8662 -13.7202 -10.0516  -9.7060  -9.4859  -8.9945  -8.9670
    -8.8435  -8.7055  -8.6798  -8.5400  -8.2472  -8.2081  -8.2075  -4.4583
    -4.2707  -3.8761  -3.5025  -3.4945  -2.9994  -2.9938  -2.7875  -2.6024
    -2.5687  -2.5622  -2.4794  -2.2616  -2.1108  -2.1068  -2.0830  -2.0807
    -1.7809  -1.6543  -1.3194  -1.2937  -1.2166  -1.1916  -1.0843  -1.0084
    -0.9883  -0.9316  -0.8501  -0.7761  -0.7716  -0.6347  -0.5724  -0.5515
    -0.5373  -0.1331  -0.1299   0.1489   0.3360   0.4325   0.6285   0.8129
     1.0646   1.1148   1.1412   1.2444   1.2777   1.3002   1.3155   1.3245
     1.3434   1.3561   1.4723   1.4853   1.5125   1.5765   1.6118   1.7356
     1.7648   1.7746   1.7826   1.7923   1.8131   1.8263   1.8505   1.8554
     1.8862   2.1391   2.2091   2.2316   2.2904   2.2954   2.3987   2.4031
     2.7306   2.7405   4.1092   4.3757   4.5070   4.5941   4.5971   4.7307
     5.5393   5.5508   6.1952   6.3682   6.6527   6.7704   7.5904   8.1324
     8.1457   8.4615   8.6154   8.7168   8.7768   8.9196   8.9245   8.9802
     9.2292   9.2483

     the Fermi energy is     2.7013 ev

!    total energy              =   -1868.77348144 Ry
     Harris-Foulkes estimate   =   -1868.77348187 Ry
     estimated scf accuracy    <       0.00000089 Ry

     The total energy is the sum of the following terms:

     one-electron contribution =  -25988.00034903 Ry
     hartree contribution      =   13145.70000403 Ry
     xc contribution           =    -642.20284601 Ry
     ewald contribution        =   11615.73823503 Ry
     smearing contrib. (-TS)   =      -0.00852546 Ry

     convergence has been achieved in  35 iterations

     negative rho (up, down):  9.046E-02 0.000E+00

     Forces acting on atoms (cartesian axes, Ry/au):

     atom    1 type  3   force =     0.00000000    0.00000000   -0.00014483
     atom    2 type  2   force =     0.00000000    0.00000000    0.00012803
     atom    3 type  3   force =     0.00000000    0.00000000   -0.00005669
     atom    4 type  1   force =     0.00000000    0.00000000   -0.00022421
     atom    5 type  2   force =     0.00000000    0.00000000   -0.00101628
     atom    6 type  3   force =     0.00000000    0.00000000    0.00037057
     atom    7 type  3   force =     0.00000000    0.00000000   -0.00005596
     atom    8 type  4   force =     0.00000000    0.00000000   -0.00082984
     atom    9 type  3   force =     0.00000000    0.00000000    0.00106645
     atom   10 type  3   force =     0.00000000    0.00000000    0.00139760
     atom   11 type  2   force =     0.00000000    0.00000000   -0.00123268
     atom   12 type  1   force =     0.00000000    0.00000000   -0.00501836
     atom   13 type  3   force =     0.00000000    0.00000000    0.00285916
     atom   14 type  3   force =     0.00000000    0.00000000    0.01593493
     atom   15 type  2   force =     0.00000000    0.00000000   -0.01432565
     atom   16 type  3   force =     0.00000000    0.00000000    0.03691760
     atom   17 type  1   force =     0.00000000    0.00000000   -0.03501002
     atom   18 type  2   force =     0.00000000    0.00000000    0.00374577
     atom   19 type  3   force =     0.00000000    0.00000000    0.01673364
     atom   20 type  3   force =     0.00000000    0.00000000    0.00853689
     atom   21 type  4   force =     0.00000000    0.00000000   -0.04141614
     atom   22 type  3   force =     0.00000000    0.00000000    0.00388433
     atom   23 type  3   force =     0.00000000    0.00000000    0.00643894
     atom   24 type  2   force =     0.00000000    0.00000000    0.00354131
     atom   25 type  1   force =     0.00000000    0.00000000   -0.00177442
     atom   26 type  3   force =     0.00000000    0.00000000    0.00131525
     atom   27 type  2   force =     0.00000000    0.00000000   -0.00217527
     atom   28 type  3   force =     0.00000000    0.00000000    0.00040989

     Total force =     0.072448     Total SCF correction =     0.005171

     Computing stress (Cartesian axis) and pressure

     negative rho (up, down):  9.046E-02 0.000E+00
          total   stress  (Ry/bohr**3)                   (kbar)     P=       -7.24
  -0.00008256   0.00000000   0.00000000          -12.15        0.00        0.00
   0.00000000  -0.00004106   0.00000000            0.00       -6.04        0.00
   0.00000000   0.00000000  -0.00002408            0.00        0.00       -3.54

     General routines

     Parallel routines

   This run was terminated on:  17:45:37   5May2021

   JOB DONE.
[1620251137.206489] [holy7c06101:69638:0]          mpool.c:43   UCX  WARN  object 0x2b38c00 was not returned to mpool ucp_requests
[1620251137.207483] [holy7c06101:69635:0]          mpool.c:43   UCX  WARN  object 0x2bbe480 was not returned to mpool ucp_requests
[1620251137.205812] [holy7c06101:69637:0]          mpool.c:43   UCX  WARN  object 0x3d57540 was not returned to mpool ucp_requests
[1620251137.205828] [holy7c06101:69637:0]          mpool.c:43   UCX  WARN  object 0x3d57700 was not returned to mpool ucp_requests
[1620251137.208583] [holy7c06107:227108:0]          mpool.c:43   UCX  WARN  object 0x40b3bc0 was not returned to mpool ucp_requests
[1620251137.208278] [holy7c04404:123855:0]          mpool.c:43   UCX  WARN  object 0x3529980 was not returned to mpool ucp_requests
[1620251137.208774] [holy7c04404:123856:0]          mpool.c:43   UCX  WARN  object 0x38c4600 was not returned to mpool ucp_requests
[1620251137.209699] [holy7c04404:123860:0]          mpool.c:43   UCX  WARN  object 0x46e2580 was not returned to mpool ucp_requests
[1620251137.209712] [holy7c04404:123860:0]          mpool.c:43   UCX  WARN  object 0x46e2900 was not returned to mpool ucp_requests