     Program PWSCF v.6.5 starts on  5May2021 at 17:23:47

     R & G space division:  proc/nbgrp/npool/nimage =      20
     Reading input from YBCO_Y_cleave_1.5_sep_scf.pwi
Warning: card &IONS ignored
Warning: card     ION_DYNAMICS = 'BFGS' ignored
Warning: card / ignored
Warning: card &CELL ignored
Warning: card     CELL_DYNAMICS = 'BFGS' ignored
Warning: card / ignored

     Current dimensions of program PWSCF are:
     Max number of different atomic species (ntypx) = 10
     Max number of k-points (npk) =  40000
     Max angular momentum in pseudopotentials (lmaxx) =  3

     Message from routine setup:
     using ibrav=0 with symmetry is DISCOURAGED, use correct ibrav instead

     bravais-lattice index     =            0
     lattice parameter (alat)  =       7.3477  a.u.
     unit-cell volume          =    4506.0642 (a.u.)^3
     number of atoms/cell      =           28
     number of atomic types    =            4
     number of electrons       =       229.00
     number of Kohn-Sham states=          138
     kinetic-energy cutoff     =      60.0000  Ry
     charge density cutoff     =     720.0000  Ry
     convergence threshold     =      1.0E-06
     mixing beta               =       0.2000
     number of iterations used =           10  local-TF  mixing
     Exchange-correlation= SLA PW PBE PBE
                           (   1   4   3   4   0   0   0)

     celldm(1)=   7.347715  celldm(2)=   0.000000  celldm(3)=   0.000000
     celldm(4)=   0.000000  celldm(5)=   0.000000  celldm(6)=   0.000000

     crystal axes: (cart. coord. in units of alat)
               a(1) = (   1.000000   0.000000   0.000000 )
               a(2) = (   0.000000   0.975577   0.000000 )
               a(3) = (   0.000000   0.000000  11.643372 )

     reciprocal axes: (cart. coord. in units 2 pi/alat)
               b(1) = (  1.000000  0.000000  0.000000 )
               b(2) = (  0.000000  1.025034  0.000000 )
               b(3) = (  0.000000  0.000000  0.085886 )

     PseudoPot. # 1 for Ba read from file:
     /n/holyscratch01/hoffman_lab/ruizhe/YBCO_Project/pseudo/Ba.pbe-nsp-van.UPF
     MD5 check sum: 2b9c31dd849566dd297d80989662b7a0
     Pseudo is Ultrasoft + core correction, Zval = 10.0
     Generated by new atomic code, or converted to UPF format
     Using radial grid of  907 points,  6 beta functions with:
                l(1) =   0
                l(2) =   0
                l(3) =   1
                l(4) =   1
                l(5) =   2
                l(6) =   2
     Q(r) pseudized with  6 coefficients,  rinner =    1.200   1.200   1.200
                                                       1.200   1.200

     PseudoPot. # 2 for Cu read from file:
     /n/holyscratch01/hoffman_lab/ruizhe/YBCO_Project/pseudo/Cu.pbe-n-van_ak.UPF
     MD5 check sum: 34e3282627ffb533726feb647e090d62
     Pseudo is Ultrasoft + core correction, Zval = 11.0
     Generated by new atomic code, or converted to UPF format
     Using radial grid of  867 points,  6 beta functions with:
                l(1) =   0
                l(2) =   0
                l(3) =   1
                l(4) =   1
                l(5) =   2
                l(6) =   2
     Q(r) pseudized with  8 coefficients,  rinner =    1.400   1.400   1.400
                                                       1.400   1.400

     PseudoPot. # 3 for O  read from file:
     /n/holyscratch01/hoffman_lab/ruizhe/YBCO_Project/pseudo/O.pbe-van_ak.UPF
     MD5 check sum: 783ce7fe4c79b6a4916957118fed0856
     Pseudo is Ultrasoft, Zval =  6.0
     Generated by new atomic code, or converted to UPF format
     Using radial grid of  737 points,  4 beta functions with:
                l(1) =   0
                l(2) =   0
                l(3) =   1
                l(4) =   1
     Q(r) pseudized with  8 coefficients,  rinner =    0.800   0.800   0.800

     PseudoPot. # 4 for Y  read from file:
     /n/holyscratch01/hoffman_lab/ruizhe/YBCO_Project/pseudo/Y.pbe-nsp-van.UPF
     MD5 check sum: 4412fed3ab108fed87a1b7d6a69a4a38
     Pseudo is Ultrasoft + core correction, Zval = 11.0
     Generated by new atomic code, or converted to UPF format
     Using radial grid of  885 points,  6 beta functions with:
                l(1) =   0
                l(2) =   0
                l(3) =   1
                l(4) =   1
                l(5) =   2
                l(6) =   2
     Q(r) pseudized with  6 coefficients,  rinner =    1.200   1.200   1.200
                                                       1.200   1.200

     atomic species   valence    mass     pseudopotential
        Ba            10.00   137.32700     Ba( 1.00)
        Cu            11.00    63.54600     Cu( 1.00)
        O              6.00    15.99900     O ( 1.00)
        Y             11.00    88.90584     Y ( 1.00)

      4 Sym. Ops. (no inversion) found

   Cartesian axes

     site n.     atom                  positions (alat units)
         1           O   tau(   1) = (   0.0000000   0.4877884  -0.0257983  )
         2           Cu  tau(   2) = (   0.0000000   0.0000000   0.0215779  )
         3           O   tau(   3) = (   0.0000000   0.0000000   0.5073114  )
         4           Ba  tau(   4) = (   0.4999996   0.4877884   0.5319677  )
         5           Cu  tau(   5) = (   0.0000000   0.0000000   1.0495845  )
         6           O   tau(   6) = (   0.4999996   0.0000000   1.1181579  )
         7           O   tau(   7) = (   0.0000000   0.4877884   1.1273137  )
         8           Y   tau(   8) = (   0.4999996   0.4877884   1.4938777  )
         9           O   tau(   9) = (   0.0000000   0.4877884   1.8497402  )
        10           O   tau(  10) = (   0.4999996   0.0000000   1.8692709  )
        11           Cu  tau(  11) = (   0.0000000   0.0000000   1.9417560  )
        12           Ba  tau(  12) = (   0.4999996   0.4877884   2.4526063  )
        13           O   tau(  13) = (   0.0000000   0.0000000   2.5103470  )
        14           O   tau(  14) = (   0.0000000   0.4877884   2.9968469  )
        15           Cu  tau(  15) = (   0.0000000   0.0000000   2.9968521  )
        16           O   tau(  16) = (   0.0000000   0.0000000   3.4833288  )
        17           Ba  tau(  17) = (   0.4999996   0.4877884   3.5410618  )
        18           Cu  tau(  18) = (   0.0000000   0.0000000   4.0519352  )
        19           O   tau(  19) = (   0.4999996   0.0000000   4.1244075  )
        20           O   tau(  20) = (   0.0000000   0.4877884   4.1439202  )
        21           Y   tau(  21) = (   0.4999996   0.4877884   4.4997853  )
        22           O   tau(  22) = (   0.0000000   0.4877884   5.2521276  )
        23           O   tau(  23) = (   0.4999996   0.0000000   5.2612962  )
        24           Cu  tau(  24) = (   0.0000000   0.0000000   5.3298748  )
        25           Ba  tau(  25) = (   0.4999996   0.4877884   5.8474761  )
        26           O   tau(  26) = (   0.0000000   0.0000000   5.8721325  )
        27           Cu  tau(  27) = (   0.0000000   0.0000000   6.3578377  )
        28           O   tau(  28) = (   0.0000000   0.4877884   6.4052190  )

     number of k points=    25  Gaussian smearing, width (Ry)=  0.0100
                       cart. coord. in units 2pi/alat
        k(    1) = (   0.0000000   0.0000000   0.0000000), wk =   0.0312500
        k(    2) = (   0.0000000   0.1281293   0.0000000), wk =   0.0625000
        k(    3) = (   0.0000000   0.2562585   0.0000000), wk =   0.0625000
        k(    4) = (   0.0000000   0.3843878   0.0000000), wk =   0.0625000
        k(    5) = (   0.0000000  -0.5125170   0.0000000), wk =   0.0312500
        k(    6) = (   0.1250000   0.0000000   0.0000000), wk =   0.0625000
        k(    7) = (   0.1250000   0.1281293   0.0000000), wk =   0.1250000
        k(    8) = (   0.1250000   0.2562585   0.0000000), wk =   0.1250000
        k(    9) = (   0.1250000   0.3843878   0.0000000), wk =   0.1250000
        k(   10) = (   0.1250000  -0.5125170   0.0000000), wk =   0.0625000
        k(   11) = (   0.2500000   0.0000000   0.0000000), wk =   0.0625000
        k(   12) = (   0.2500000   0.1281293   0.0000000), wk =   0.1250000
        k(   13) = (   0.2500000   0.2562585   0.0000000), wk =   0.1250000
        k(   14) = (   0.2500000   0.3843878   0.0000000), wk =   0.1250000
        k(   15) = (   0.2500000  -0.5125170   0.0000000), wk =   0.0625000
        k(   16) = (   0.3750000   0.0000000   0.0000000), wk =   0.0625000
        k(   17) = (   0.3750000   0.1281293   0.0000000), wk =   0.1250000
        k(   18) = (   0.3750000   0.2562585   0.0000000), wk =   0.1250000
        k(   19) = (   0.3750000   0.3843878   0.0000000), wk =   0.1250000
        k(   20) = (   0.3750000  -0.5125170   0.0000000), wk =   0.0625000
        k(   21) = (  -0.5000000   0.0000000   0.0000000), wk =   0.0312500
        k(   22) = (  -0.5000000   0.1281293   0.0000000), wk =   0.0625000
        k(   23) = (  -0.5000000   0.2562585   0.0000000), wk =   0.0625000
        k(   24) = (  -0.5000000   0.3843878   0.0000000), wk =   0.0625000
        k(   25) = (  -0.5000000  -0.5125170   0.0000000), wk =   0.0312500

     Initial potential from superposition of free atoms

     starting charge  228.84827, renormalised to  229.00000

     negative rho (up, down):  8.967E-02 0.000E+00
     Starting wfcs are  201 randomized atomic wfcs

     Self-consistent Calculation

     iteration #  1     ecut=    60.00 Ry     beta= 0.20
     Davidson diagonalization with overlap
     ethr =  1.00E-02,  avg # of iterations =  2.0

     negative rho (up, down):  8.730E-02 0.000E+00

     total energy              =   -1869.44879146 Ry
     Harris-Foulkes estimate   =   -1871.01572348 Ry
     estimated scf accuracy    <      14.10038757 Ry

[...]

     iteration # 21     ecut=    60.00 Ry     beta= 0.20
     Davidson diagonalization with overlap
     c_bands:  1 eigenvalues not converged
     ethr =  3.34E-06,  avg # of iterations =  4.2

[...]

     iteration # 24     ecut=    60.00 Ry     beta= 0.20
     Davidson diagonalization with overlap
     c_bands:  1 eigenvalues not converged
     ethr =  7.35E-07,  avg # of iterations =  3.6

[...]

     total energy              =   -1868.55110608 Ry
     Harris-Foulkes estimate   =   -1868.55110612 Ry
     estimated scf accuracy    <       0.00000188 Ry

     iteration # 36     ecut=    60.00 Ry     beta= 0.20
     Davidson diagonalization with overlap
     ethr =  8.22E-10,  avg # of iterations =  1.0

[...]

     End of self-consistent calculation

          k = 0.0000 0.0000 0.0000 ( 35281 PWs)   bands (ev):

   -41.0280 -37.9487 -22.9673 -22.6036 -22.4652 -22.3757 -21.0675 -20.9280
   -20.9210 -18.4837 -17.9535 -17.9436 -16.1825 -15.2798 -15.2692 -14.4371
   -14.4121 -14.3196 -14.0888 -14.0656 -14.0652 -13.8037 -13.5869 -13.5654
   -13.5209 -13.3006 -13.1323  -8.2856  -7.8982  -7.8909  -7.8250  -7.7373
    -7.5961  -7.5693  -7.5128  -7.4192  -7.4003  -7.3948  -7.3640  -2.9514
    -2.9242  -2.4919  -1.9085  -1.8768  -1.8753  -1.7283  -1.6876  -1.6746
    -1.6209  -1.5540  -1.5435  -0.9174  -0.7958  -0.7224  -0.7008  -0.6555
    -0.4022  -0.3954  -0.3613  -0.2867  -0.2823  -0.2263  -0.1757   0.0649
     0.1023   0.1358   0.1391   0.1674   0.2009   0.2886   0.3035   0.3208
     0.3467   0.3983   0.4552   0.4621   0.5596   0.5686   0.5731   0.6259
     0.6570   0.6856   0.7039   0.7123   0.7171   0.7344   0.7801   0.8019
     0.8335   0.8430   0.9027   1.0771   1.2473   1.2726   1.4033   1.4588
     1.4589   1.5042   1.5372   1.5830   1.6158   1.6594   1.6750   1.8429
     2.0387   2.1024   2.1418   2.1576   2.1845   2.2180   2.2879   2.3559
     2.4383   2.5409   2.5763   2.6047   2.6673   2.7984   2.8427   3.2858
     5.1500   5.3577   5.4449   5.6676   5.8589   5.8655   6.1952   6.8526
     6.9532   6.9557   7.0135   7.0831   7.2416   7.6393   8.1277   8.3230
     8.3491   8.3578

[...]

          k = 0.3750-0.5125 0.0000 ( 35450 PWs)   bands (ev):

[...]

          k =-0.5000 0.0000 0.0000 ( 35346 PWs)   bands (ev):

[...]

          k =-0.5000-0.5125 0.0000 ( 35476 PWs)   bands (ev):

   -41.0073 -37.9208 -22.7328 -22.3615 -22.2294 -22.1305 -21.2085 -21.1710
   -20.8904 -18.5028 -18.4770 -18.0025 -15.4730 -15.4593 -14.3376 -14.3204
   -14.0805 -14.0662 -13.9109 -13.8206 -13.8126 -13.7654 -13.6069 -13.5334
   -13.4691 -13.4691 -13.4474  -8.8654  -8.5816  -8.5557  -8.3714  -8.3533
    -8.3269  -8.2668  -8.0717  -8.0419  -7.8034  -7.7114  -7.4817  -4.7706
    -4.0205  -3.4379  -3.1105  -3.0084  -3.0027  -2.7135  -2.5561  -2.5385
    -2.3455  -2.1656  -2.0438  -1.9326  -1.8560  -1.6731  -1.6503  -1.6388
    -1.6132  -1.5934  -1.3666  -1.0962  -0.8533  -0.7672  -0.7531  -0.6170
    -0.6036  -0.5707  -0.4917  -0.4310  -0.4134  -0.3684  -0.3337  -0.3145
    -0.1468   0.3081   0.3234   0.3411   0.5630   0.8182   0.9142   1.0114
     1.1641   1.1991   1.2507   1.4209   1.5497   1.5807   1.6361   1.6853
     1.7365   1.7421   1.7708   1.9510   1.9903   2.0050   2.0186   2.0311
     2.1084   2.1556   2.2047   2.2158   2.2303   2.2806   2.3262   2.3828
     2.4383   2.6274   2.7239   2.7331   2.7505   2.8409   2.8585   3.1714
     3.2036   3.3558   3.8258   4.3344   4.7039   4.9450   5.0310   5.0724
     5.1910   5.2424   5.2426   5.9775   6.1113   6.1189   6.8069   7.4344
     8.3210   8.5258   8.5802   8.9132   8.9430   9.3429   9.3594   9.3750
     9.4786   9.6861

     the Fermi energy is     3.1386 ev

!    total energy              =   -1868.55110556 Ry
     Harris-Foulkes estimate   =   -1868.55110611 Ry
     estimated scf accuracy    <       0.00000097 Ry

     The total energy is the sum of the following terms:

     one-electron contribution =  -31114.29571617 Ry
     hartree contribution      =   15710.97382989 Ry
     xc contribution           =    -641.94348148 Ry
     ewald contribution        =   14176.72327667 Ry
     smearing contrib. (-TS)   =      -0.00901448 Ry

     convergence has been achieved in  36 iterations

     negative rho (up, down):  8.975E-02 0.000E+00

     Forces acting on atoms (cartesian axes, Ry/au):

     atom    1 type  3   force =     0.00000000    0.00000000   -0.00002976
     atom    2 type  2   force =     0.00000000    0.00000000   -0.00028565
     atom    3 type  3   force =     0.00000000    0.00000000    0.00001488
     atom    4 type  1   force =     0.00000000    0.00000000   -0.00006525
     atom    5 type  2   force =     0.00000000    0.00000000   -0.00025546
     atom    6 type  3   force =     0.00000000    0.00000000    0.00039061
     atom    7 type  3   force =     0.00000000    0.00000000    0.00016228
     atom    8 type  4   force =     0.00000000    0.00000000   -0.00043599
     atom    9 type  3   force =     0.00000000    0.00000000    0.00073187
     atom   10 type  3   force =     0.00000000    0.00000000    0.00105397
     atom   11 type  2   force =     0.00000000    0.00000000   -0.00242232
     atom   12 type  1   force =     0.00000000    0.00000000   -0.00179868
     atom   13 type  3   force =     0.00000000    0.00000000    0.00248656
     atom   14 type  3   force =     0.00000000    0.00000000    0.00656623
     atom   15 type  2   force =     0.00000000    0.00000000   -0.01299114
     atom   16 type  3   force =     0.00000000    0.00000000    0.02224497
     atom   17 type  1   force =     0.00000000    0.00000000   -0.02604724
     atom   18 type  2   force =     0.00000000    0.00000000    0.00193253
     atom   19 type  3   force =     0.00000000    0.00000000    0.07939015
     atom   20 type  3   force =     0.00000000    0.00000000    0.07850820
     atom   21 type  4   force =     0.00000000    0.00000000   -0.04931244
     atom   22 type  3   force =     0.00000000    0.00000000   -0.02450170
     atom   23 type  3   force =     0.00000000    0.00000000   -0.02061309
     atom   24 type  2   force =     0.00000000    0.00000000   -0.02738815
     atom   25 type  1   force =     0.00000000    0.00000000   -0.02823179
     atom   26 type  3   force =     0.00000000    0.00000000   -0.00032356
     atom   27 type  2   force =     0.00000000    0.00000000   -0.00134935
     atom   28 type  3   force =     0.00000000    0.00000000    0.00256934

     Total force =     0.137424     Total SCF correction =     0.004858

     Computing stress (Cartesian axis) and pressure

     negative rho (up, down):  8.975E-02 0.000E+00
          total   stress  (Ry/bohr**3)                   (kbar)     P=      -11.89
  -0.00001828   0.00000000   0.00000000           -2.69        0.00        0.00
   0.00000000   0.00000504   0.00000000            0.00        0.74        0.00
   0.00000000   0.00000000  -0.00022931            0.00        0.00      -33.73

     General routines

     Parallel routines

   This run was terminated on:  17:35:52   5May2021

   JOB DONE.
[1620250552.957015] [holy7c06503:231218:0]          mpool.c:43   UCX  WARN  object 0x40d9740 was not returned to mpool ucp_requests
[1620250552.960236] [holy7c06606:258253:0]          mpool.c:43   UCX  WARN  object 0x38d3d00 was not returned to mpool ucp_requests
[1620250552.961979] [holy7c06609:135645:0]          mpool.c:43   UCX  WARN  object 0x2ec0980 was not returned to mpool ucp_requests
[1620250552.961601] [holy7c06509:61706:0]          mpool.c:43   UCX  WARN  object 0x298dd40 was not returned to mpool ucp_requests
[1620250552.961625] [holy7c06509:61706:0]          mpool.c:43   UCX  WARN  object 0x298e0c0 was not returned to mpool ucp_requests
[1620250552.972740] [holy7c06511:45106:0]          mpool.c:43   UCX  WARN  object 0x3884000 was not returned to mpool ucp_requests
[1620250552.963884] [holy7c06503:231217:0]          mpool.c:43   UCX  WARN  object 0x342d140 was not returned to mpool ucp_requests
[1620250552.960688] [holy7c06609:135644:0]          mpool.c:43   UCX  WARN  object 0x43a5b80 was not returned to mpool ucp_requests
[1620250552.962621] [holy7c06609:135643:0]          mpool.c:43   UCX  WARN  object 0x2c80040 was not returned to mpool ucp_requests
[1620250552.962641] [holy7c06609:135643:0]          mpool.c:43   UCX  WARN  object 0x2c80740 was not returned to mpool ucp_requests