     Program PWSCF v.6.5 starts on  5May2021 at 17:23:49

     R & G space division:  proc/nbgrp/npool/nimage =      20
     Reading input from YBCO_Y_cleave_3.0_sep_scf.pwi
Warning: card &IONS ignored
Warning: card     ION_DYNAMICS = 'BFGS' ignored
Warning: card / ignored
Warning: card &CELL ignored
Warning: card     CELL_DYNAMICS = 'BFGS' ignored
Warning: card / ignored

     Current dimensions of program PWSCF are:
     Max number of different atomic species (ntypx) = 10
     Max number of k-points (npk) =  40000
     Max angular momentum in pseudopotentials (lmaxx) =  3

     Message from routine setup:
     using ibrav=0 with symmetry is DISCOURAGED, use correct ibrav instead

     bravais-lattice index     =            0
     lattice parameter (alat)  =       7.3477  a.u.
     unit-cell volume          =    4655.3630 (a.u.)^3
     number of atoms/cell      =           28
     number of atomic types    =            4
     number of electrons       =       229.00
     number of Kohn-Sham states=          138
     kinetic-energy cutoff     =      60.0000  Ry
     charge density cutoff     =     720.0000  Ry
     convergence threshold     =      1.0E-06
     mixing beta               =       0.2000
     number of iterations used =           10  local-TF  mixing
     Exchange-correlation= SLA PW PBE PBE
                           (   1   4   3   4   0   0   0)

     celldm(1)=   7.347715  celldm(2)=   0.000000  celldm(3)=   0.000000
     celldm(4)=   0.000000  celldm(5)=   0.000000  celldm(6)=   0.000000

     crystal axes: (cart. coord. in units of alat)
               a(1) = (   1.000000   0.000000   0.000000 )
               a(2) = (   0.000000   0.975577   0.000000 )
               a(3) = (   0.000000   0.000000  12.029150 )

     reciprocal axes: (cart. coord. in units 2 pi/alat)
               b(1) = (  1.000000  0.000000  0.000000 )
               b(2) = (  0.000000  1.025034  0.000000 )
               b(3) = (  0.000000  0.000000  0.083131 )

     PseudoPot. # 1 for Ba read from file:
     /n/holyscratch01/hoffman_lab/ruizhe/YBCO_Project/pseudo/Ba.pbe-nsp-van.UPF
     MD5 check sum: 2b9c31dd849566dd297d80989662b7a0
     Pseudo is Ultrasoft + core correction, Zval = 10.0
     Generated by new atomic code, or converted to UPF format
     Using radial grid of  907 points,  6 beta functions with:
                l(1) =   0
                l(2) =   0
                l(3) =   1
                l(4) =   1
                l(5) =   2
                l(6) =   2
     Q(r) pseudized with  6 coefficients,  rinner =    1.200   1.200   1.200
                                                       1.200   1.200

     PseudoPot. # 2 for Cu read from file:
     /n/holyscratch01/hoffman_lab/ruizhe/YBCO_Project/pseudo/Cu.pbe-n-van_ak.UPF
     MD5 check sum: 34e3282627ffb533726feb647e090d62
     Pseudo is Ultrasoft + core correction, Zval = 11.0
     Generated by new atomic code, or converted to UPF format
     Using radial grid of  867 points,  6 beta functions with:
                l(1) =   0
                l(2) =   0
                l(3) =   1
                l(4) =   1
                l(5) =   2
                l(6) =   2
     Q(r) pseudized with  8 coefficients,  rinner =    1.400   1.400   1.400
                                                       1.400   1.400

     PseudoPot. # 3 for O  read from file:
     /n/holyscratch01/hoffman_lab/ruizhe/YBCO_Project/pseudo/O.pbe-van_ak.UPF
     MD5 check sum: 783ce7fe4c79b6a4916957118fed0856
     Pseudo is Ultrasoft, Zval =  6.0
     Generated by new atomic code, or converted to UPF format
     Using radial grid of  737 points,  4 beta functions with:
                l(1) =   0
                l(2) =   0
                l(3) =   1
                l(4) =   1
     Q(r) pseudized with  8 coefficients,  rinner =    0.800   0.800   0.800

     PseudoPot. # 4 for Y  read from file:
     /n/holyscratch01/hoffman_lab/ruizhe/YBCO_Project/pseudo/Y.pbe-nsp-van.UPF
     MD5 check sum: 4412fed3ab108fed87a1b7d6a69a4a38
     Pseudo is Ultrasoft + core correction, Zval = 11.0
     Generated by new atomic code, or converted to UPF format
     Using radial grid of  885 points,  6 beta functions with:
                l(1) =   0
                l(2) =   0
                l(3) =   1
                l(4) =   1
                l(5) =   2
                l(6) =   2
     Q(r) pseudized with  6 coefficients,  rinner =    1.200   1.200   1.200
                                                       1.200   1.200

     atomic species   valence    mass     pseudopotential
        Ba            10.00   137.32700     Ba( 1.00)
        Cu            11.00    63.54600     Cu( 1.00)
        O              6.00    15.99900     O ( 1.00)
        Y             11.00    88.90584     Y ( 1.00)

      4 Sym. Ops. (no inversion) found

   Cartesian axes

     site n.     atom                  positions (alat units)
         1           O   tau(   1) = (   0.0000000   0.4877884  -0.0257983  )
         2           Cu  tau(   2) = (   0.0000000   0.0000000   0.0215779  )
         3           O   tau(   3) = (   0.0000000   0.0000000   0.5073114  )
         4           Ba  tau(   4) = (   0.4999996   0.4877884   0.5319677  )
         5           Cu  tau(   5) = (   0.0000000   0.0000000   1.0495845  )
         6           O   tau(   6) = (   0.4999996   0.0000000   1.1181579  )
         7           O   tau(   7) = (   0.0000000   0.4877884   1.1273137  )
         8           Y   tau(   8) = (   0.4999996   0.4877884   1.4938777  )
         9           O   tau(   9) = (   0.0000000   0.4877884   1.8497402  )
        10           O   tau(  10) = (   0.4999996   0.0000000   1.8692709  )
        11           Cu  tau(  11) = (   0.0000000   0.0000000   1.9417560  )
        12           Ba  tau(  12) = (   0.4999996   0.4877884   2.4526063  )
        13           O   tau(  13) = (   0.0000000   0.0000000   2.5103470  )
        14           O   tau(  14) = (   0.0000000   0.4877884   2.9968469  )
        15           Cu  tau(  15) = (   0.0000000   0.0000000   2.9968521  )
        16           O   tau(  16) = (   0.0000000   0.0000000   3.4833288  )
        17           Ba  tau(  17) = (   0.4999996   0.4877884   3.5410618  )
        18           Cu  tau(  18) = (   0.0000000   0.0000000   4.0519352  )
        19           O   tau(  19) = (   0.4999996   0.0000000   4.1244075  )
        20           O   tau(  20) = (   0.0000000   0.4877884   4.1439202  )
        21           Y   tau(  21) = (   0.4999996   0.4877884   4.4997853  )
        22           O   tau(  22) = (   0.0000000   0.4877884   5.6379059  )
        23           O   tau(  23) = (   0.4999996   0.0000000   5.6470746  )
        24           Cu  tau(  24) = (   0.0000000   0.0000000   5.7156531  )
        25           Ba  tau(  25) = (   0.4999996   0.4877884   6.2332544  )
        26           O   tau(  26) = (   0.0000000   0.0000000   6.2579108  )
        27           Cu  tau(  27) = (   0.0000000   0.0000000   6.7436160  )
        28           O   tau(  28) = (   0.0000000   0.4877884   6.7909973  )

     number of k points=    25  Gaussian smearing, width (Ry)=  0.0100
                       cart. coord. in units 2pi/alat
        k(    1) = (   0.0000000   0.0000000   0.0000000), wk =   0.0312500
        k(    2) = (   0.0000000   0.1281293   0.0000000), wk =   0.0625000
        k(    3) = (   0.0000000   0.2562585   0.0000000), wk =   0.0625000
        k(    4) = (   0.0000000   0.3843878   0.0000000), wk =   0.0625000
        k(    5) = (   0.0000000  -0.5125170   0.0000000), wk =   0.0312500
        k(    6) = (   0.1250000   0.0000000   0.0000000), wk =   0.0625000
        k(    7) = (   0.1250000   0.1281293   0.0000000), wk =   0.1250000
        k(    8) = (   0.1250000   0.2562585   0.0000000), wk =   0.1250000
        k(    9) = (   0.1250000   0.3843878   0.0000000), wk =   0.1250000
        k(   10) = (   0.1250000  -0.5125170   0.0000000), wk =   0.0625000
        k(   11) = (   0.2500000   0.0000000   0.0000000), wk =   0.0625000
        k(   12) = (   0.2500000   0.1281293   0.0000000), wk =   0.1250000
        k(   13) = (   0.2500000   0.2562585   0.0000000), wk =   0.1250000
        k(   14) = (   0.2500000   0.3843878   0.0000000), wk =   0.1250000
        k(   15) = (   0.2500000  -0.5125170   0.0000000), wk =   0.0625000
        k(   16) = (   0.3750000   0.0000000   0.0000000), wk =   0.0625000
        k(   17) = (   0.3750000   0.1281293   0.0000000), wk =   0.1250000
        k(   18) = (   0.3750000   0.2562585   0.0000000), wk =   0.1250000
        k(   19) = (   0.3750000   0.3843878   0.0000000), wk =   0.1250000
        k(   20) = (   0.3750000  -0.5125170   0.0000000), wk =   0.0625000
        k(   21) = (  -0.5000000   0.0000000   0.0000000), wk =   0.0312500
        k(   22) = (  -0.5000000   0.1281293   0.0000000), wk =   0.0625000
        k(   23) = (  -0.5000000   0.2562585   0.0000000), wk =   0.0625000
        k(   24) = (  -0.5000000   0.3843878   0.0000000), wk =   0.0625000
        k(   25) = (  -0.5000000  -0.5125170   0.0000000), wk =   0.0312500

     Initial potential from superposition of free atoms

     starting charge  228.84827, renormalised to  229.00000

     negative rho (up, down):  8.977E-02 0.000E+00
     Starting wfcs are  201 randomized atomic wfcs

     Self-consistent Calculation

     iteration #  1     ecut=    60.00 Ry     beta= 0.20
     Davidson diagonalization with overlap
     ethr =  1.00E-02,  avg # of iterations =  2.0

     negative rho (up, down):  8.740E-02 0.000E+00

     total energy              =   -1869.44774025 Ry
     Harris-Foulkes estimate   =   -1871.03308735 Ry
     estimated scf accuracy    <      14.52206104 Ry

[...]

     total energy              =   -1868.41189612 Ry
     Harris-Foulkes estimate   =   -1868.41189665 Ry
     estimated scf accuracy    <       0.00000222 Ry

     iteration # 37     ecut=    60.00 Ry     beta= 0.20
     Davidson diagonalization with overlap
     ethr =  9.68E-10,  avg # of iterations =  1.7

[...]

     End of self-consistent calculation

          k = 0.0000 0.0000 0.0000 ( 36431 PWs)   bands (ev):

   -41.2105 -38.2410 -23.1901 -22.8953 -22.7567 -22.5333 -21.3419 -21.0834
   -21.0750 -18.7758 -18.2457 -18.2358 -16.3240 -15.5711 -15.3945 -14.7188
   -14.6107 -14.4624 -14.3798 -14.3565 -14.3039 -14.0950 -13.8779 -13.8243
   -13.7804 -13.5898 -13.1661  -8.5042  -8.1240  -8.1165  -8.1142  -8.0282
    -7.8877  -7.8609  -7.7106  -7.6919  -7.6609  -7.5606  -7.5259  -3.0974
    -3.0733  -2.6294  -2.1998  -2.1665  -2.1504  -2.0189  -1.9784  -1.9515
    -1.9119  -1.8347  -1.6836  -1.0070  -0.9807  -0.9789  -0.9370  -0.8372
    -0.6594  -0.5773  -0.5649  -0.5545  -0.4950  -0.3617  -0.2260  -0.1886
    -0.1518  -0.1259  -0.1236  -0.0962  -0.0788  -0.0013   0.0129   0.0134
     0.0282   0.1072   0.1640   0.1709   0.2779   0.2829   0.2980   0.3697
     0.4069   0.4127   0.4263   0.4345   0.4522   0.4970   0.4981   0.5389
     0.5427   0.6254   0.6612   0.8092   0.9597   0.9824   1.1122   1.1688
     1.1850   1.2439   1.2470   1.3271   1.3681   1.3841   1.3938   1.5741
     1.7927   1.8099   1.8666   1.9474   1.9588   1.9649   2.0649   2.1567
     2.1601   2.2404   2.2519   2.2865   2.5239   2.5521   2.5747   2.6466
     4.0954   4.9999   5.1542   5.3105   5.5583   5.6996   5.9043   6.4738
     6.5055   6.5611   6.7613   6.8735   6.9047   7.2845   7.6968   8.0480
     8.0573   8.0851

[...]

          k = 0.3750-0.5125 0.0000 ( 36666 PWs)   bands (ev):

[...]

          k =-0.5000 0.0000 0.0000 ( 36502 PWs)   bands (ev):

[...]

          k =-0.5000-0.5125 0.0000 ( 36660 PWs)   bands (ev):

   -41.1899 -38.2131 -22.9553 -22.6532 -22.5210 -22.2864 -21.3531 -21.3312
   -21.1734 -18.7950 -18.7690 -18.2947 -15.6132 -15.5813 -14.6286 -14.6120
   -14.3715 -14.3388 -14.1970 -14.1116 -14.0710 -14.0571 -13.8200 -13.7600
   -13.7239 -13.6249 -13.4763  -9.0877  -8.8473  -8.8127  -8.6629  -8.5583
    -8.5518  -8.5126  -8.3285  -8.2370  -8.0948  -7.9979  -7.6359  -4.9153
    -4.3115  -3.7288  -3.2965  -3.2881  -3.0817  -2.9186  -2.8468  -2.7994
    -2.6365  -2.4564  -2.3348  -2.1622  -2.1331  -1.9638  -1.9297  -1.9297
    -1.7654  -1.7556  -1.4668  -1.3714  -1.1438  -1.0538  -1.0444  -0.8769
    -0.8614  -0.8572  -0.7831  -0.7044  -0.6246  -0.5815  -0.5615  -0.4721
    -0.4320   0.0171   0.0582   0.2088   0.3025   0.5432   0.6789   0.7291
     0.9305   0.9628   0.9650   1.1513   1.2892   1.3456   1.3558   1.3947
     1.4455   1.4581   1.4786   1.6628   1.7250   1.7274   1.8794   1.8862
     1.9022   1.9134   1.9277   1.9393   1.9908   2.0957   2.1501   2.2667
     2.3381   2.3481   2.4420   2.4440   2.5176   2.5500   2.5948   2.8844
     2.9959   3.2802   3.4396   4.1084   4.1208   4.2073   4.3954   4.6536
     4.7399   4.9612   5.0459   5.4879   5.6869   5.8605   6.5157   7.2580
     8.0512   8.2483   8.2844   8.3717   8.6500   8.6688   9.0805   9.1661
     9.1822   9.3946

     the Fermi energy is     2.8477 ev

!    total energy              =   -1868.41189542 Ry
     Harris-Foulkes estimate   =   -1868.41189617 Ry
     estimated scf accuracy    <       0.00000091 Ry

     The total energy is the sum of the following terms:

     one-electron contribution =  -30125.85284766 Ry
     hartree contribution      =   15214.61166570 Ry
     xc contribution           =    -641.77782197 Ry
     ewald contribution        =   13684.61601054 Ry
     smearing contrib. (-TS)   =      -0.00890203 Ry

     convergence has been achieved in  37 iterations

     negative rho (up, down):  8.992E-02 0.000E+00

     Forces acting on atoms (cartesian axes, Ry/au):

     atom    1 type  3   force =     0.00000000    0.00000000    0.00012059
     atom    2 type  2   force =     0.00000000    0.00000000   -0.00016749
     atom    3 type  3   force =     0.00000000    0.00000000   -0.00005524
     atom    4 type  1   force =     0.00000000    0.00000000   -0.00003993
     atom    5 type  2   force =     0.00000000    0.00000000   -0.00053259
     atom    6 type  3   force =     0.00000000    0.00000000    0.00039429
     atom    7 type  3   force =     0.00000000    0.00000000    0.00015923
     atom    8 type  4   force =     0.00000000    0.00000000   -0.00041670
     atom    9 type  3   force =     0.00000000    0.00000000    0.00086346
     atom   10 type  3   force =     0.00000000    0.00000000    0.00111265
     atom   11 type  2   force =     0.00000000    0.00000000   -0.00233750
     atom   12 type  1   force =     0.00000000    0.00000000   -0.00160743
     atom   13 type  3   force =     0.00000000    0.00000000    0.00241335
     atom   14 type  3   force =     0.00000000    0.00000000    0.00601245
     atom   15 type  2   force =     0.00000000    0.00000000   -0.01139727
     atom   16 type  3   force =     0.00000000    0.00000000    0.02037110
     atom   17 type  1   force =     0.00000000    0.00000000   -0.02359313
     atom   18 type  2   force =     0.00000000    0.00000000    0.00221385
     atom   19 type  3   force =     0.00000000    0.00000000    0.06231362
     atom   20 type  3   force =     0.00000000    0.00000000    0.06432364
     atom   21 type  4   force =     0.00000000    0.00000000   -0.10568572
     atom   22 type  3   force =     0.00000000    0.00000000    0.01542622
     atom   23 type  3   force =     0.00000000    0.00000000    0.02165961
     atom   24 type  2   force =     0.00000000    0.00000000   -0.01877041
     atom   25 type  1   force =     0.00000000    0.00000000   -0.03252581
     atom   26 type  3   force =     0.00000000    0.00000000   -0.00279020
     atom   27 type  2   force =     0.00000000    0.00000000   -0.00257554
     atom   28 type  3   force =     0.00000000    0.00000000    0.00511091

     Total force =     0.150023     Total SCF correction =     0.004177

     Computing stress (Cartesian axis) and pressure

     negative rho (up, down):  8.992E-02 0.000E+00
          total   stress  (Ry/bohr**3)                   (kbar)     P=      -10.85
  -0.00005698   0.00000000   0.00000000           -8.38        0.00        0.00
   0.00000000  -0.00004220   0.00000000            0.00       -6.21        0.00
   0.00000000   0.00000000  -0.00012209            0.00        0.00      -17.96

     General routines

     Parallel routines

   This run was terminated on:  17:36:28   5May2021

   JOB DONE.
[1620250588.105411] [holy7c16211:172208:0]          mpool.c:43   UCX  WARN  object 0x3106d80 was not returned to mpool ucp_requests
[1620250588.105430] [holy7c16211:172208:0]          mpool.c:43   UCX  WARN  object 0x3107100 was not returned to mpool ucp_requests
[1620250588.105917] [holy7c16106:61425:0]          mpool.c:43   UCX  WARN  object 0x3ad1d40 was not returned to mpool ucp_requests
[1620250588.105934] [holy7c16106:61425:0]          mpool.c:43   UCX  WARN  object 0x3ad2280 was not returned to mpool ucp_requests
[1620250588.107106] [holy7c16111:253172:0]          mpool.c:43   UCX  WARN  object 0x3782f40 was not returned to mpool ucp_requests
[1620250588.104565] [holy7c16104:185427:0]          mpool.c:43   UCX  WARN  object 0x472abc0 was not returned to mpool ucp_requests
[1620250588.112528] [holy7c16103:216543:0]          mpool.c:43   UCX  WARN  object 0x46148c0 was not returned to mpool ucp_requests
[1620250588.112550] [holy7c16103:216543:0]          mpool.c:43   UCX  WARN  object 0x4614a80 was not returned to mpool ucp_requests
[1620250588.107809] [holy7c16111:253174:0]          mpool.c:43   UCX  WARN  object 0x4536740 was not returned to mpool ucp_requests
[1620250588.107826] [holy7c16111:253174:0]          mpool.c:43   UCX  WARN  object 0x4536900 was not returned to mpool ucp_requests
[1620250588.107603] [holy7c16111:253175:0]          mpool.c:43   UCX  WARN  object 0x470a740 was not returned to mpool ucp_requests