     Program PWSCF v.6.5 starts on  5May2021 at 17:59:38

     R & G space division:  proc/nbgrp/npool/nimage =      20
     Reading input from YBCO_CuO_cleave_4.0_sep_scf.pwi
Warning: card &IONS ignored
Warning: card     ION_DYNAMICS = 'BFGS' ignored
Warning: card / ignored
Warning: card &CELL ignored
Warning: card     CELL_DYNAMICS = 'BFGS' ignored
Warning: card / ignored

     Current dimensions of program PWSCF are:
     Max number of different atomic species (ntypx) = 10
     Max number of k-points (npk) =  40000
     Max angular momentum in pseudopotentials (lmaxx) =  3

     Message from routine setup:
     using ibrav=0 with symmetry is DISCOURAGED, use correct ibrav instead

     bravais-lattice index     =            0
     lattice parameter (alat)  =       7.3477  a.u.
     unit-cell volume          =    4754.8956 (a.u.)^3
     number of atoms/cell      =           28
     number of atomic types    =            4
     number of electrons       =       229.00
     number of Kohn-Sham states=          138
     kinetic-energy cutoff     =      60.0000  Ry
     charge density cutoff     =     720.0000  Ry
     convergence threshold     =      1.0E-06
     mixing beta               =       0.2000
     number of iterations used =           10  local-TF  mixing
     Exchange-correlation= SLA PW PBE PBE
                           (   1   4   3   4   0   0   0)

     celldm(1)=   7.347715  celldm(2)=   0.000000  celldm(3)=   0.000000
     celldm(4)=   0.000000  celldm(5)=   0.000000  celldm(6)=   0.000000

     crystal axes: (cart. coord. in units of alat)
               a(1) = (   1.000000   0.000000   0.000000 )
               a(2) = (   0.000000   0.975577   0.000000 )
               a(3) = (   0.000000   0.000000  12.286335 )

     reciprocal axes: (cart. coord. in units 2 pi/alat)
               b(1) = (  1.000000  0.000000  0.000000 )
               b(2) = (  0.000000  1.025034  0.000000 )
               b(3) = (  0.000000  0.000000  0.081391 )

     PseudoPot. # 1 for Ba read from file:
     /n/holyscratch01/hoffman_lab/ruizhe/YBCO_Project/pseudo/Ba.pbe-nsp-van.UPF
     MD5 check sum: 2b9c31dd849566dd297d80989662b7a0
     Pseudo is Ultrasoft + core correction, Zval = 10.0
     Generated by new atomic code, or converted to UPF format
     Using radial grid of  907 points,  6 beta functions with:
                l(1) =   0
                l(2) =   0
                l(3) =   1
                l(4) =   1
                l(5) =   2
                l(6) =   2
     Q(r) pseudized with  6 coefficients,  rinner =    1.200   1.200   1.200
                                                       1.200   1.200

     PseudoPot. # 2 for Cu read from file:
     /n/holyscratch01/hoffman_lab/ruizhe/YBCO_Project/pseudo/Cu.pbe-n-van_ak.UPF
     MD5 check sum: 34e3282627ffb533726feb647e090d62
     Pseudo is Ultrasoft + core correction, Zval = 11.0
     Generated by new atomic code, or converted to UPF format
     Using radial grid of  867 points,  6 beta functions with:
                l(1) =   0
                l(2) =   0
                l(3) =   1
                l(4) =   1
                l(5) =   2
                l(6) =   2
     Q(r) pseudized with  8 coefficients,  rinner =    1.400   1.400   1.400
                                                       1.400   1.400

     PseudoPot. # 3 for O  read from file:
     /n/holyscratch01/hoffman_lab/ruizhe/YBCO_Project/pseudo/O.pbe-van_ak.UPF
     MD5 check sum: 783ce7fe4c79b6a4916957118fed0856
     Pseudo is Ultrasoft, Zval =  6.0
     Generated by new atomic code, or converted to UPF format
     Using radial grid of  737 points,  4 beta functions with:
                l(1) =   0
                l(2) =   0
                l(3) =   1
                l(4) =   1
     Q(r) pseudized with  8 coefficients,  rinner =    0.800   0.800   0.800

     PseudoPot. # 4 for Y  read from file:
     /n/holyscratch01/hoffman_lab/ruizhe/YBCO_Project/pseudo/Y.pbe-nsp-van.UPF
     MD5 check sum: 4412fed3ab108fed87a1b7d6a69a4a38
     Pseudo is Ultrasoft + core correction, Zval = 11.0
     Generated by new atomic code, or converted to UPF format
     Using radial grid of  885 points,  6 beta functions with:
                l(1) =   0
                l(2) =   0
                l(3) =   1
                l(4) =   1
                l(5) =   2
                l(6) =   2
     Q(r) pseudized with  6 coefficients,  rinner =    1.200   1.200   1.200
                                                       1.200   1.200

     atomic species   valence    mass     pseudopotential
        Ba            10.00   137.32700     Ba( 1.00)
        Cu            11.00    63.54600     Cu( 1.00)
        O              6.00    15.99900     O ( 1.00)
        Y             11.00    88.90584     Y ( 1.00)

      4 Sym. Ops. (no inversion) found

   Cartesian axes

     site n.     atom                  positions (alat units)
         1           O   tau(   1) = (   0.0000000   0.4877884  -0.0257983  )
         2           Cu  tau(   2) = (   0.0000000   0.0000000   0.0215779  )
         3           O   tau(   3) = (   0.0000000   0.0000000   0.5073114  )
         4           Ba  tau(   4) = (   0.4999996   0.4877884   0.5319677  )
         5           Cu  tau(   5) = (   0.0000000   0.0000000   1.0495845  )
         6           O   tau(   6) = (   0.4999996   0.0000000   1.1181579  )
         7           O   tau(   7) = (   0.0000000   0.4877884   1.1273137  )
         8           Y   tau(   8) = (   0.4999996   0.4877884   1.4938777  )
         9           O   tau(   9) = (   0.0000000   0.4877884   1.8497402  )
        10           O   tau(  10) = (   0.4999996   0.0000000   1.8692709  )
        11           Cu  tau(  11) = (   0.0000000   0.0000000   1.9417560  )
        12           Ba  tau(  12) = (   0.4999996   0.4877884   2.4526063  )
        13           O   tau(  13) = (   0.0000000   0.0000000   2.5103470  )
        14           O   tau(  14) = (   0.0000000   0.4877884   2.9968469  )
        15           Cu  tau(  15) = (   0.0000000   0.0000000   2.9968521  )
        16           O   tau(  16) = (   0.0000000   0.0000000   4.5120710  )
        17           Ba  tau(  17) = (   0.4999996   0.4877884   4.5698040  )
        18           Cu  tau(  18) = (   0.0000000   0.0000000   5.0806774  )
        19           O   tau(  19) = (   0.4999996   0.0000000   5.1531497  )
        20           O   tau(  20) = (   0.0000000   0.4877884   5.1726624  )
        21           Y   tau(  21) = (   0.4999996   0.4877884   5.5285275  )
        22           O   tau(  22) = (   0.0000000   0.4877884   5.8950914  )
        23           O   tau(  23) = (   0.4999996   0.0000000   5.9042601  )
        24           Cu  tau(  24) = (   0.0000000   0.0000000   5.9728386  )
        25           Ba  tau(  25) = (   0.4999996   0.4877884   6.4904400  )
        26           O   tau(  26) = (   0.0000000   0.0000000   6.5150964  )
        27           Cu  tau(  27) = (   0.0000000   0.0000000   7.0008016  )
        28           O   tau(  28) = (   0.0000000   0.4877884   7.0481829  )

     number of k points=    25  Gaussian smearing, width (Ry)=  0.0100
                       cart. coord. in units 2pi/alat
        k(    1) = (   0.0000000   0.0000000   0.0000000), wk =   0.0312500
        k(    2) = (   0.0000000   0.1281293   0.0000000), wk =   0.0625000
        k(    3) = (   0.0000000   0.2562585   0.0000000), wk =   0.0625000
        k(    4) = (   0.0000000   0.3843878   0.0000000), wk =   0.0625000
        k(    5) = (   0.0000000  -0.5125170   0.0000000), wk =   0.0312500
        k(    6) = (   0.1250000   0.0000000   0.0000000), wk =   0.0625000
        k(    7) = (   0.1250000   0.1281293   0.0000000), wk =   0.1250000
        k(    8) = (   0.1250000   0.2562585   0.0000000), wk =   0.1250000
        k(    9) = (   0.1250000   0.3843878   0.0000000), wk =   0.1250000
        k(   10) = (   0.1250000  -0.5125170   0.0000000), wk =   0.0625000
        k(   11) = (   0.2500000   0.0000000   0.0000000), wk =   0.0625000
        k(   12) = (   0.2500000   0.1281293   0.0000000), wk =   0.1250000
        k(   13) = (   0.2500000   0.2562585   0.0000000), wk =   0.1250000
        k(   14) = (   0.2500000   0.3843878   0.0000000), wk =   0.1250000
        k(   15) = (   0.2500000  -0.5125170   0.0000000), wk =   0.0625000
        k(   16) = (   0.3750000   0.0000000   0.0000000), wk =   0.0625000
        k(   17) = (   0.3750000   0.1281293   0.0000000), wk =   0.1250000
        k(   18) = (   0.3750000   0.2562585   0.0000000), wk =   0.1250000
        k(   19) = (   0.3750000   0.3843878   0.0000000), wk =   0.1250000
        k(   20) = (   0.3750000  -0.5125170   0.0000000), wk =   0.0625000
        k(   21) = (  -0.5000000   0.0000000   0.0000000), wk =   0.0312500
        k(   22) = (  -0.5000000   0.1281293   0.0000000), wk =   0.0625000
        k(   23) = (  -0.5000000   0.2562585   0.0000000), wk =   0.0625000
        k(   24) = (  -0.5000000   0.3843878   0.0000000), wk =   0.0625000
        k(   25) = (  -0.5000000  -0.5125170   0.0000000), wk =   0.0312500

     Initial potential from superposition of free atoms

     starting charge  228.84827, renormalised to  229.00000

     negative rho (up, down):  8.944E-02 0.000E+00
     Starting wfcs are  201 randomized atomic wfcs

     Self-consistent Calculation

     iteration #  1     ecut=    60.00 Ry     beta= 0.20
     Davidson diagonalization with overlap
     ethr =  1.00E-02,  avg # of iterations =  2.0

     negative rho (up, down):  8.730E-02 0.000E+00

     total energy              =   -1869.51851149 Ry
     Harris-Foulkes estimate   =   -1871.09891518 Ry
     estimated scf accuracy    <      13.41756292 Ry

[...]

     iteration # 23     ecut=    60.00 Ry     beta= 0.20
     Davidson diagonalization with overlap
     c_bands:  1 eigenvalues not converged
     ethr =  2.99E-06,  avg # of iterations =  5.6

[...]

     iteration # 32     ecut=    60.00 Ry     beta= 0.20
     Davidson diagonalization with overlap
     c_bands:  1 eigenvalues not converged
     ethr =  5.04E-09,  avg # of iterations =  3.0

[...]

     total energy              =   -1868.72260742 Ry
     Harris-Foulkes estimate   =   -1868.72260719 Ry
     estimated scf accuracy    <       0.00000398 Ry

     iteration # 34     ecut=    60.00 Ry     beta= 0.20
     Davidson diagonalization with overlap
     ethr =  1.74E-09,  avg # of iterations =  1.8

[...]

     End of self-consistent calculation

          k = 0.0000 0.0000 0.0000 ( 37185 PWs)   bands (ev):

   -38.5798 -38.5030 -23.2088 -23.1965 -23.0937 -23.0494 -19.1128 -19.0449
   -18.5852 -18.5763 -18.5092 -18.4960 -15.9038 -15.8537 -14.9461 -14.8923
   -14.6930 -14.6892 -14.6829 -14.6392 -14.5960 -14.4280 -14.3741 -14.1902
   -14.1778 -13.9347 -12.6467  -8.4654  -8.4295  -8.4095  -8.2638  -8.2011
    -8.1894  -8.1741  -8.1627  -8.0229  -7.9995  -7.9670  -7.8851  -2.5354
    -2.5051  -2.4833  -2.4556  -2.3649  -2.3095  -2.2909  -2.2818  -2.2482
    -2.2085  -2.1719  -2.1175  -1.9962  -1.3406  -1.2783  -0.8886  -0.8718
    -0.8257  -0.5575  -0.5006  -0.4995  -0.4904  -0.4621  -0.4553  -0.3009
    -0.2989  -0.2676  -0.2471  -0.2302  -0.2240  -0.1685  -0.1643  -0.1380
    -0.1286  -0.0380  -0.0344  -0.0230  -0.0211   0.0018   0.0625   0.0780
     0.1162   0.1193   0.1301   0.1416   0.1913   0.2301   0.2348   0.2516
     0.5220   0.6746   0.7187   0.7804   0.7840   0.8260   0.8563   0.8946
     0.9333   0.9363   0.9505   1.0362   1.0421   1.0565   1.0678   1.0705
     1.1128   1.4917   1.5331   1.5541   1.5617   1.6445   1.7536   1.7605
     1.8415   2.0576   2.1981   2.2445   2.2838   2.3263   2.3569   4.7139
     4.8648   4.8937   5.4290   5.5058   6.1226   6.2424   6.2649   6.4688
     6.5834   6.9731   7.1797   7.7140   7.7450   7.7879   7.9380   8.1551
     8.2213   8.2780

[...]

          k = 0.3750-0.5125 0.0000 ( 37434 PWs)   bands (ev):

[...]

          k =-0.5000 0.0000 0.0000 ( 37306 PWs)   bands (ev):

[...]

          k =-0.5000-0.5125 0.0000 ( 37436 PWs)   bands (ev):

   -38.5519 -38.4751 -22.9667 -22.9544 -22.8839 -22.8110 -19.1357 -19.1081
   -19.0570 -19.0366 -18.6320 -18.5610 -14.9581 -14.9483 -14.9219 -14.8832
   -14.6809 -14.6799 -14.4463 -14.4031 -14.3933 -14.3767 -14.3233 -14.0742
   -14.0556 -13.9970 -12.7609  -9.1605  -9.1491  -8.9736  -8.8717  -8.8599
    -8.7916  -8.6800  -8.6753  -8.4084  -8.4001  -8.3596  -8.2671  -4.6485
    -4.5851  -4.0648  -3.9851  -3.1589  -3.1548  -3.1431  -2.9621  -2.9181
    -2.7724  -2.7603  -2.6837  -2.6378  -2.2735  -2.2719  -2.2518  -2.2043
    -1.9690  -1.5008  -1.4567  -1.3809  -1.3317  -1.2425  -1.1595  -1.1485
    -1.1383  -1.0395  -1.0156  -1.0111  -0.9365  -0.9217  -0.8847  -0.2927
    -0.2863  -0.2817  -0.1801   0.0410   0.3445   0.4757   0.7511   0.8167
     0.9562   1.0003   1.0484   1.0654   1.0814   1.0943   1.1037   1.1138
     1.1337   1.2118   1.3105   1.3398   1.3859   1.3995   1.4278   1.5848
     1.6079   1.6139   1.6204   1.6272   1.6323   1.7484   1.8337   1.9435
     2.1296   2.1483   2.2373   2.2530   2.3128   2.3489   2.5242   2.5364
     2.5387   2.6295   2.8571   4.3043   4.3322   4.4181   4.4314   5.3746
     5.3869   5.6405   6.1429   6.2593   7.6208   7.6504   7.9522   7.9680
     8.2859   8.4776   8.7176   8.7970   8.8277   8.8336   8.9954   9.0804
     9.1118   9.1319

     the Fermi energy is     2.5337 ev

!    total energy              =   -1868.72260715 Ry
     Harris-Foulkes estimate   =   -1868.72260755 Ry
     estimated scf accuracy    <       0.00000080 Ry

     The total energy is the sum of the following terms:

     one-electron contribution =  -25361.22502363 Ry
     hartree contribution      =   12831.56443464 Ry
     xc contribution           =    -642.19788572 Ry
     ewald contribution        =   11303.14660314 Ry
     smearing contrib. (-TS)   =      -0.01073558 Ry

     convergence has been achieved in  34 iterations

     negative rho (up, down):  9.040E-02 0.000E+00

     Forces acting on atoms (cartesian axes, Ry/au):

     atom    1 type  3   force =     0.00000000    0.00000000   -0.00048656
     atom    2 type  2   force =     0.00000000    0.00000000    0.00152416
     atom    3 type  3   force =     0.00000000    0.00000000    0.00033039
     atom    4 type  1   force =     0.00000000    0.00000000   -0.00018669
     atom    5 type  2   force =     0.00000000    0.00000000   -0.00067173
     atom    6 type  3   force =     0.00000000    0.00000000    0.00132398
     atom    7 type  3   force =     0.00000000    0.00000000    0.00104649
     atom    8 type  4   force =     0.00000000    0.00000000   -0.00284581
     atom    9 type  3   force =     0.00000000    0.00000000    0.00517135
     atom   10 type  3   force =     0.00000000    0.00000000    0.00355867
     atom   11 type  2   force =     0.00000000    0.00000000   -0.00120656
     atom   12 type  1   force =     0.00000000    0.00000000    0.01647770
     atom   13 type  3   force =     0.00000000    0.00000000   -0.01929963
     atom   14 type  3   force =     0.00000000    0.00000000    0.02195363
     atom   15 type  2   force =     0.00000000    0.00000000   -0.02509805
     atom   16 type  3   force =     0.00000000    0.00000000    0.01940128
     atom   17 type  1   force =     0.00000000    0.00000000   -0.00301818
     atom   18 type  2   force =     0.00000000    0.00000000   -0.02312977
     atom   19 type  3   force =     0.00000000    0.00000000    0.00424788
     atom   20 type  3   force =     0.00000000    0.00000000    0.00303706
     atom   21 type  4   force =     0.00000000    0.00000000   -0.00081564
     atom   22 type  3   force =     0.00000000    0.00000000   -0.00054414
     atom   23 type  3   force =     0.00000000    0.00000000    0.00085079
     atom   24 type  2   force =     0.00000000    0.00000000    0.00034117
     atom   25 type  1   force =     0.00000000    0.00000000    0.00008610
     atom   26 type  3   force =     0.00000000    0.00000000   -0.00191862
     atom   27 type  2   force =     0.00000000    0.00000000   -0.00041944
     atom   28 type  3   force =     0.00000000    0.00000000    0.00029019

     Total force =     0.052577     Total SCF correction =     0.004135

     Computing stress (Cartesian axis) and pressure

     negative rho (up, down):  9.040E-02 0.000E+00
          total   stress  (Ry/bohr**3)                   (kbar)     P=       -6.61
  -0.00000100   0.00000000   0.00000000           -0.15        0.00        0.00
   0.00000000  -0.00010754   0.00000000            0.00      -15.82        0.00
   0.00000000   0.00000000  -0.00002624            0.00        0.00       -3.86

     General routines

     Parallel routines

   This run was terminated on:  18:12:36   5May2021

   JOB DONE.
[1620252756.497254] [holy7c08205:58196:0]          mpool.c:43   UCX  WARN  object 0x30f0800 was not returned to mpool ucp_requests
[1620252756.497271] [holy7c08205:58196:0]          mpool.c:43   UCX  WARN  object 0x30f0d40 was not returned to mpool ucp_requests
[1620252756.499292] [holy7c08208:219232:0]          mpool.c:43   UCX  WARN  object 0x4385d00 was not returned to mpool ucp_requests
[1620252756.499309] [holy7c08208:219232:0]          mpool.c:43   UCX  WARN  object 0x43865c0 was not returned to mpool ucp_requests
[1620252756.496885] [holy7c08301:210286:0]          mpool.c:43   UCX  WARN  object 0x3c67d80 was not returned to mpool ucp_requests
[1620252756.504479] [holy7c08104:168893:0]          mpool.c:43   UCX  WARN  object 0x3e98300 was not returned to mpool ucp_requests
[1620252756.501580] [holy7c08109:211893:0]          mpool.c:43   UCX  WARN  object 0x2950a40 was not returned to mpool ucp_requests
[1620252756.504249] [holy7c08302:35634:0]          mpool.c:43   UCX  WARN  object 0x468c940 was not returned to mpool ucp_requests
[1620252756.504590] [holy7c08111:258164:0]          mpool.c:43   UCX  WARN  object 0x41ddb00 was not returned to mpool ucp_requests