     Program PWSCF v.6.5 starts on  5May2021 at 17:29:28

     R & G space division:  proc/nbgrp/npool/nimage =      20
     Reading input from YBCO_BaO_cleave_3.5_sep_scf.pwi
Warning: card &IONS ignored
Warning: card     ION_DYNAMICS = 'BFGS' ignored
Warning: card / ignored
Warning: card &CELL ignored
Warning: card     CELL_DYNAMICS = 'BFGS' ignored
Warning: card / ignored

     Current dimensions of program PWSCF are:
     Max number of different atomic species (ntypx) = 10
     Max number of k-points (npk) =  40000
     Max angular momentum in pseudopotentials (lmaxx) =  3

     Message from routine setup:
     using ibrav=0 with symmetry is DISCOURAGED, use correct ibrav instead

     bravais-lattice index     =            0
     lattice parameter (alat)  =       7.3477  a.u.
     unit-cell volume          =    4705.1293 (a.u.)^3
     number of atoms/cell      =           28
     number of atomic types    =            4
     number of electrons       =       229.00
     number of Kohn-Sham states=          138
     kinetic-energy cutoff     =      60.0000  Ry
     charge density cutoff     =     720.0000  Ry
     convergence threshold     =      1.0E-06
     mixing beta               =       0.2000
     number of iterations used =           10  local-TF  mixing
     Exchange-correlation= SLA PW PBE PBE
                           (   1   4   3   4   0   0   0)

     celldm(1)=   7.347715  celldm(2)=   0.000000  celldm(3)=   0.000000
     celldm(4)=   0.000000  celldm(5)=   0.000000  celldm(6)=   0.000000

     crystal axes: (cart. coord. in units of alat)
               a(1) = (   1.000000   0.000000   0.000000 )
               a(2) = (   0.000000   0.975577   0.000000 )
               a(3) = (   0.000000   0.000000  12.157743 )

     reciprocal axes: (cart. coord. in units 2 pi/alat)
               b(1) = (  1.000000  0.000000  0.000000 )
               b(2) = (  0.000000  1.025034  0.000000 )
               b(3) = (  0.000000  0.000000  0.082252 )

     PseudoPot. # 1 for Ba read from file:
     /n/holyscratch01/hoffman_lab/ruizhe/YBCO_Project/pseudo/Ba.pbe-nsp-van.UPF
     MD5 check sum: 2b9c31dd849566dd297d80989662b7a0
     Pseudo is Ultrasoft + core correction, Zval = 10.0
     Generated by new atomic code, or converted to UPF format
     Using radial grid of  907 points,  6 beta functions with:
                l(1) =   0
                l(2) =   0
                l(3) =   1
                l(4) =   1
                l(5) =   2
                l(6) =   2
     Q(r) pseudized with  6 coefficients,  rinner =    1.200   1.200   1.200
                                                       1.200   1.200

     PseudoPot. # 2 for Cu read from file:
     /n/holyscratch01/hoffman_lab/ruizhe/YBCO_Project/pseudo/Cu.pbe-n-van_ak.UPF
     MD5 check sum: 34e3282627ffb533726feb647e090d62
     Pseudo is Ultrasoft + core correction, Zval = 11.0
     Generated by new atomic code, or converted to UPF format
     Using radial grid of  867 points,  6 beta functions with:
                l(1) =   0
                l(2) =   0
                l(3) =   1
                l(4) =   1
                l(5) =   2
                l(6) =   2
     Q(r) pseudized with  8 coefficients,  rinner =    1.400   1.400   1.400
                                                       1.400   1.400

     PseudoPot. # 3 for O  read from file:
     /n/holyscratch01/hoffman_lab/ruizhe/YBCO_Project/pseudo/O.pbe-van_ak.UPF
     MD5 check sum: 783ce7fe4c79b6a4916957118fed0856
     Pseudo is Ultrasoft, Zval =  6.0
     Generated by new atomic code, or converted to UPF format
     Using radial grid of  737 points,  4 beta functions with:
                l(1) =   0
                l(2) =   0
                l(3) =   1
                l(4) =   1
     Q(r) pseudized with  8 coefficients,  rinner =    0.800   0.800   0.800

     PseudoPot. # 4 for Y  read from file:
     /n/holyscratch01/hoffman_lab/ruizhe/YBCO_Project/pseudo/Y.pbe-nsp-van.UPF
     MD5 check sum: 4412fed3ab108fed87a1b7d6a69a4a38
     Pseudo is Ultrasoft + core correction, Zval = 11.0
     Generated by new atomic code, or converted to UPF format
     Using radial grid of  885 points,  6 beta functions with:
                l(1) =   0
                l(2) =   0
                l(3) =   1
                l(4) =   1
                l(5) =   2
                l(6) =   2
     Q(r) pseudized with  6 coefficients,  rinner =    1.200   1.200   1.200
                                                       1.200   1.200

     atomic species   valence    mass     pseudopotential
        Ba            10.00   137.32700     Ba( 1.00)
        Cu            11.00    63.54600     Cu( 1.00)
        O              6.00    15.99900     O ( 1.00)
        Y             11.00    88.90584     Y ( 1.00)

      4 Sym. Ops. (no inversion) found

   Cartesian axes

     site n.     atom                  positions (alat units)
         1           O   tau(   1) = (   0.0000000   0.4877884  -0.0257983  )
         2           Cu  tau(   2) = (   0.0000000   0.0000000   0.0215779  )
         3           O   tau(   3) = (   0.0000000   0.0000000   0.5073114  )
         4           Ba  tau(   4) = (   0.4999996   0.4877884   0.5319677  )
         5           Cu  tau(   5) = (   0.0000000   0.0000000   1.0495845  )
         6           O   tau(   6) = (   0.4999996   0.0000000   1.1181579  )
         7           O   tau(   7) = (   0.0000000   0.4877884   1.1273137  )
         8           Y   tau(   8) = (   0.4999996   0.4877884   1.4938777  )
         9           O   tau(   9) = (   0.0000000   0.4877884   1.8497402  )
        10           O   tau(  10) = (   0.4999996   0.0000000   1.8692709  )
        11           Cu  tau(  11) = (   0.0000000   0.0000000   1.9417560  )
        12           Ba  tau(  12) = (   0.4999996   0.4877884   2.4526063  )
        13           O   tau(  13) = (   0.0000000   0.0000000   2.5103470  )
        14           O   tau(  14) = (   0.0000000   0.4877884   2.9968469  )
        15           Cu  tau(  15) = (   0.0000000   0.0000000   2.9968521  )
        16           O   tau(  16) = (   0.0000000   0.0000000   3.4833288  )
        17           Ba  tau(  17) = (   0.4999996   0.4877884   3.5410618  )
        18           Cu  tau(  18) = (   0.0000000   0.0000000   4.9520846  )
        19           O   tau(  19) = (   0.4999996   0.0000000   5.0245569  )
        20           O   tau(  20) = (   0.0000000   0.4877884   5.0440696  )
        21           Y   tau(  21) = (   0.4999996   0.4877884   5.3999347  )
        22           O   tau(  22) = (   0.0000000   0.4877884   5.7664987  )
        23           O   tau(  23) = (   0.4999996   0.0000000   5.7756673  )
        24           Cu  tau(  24) = (   0.0000000   0.0000000   5.8442459  )
        25           Ba  tau(  25) = (   0.4999996   0.4877884   6.3618472  )
        26           O   tau(  26) = (   0.0000000   0.0000000   6.3865036  )
        27           Cu  tau(  27) = (   0.0000000   0.0000000   6.8722088  )
        28           O   tau(  28) = (   0.0000000   0.4877884   6.9195901  )

     number of k points=    25  Gaussian smearing, width (Ry)=  0.0100
                       cart. coord. in units 2pi/alat
        k(    1) = (   0.0000000   0.0000000   0.0000000), wk =   0.0312500
        k(    2) = (   0.0000000   0.1281293   0.0000000), wk =   0.0625000
        k(    3) = (   0.0000000   0.2562585   0.0000000), wk =   0.0625000
        k(    4) = (   0.0000000   0.3843878   0.0000000), wk =   0.0625000
        k(    5) = (   0.0000000  -0.5125170   0.0000000), wk =   0.0312500
        k(    6) = (   0.1250000   0.0000000   0.0000000), wk =   0.0625000
        k(    7) = (   0.1250000   0.1281293   0.0000000), wk =   0.1250000
        k(    8) = (   0.1250000   0.2562585   0.0000000), wk =   0.1250000
        k(    9) = (   0.1250000   0.3843878   0.0000000), wk =   0.1250000
        k(   10) = (   0.1250000  -0.5125170   0.0000000), wk =   0.0625000
        k(   11) = (   0.2500000   0.0000000   0.0000000), wk =   0.0625000
        k(   12) = (   0.2500000   0.1281293   0.0000000), wk =   0.1250000
        k(   13) = (   0.2500000   0.2562585   0.0000000), wk =   0.1250000
        k(   14) = (   0.2500000   0.3843878   0.0000000), wk =   0.1250000
        k(   15) = (   0.2500000  -0.5125170   0.0000000), wk =   0.0625000
        k(   16) = (   0.3750000   0.0000000   0.0000000), wk =   0.0625000
        k(   17) = (   0.3750000   0.1281293   0.0000000), wk =   0.1250000
        k(   18) = (   0.3750000   0.2562585   0.0000000), wk =   0.1250000
        k(   19) = (   0.3750000   0.3843878   0.0000000), wk =   0.1250000
        k(   20) = (   0.3750000  -0.5125170   0.0000000), wk =   0.0625000
        k(   21) = (  -0.5000000   0.0000000   0.0000000), wk =   0.0312500
        k(   22) = (  -0.5000000   0.1281293   0.0000000), wk =   0.0625000
        k(   23) = (  -0.5000000   0.2562585   0.0000000), wk =   0.0625000
        k(   24) = (  -0.5000000   0.3843878   0.0000000), wk =   0.0625000
        k(   25) = (  -0.5000000  -0.5125170   0.0000000), wk =   0.0312500

     Initial potential from superposition of free atoms

     starting charge  228.84827, renormalised to  229.00000

     negative rho (up, down):  8.949E-02 0.000E+00
     Starting wfcs are  201 randomized atomic wfcs

     Self-consistent Calculation

     iteration #  1     ecut=    60.00 Ry     beta= 0.20
     Davidson diagonalization with overlap
     ethr =  1.00E-02,  avg # of iterations =  2.0

     negative rho (up, down):  8.740E-02 0.000E+00

     total energy              =   -1869.58433793 Ry
     Harris-Foulkes estimate   =   -1871.19353363 Ry
     estimated scf accuracy    <      15.10273484 Ry

[...]

     iteration # 12     ecut=    60.00 Ry     beta= 0.20
     Davidson diagonalization with overlap
     c_bands:  1 eigenvalues not converged
     ethr =  2.53E-05,  avg # of iterations =  9.4

[...]

     iteration # 17     ecut=    60.00 Ry     beta= 0.20
     Davidson diagonalization with overlap
     c_bands:  1 eigenvalues not converged
     ethr =  4.44E-06,  avg # of iterations =  3.1

[...]

     total energy              =   -1868.77600319 Ry
     Harris-Foulkes estimate   =   -1868.77600312 Ry
     estimated scf accuracy    <       0.00000137 Ry

     iteration # 36     ecut=    60.00 Ry     beta= 0.20
     Davidson diagonalization with overlap
     ethr =  5.98E-10,  avg # of iterations =  2.0

[...]

     End of self-consistent calculation

          k = 0.0000 0.0000 0.0000 ( 36815 PWs)   bands (ev):

   -38.3294 -38.0013 -24.1390 -22.9842 -22.9571 -22.8804 -18.8646 -18.5065
   -18.3339 -18.3244 -18.0241 -18.0073 -15.6606 -15.3900 -14.9295 -14.7011
   -14.4831 -14.4690 -14.4459 -14.3000 -14.2751 -14.1846 -13.9670 -13.9631
   -13.8336 -13.7336 -13.6984  -9.4424  -8.9720  -8.9507  -8.2078  -8.1724
    -8.1558  -7.9766  -7.9515  -7.9499  -7.9238  -7.8339  -7.8115  -2.2891
    -2.2551  -2.1207  -2.0851  -2.0732  -2.0700  -2.0682  -2.0079  -1.9997
    -1.9241  -1.9117  -1.6973  -1.5670  -1.1379  -1.0910  -0.8129  -0.7542
    -0.6748  -0.6685  -0.6667  -0.6127  -0.3154  -0.2778  -0.2758  -0.2411
    -0.2387  -0.1337  -0.1301  -0.0763  -0.0755  -0.0612   0.0220   0.0760
     0.0818   0.0824   0.1610   0.1615   0.1731   0.1884   0.2034   0.2308
     0.2806   0.3255   0.3283   0.3366   0.3546   0.4508   0.4536   0.5861
     0.6340   0.7477   0.8102   0.8754   1.0221   1.0223   1.0614   1.1468
     1.1480   1.1864   1.1867   1.1952   1.2727   1.2952   1.3419   1.3510
     1.5753   1.6475   1.6972   1.7517   1.7772   1.8187   1.8357   1.9756
     1.9982   2.0173   2.1014   2.1466   2.1820   2.4581   2.4613   4.2911
     5.0528   5.0827   5.2357   5.6216   5.8066   6.2505   6.4757   6.5147
     6.9012   7.2752   7.5870   7.6240   7.9251   7.9690   8.0540   8.1772
     8.2501   8.4059

[...]

          k = 0.3750-0.5125 0.0000 ( 37046 PWs)   bands (ev):

[...]

          k =-0.5000 0.0000 0.0000 ( 36894 PWs)   bands (ev):

[...]

          k =-0.5000-0.5125 0.0000 ( 37044 PWs)   bands (ev):

   -38.3015 -37.9732 -23.9333 -22.7421 -22.7147 -22.6449 -18.8838 -18.8571
   -18.5699 -18.5543 -18.3833 -18.0158 -14.7169 -14.7028 -14.5042 -14.4608
   -14.4549 -14.4471 -14.4306 -14.2014 -14.1478 -14.1111 -13.8951 -13.8577
   -13.8490 -13.8196 -13.6758  -9.9345  -9.5910  -9.3638  -8.9363  -8.9099
    -8.7812  -8.6472  -8.6226  -8.4765  -8.1879  -8.1506  -8.1452  -4.4000
    -4.2171  -3.8177  -3.4474  -3.4381  -2.9418  -2.9361  -2.7291  -2.5448
    -2.5163  -2.5057  -2.4216  -2.2117  -2.0532  -2.0492  -2.0245  -2.0125
    -1.7333  -1.5880  -1.2535  -1.2357  -1.1611  -1.1336  -1.0291  -0.9508
    -0.9314  -0.8732  -0.7922  -0.7188  -0.7141  -0.5682  -0.5283  -0.5085
    -0.4573  -0.0757  -0.0725   0.1995   0.3969   0.4948   0.6833   0.8713
     1.1437   1.1698   1.1995   1.3034   1.3375   1.3578   1.3703   1.3804
     1.4028   1.4107   1.5383   1.5438   1.5773   1.6347   1.6874   1.7890
     1.8232   1.8324   1.8356   1.8499   1.8638   1.8919   1.9013   1.9038
     1.9532   2.2087   2.2541   2.3009   2.3478   2.3530   2.4560   2.4606
     2.7878   2.7982   4.1778   4.4701   4.5647   4.6517   4.6526   4.7812
     5.5973   5.6082   6.2314   6.4271   6.8170   6.9048   7.7732   8.2072
     8.2209   8.5220   8.6662   8.7713   8.8680   8.9849   8.9958   9.0442
     9.2889   9.3131

     the Fermi energy is     2.7588 ev

!    total energy              =   -1868.77600306 Ry
     Harris-Foulkes estimate   =   -1868.77600328 Ry
     estimated scf accuracy    <       0.00000039 Ry

     The total energy is the sum of the following terms:

     one-electron contribution =  -26603.39541688 Ry
     hartree contribution      =   13453.93506684 Ry
     xc contribution           =    -642.20615151 Ry
     ewald contribution        =   11922.89903629 Ry
     smearing contrib. (-TS)   =      -0.00853779 Ry

     convergence has been achieved in  36 iterations

     negative rho (up, down):  9.053E-02 0.000E+00

     Forces acting on atoms (cartesian axes, Ry/au):

     atom    1 type  3   force =     0.00000000    0.00000000   -0.00005140
     atom    2 type  2   force =     0.00000000    0.00000000   -0.00053846
     atom    3 type  3   force =     0.00000000    0.00000000   -0.00002209
     atom    4 type  1   force =     0.00000000    0.00000000   -0.00013487
     atom    5 type  2   force =     0.00000000    0.00000000   -0.00065733
     atom    6 type  3   force =     0.00000000    0.00000000    0.00036413
     atom    7 type  3   force =     0.00000000    0.00000000   -0.00003658
     atom    8 type  4   force =     0.00000000    0.00000000   -0.00065980
     atom    9 type  3   force =     0.00000000    0.00000000    0.00103532
     atom   10 type  3   force =     0.00000000    0.00000000    0.00137485
     atom   11 type  2   force =     0.00000000    0.00000000   -0.00176839
     atom   12 type  1   force =     0.00000000    0.00000000   -0.00469219
     atom   13 type  3   force =     0.00000000    0.00000000    0.00281486
     atom   14 type  3   force =     0.00000000    0.00000000    0.01545412
     atom   15 type  2   force =     0.00000000    0.00000000   -0.01279353
     atom   16 type  3   force =     0.00000000    0.00000000    0.03410033
     atom   17 type  1   force =     0.00000000    0.00000000   -0.03179795
     atom   18 type  2   force =     0.00000000    0.00000000    0.00340344
     atom   19 type  3   force =     0.00000000    0.00000000    0.01560997
     atom   20 type  3   force =     0.00000000    0.00000000    0.00767221
     atom   21 type  4   force =     0.00000000    0.00000000   -0.04045416
     atom   22 type  3   force =     0.00000000    0.00000000    0.00374865
     atom   23 type  3   force =     0.00000000    0.00000000    0.00617031
     atom   24 type  2   force =     0.00000000    0.00000000    0.00261448
     atom   25 type  1   force =     0.00000000    0.00000000   -0.00169408
     atom   26 type  3   force =     0.00000000    0.00000000    0.00139093
     atom   27 type  2   force =     0.00000000    0.00000000   -0.00094230
     atom   28 type  3   force =     0.00000000    0.00000000    0.00048952

     Total force =     0.068039     Total SCF correction =     0.002785

     Computing stress (Cartesian axis) and pressure

     negative rho (up, down):  9.053E-02 0.000E+00
          total   stress  (Ry/bohr**3)                   (kbar)     P=       -5.77
  -0.00007122   0.00000000   0.00000000          -10.48        0.00        0.00
   0.00000000  -0.00003120   0.00000000            0.00       -4.59        0.00
   0.00000000   0.00000000  -0.00001526            0.00        0.00       -2.25

     General routines

     Parallel routines

   This run was terminated on:  17:45:26   5May2021

   JOB DONE.
[1620251127.123985] [holy7c04109:70294:0]          mpool.c:43   UCX  WARN  object 0x331e8c0 was not returned to mpool ucp_requests
[1620251127.125000] [holy7c04109:70295:0]          mpool.c:43   UCX  WARN  object 0x3797b00 was not returned to mpool ucp_requests
[1620251127.121196] [holy7c04211:92047:0]          mpool.c:43   UCX  WARN  object 0x31bc400 was not returned to mpool ucp_requests
[1620251127.121213] [holy7c04211:92047:0]          mpool.c:43   UCX  WARN  object 0x31bcb00 was not returned to mpool ucp_requests
[1620251127.202959] [holy7c04301:258215:0]          mpool.c:43   UCX  WARN  object 0x4530b80 was not returned to mpool ucp_requests
[1620251127.202958] [holy7c04301:258212:0]          mpool.c:43   UCX  WARN  object 0x31d1e40 was not returned to mpool ucp_requests
[1620251127.202964] [holy7c04301:258214:0]          mpool.c:43   UCX  WARN  object 0x33b9500 was not returned to mpool ucp_requests
[1620251127.203020] [holy7c04301:258214:0]          mpool.c:43   UCX  WARN  object 0x33b9dc0 was not returned to mpool ucp_requests
[1620251127.202959] [holy7c04301:258216:0]          mpool.c:43   UCX  WARN  object 0x47c1800 was not returned to mpool ucp_requests
[1620251127.203032] [holy7c04301:258216:0]          mpool.c:43   UCX  WARN  object 0x47c1b80 was not returned to mpool ucp_requests