     Program PWSCF v.6.5 starts on  5May2021 at 17:23:47

     R & G space division:  proc/nbgrp/npool/nimage =      20
     Reading input from YBCO_Y_cleave_1.0_sep_scf.pwi
Warning: card &IONS ignored
Warning: card     ION_DYNAMICS = 'BFGS' ignored
Warning: card / ignored
Warning: card &CELL ignored
Warning: card     CELL_DYNAMICS = 'BFGS' ignored
Warning: card / ignored

     Current dimensions of program PWSCF are:
     Max number of different atomic species (ntypx) = 10
     Max number of k-points (npk) =  40000
     Max angular momentum in pseudopotentials (lmaxx) =  3

     Message from routine setup:
     using ibrav=0 with symmetry is DISCOURAGED, use correct ibrav instead

     bravais-lattice index     =            0
     lattice parameter (alat)  =       7.3477  a.u.
     unit-cell volume          =    4456.2979 (a.u.)^3
     number of atoms/cell      =           28
     number of atomic types    =            4
     number of electrons       =       229.00
     number of Kohn-Sham states=          138
     kinetic-energy cutoff     =      60.0000  Ry
     charge density cutoff     =     720.0000  Ry
     convergence threshold     =      1.0E-06
     mixing beta               =       0.2000
     number of iterations used =           10  local-TF  mixing
     Exchange-correlation= SLA PW PBE PBE
                           (   1   4   3   4   0   0   0)

     celldm(1)=   7.347715  celldm(2)=   0.000000  celldm(3)=   0.000000
     celldm(4)=   0.000000  celldm(5)=   0.000000  celldm(6)=   0.000000

     crystal axes: (cart. coord. in units of alat)
               a(1) = (   1.000000   0.000000   0.000000 )
               a(2) = (   0.000000   0.975577   0.000000 )
               a(3) = (   0.000000   0.000000  11.514779 )

     reciprocal axes: (cart. coord. in units 2 pi/alat)
               b(1) = (  1.000000  0.000000  0.000000 )
               b(2) = (  0.000000  1.025034  0.000000 )
               b(3) = (  0.000000  0.000000  0.086845 )

     PseudoPot. # 1 for Ba read from file:
     /n/holyscratch01/hoffman_lab/ruizhe/YBCO_Project/pseudo/Ba.pbe-nsp-van.UPF
     MD5 check sum: 2b9c31dd849566dd297d80989662b7a0
     Pseudo is Ultrasoft + core correction, Zval = 10.0
     Generated by new atomic code, or converted to UPF format
     Using radial grid of  907 points,  6 beta functions with:
                l(1) =   0
                l(2) =   0
                l(3) =   1
                l(4) =   1
                l(5) =   2
                l(6) =   2
     Q(r) pseudized with  6 coefficients,  rinner =    1.200   1.200   1.200
                                                       1.200   1.200

     PseudoPot. # 2 for Cu read from file:
     /n/holyscratch01/hoffman_lab/ruizhe/YBCO_Project/pseudo/Cu.pbe-n-van_ak.UPF
     MD5 check sum: 34e3282627ffb533726feb647e090d62
     Pseudo is Ultrasoft + core correction, Zval = 11.0
     Generated by new atomic code, or converted to UPF format
     Using radial grid of  867 points,  6 beta functions with:
                l(1) =   0
                l(2) =   0
                l(3) =   1
                l(4) =   1
                l(5) =   2
                l(6) =   2
     Q(r) pseudized with  8 coefficients,  rinner =    1.400   1.400   1.400
                                                       1.400   1.400

     PseudoPot. # 3 for O  read from file:
     /n/holyscratch01/hoffman_lab/ruizhe/YBCO_Project/pseudo/O.pbe-van_ak.UPF
     MD5 check sum: 783ce7fe4c79b6a4916957118fed0856
     Pseudo is Ultrasoft, Zval =  6.0
     Generated by new atomic code, or converted to UPF format
     Using radial grid of  737 points,  4 beta functions with:
                l(1) =   0
                l(2) =   0
                l(3) =   1
                l(4) =   1
     Q(r) pseudized with  8 coefficients,  rinner =    0.800   0.800   0.800

     PseudoPot. # 4 for Y  read from file:
     /n/holyscratch01/hoffman_lab/ruizhe/YBCO_Project/pseudo/Y.pbe-nsp-van.UPF
     MD5 check sum: 4412fed3ab108fed87a1b7d6a69a4a38
     Pseudo is Ultrasoft + core correction, Zval = 11.0
     Generated by new atomic code, or converted to UPF format
     Using radial grid of  885 points,  6 beta functions with:
                l(1) =   0
                l(2) =   0
                l(3) =   1
                l(4) =   1
                l(5) =   2
                l(6) =   2
     Q(r) pseudized with  6 coefficients,  rinner =    1.200   1.200   1.200
                                                       1.200   1.200

     atomic species   valence    mass     pseudopotential
        Ba            10.00   137.32700     Ba( 1.00)
        Cu            11.00    63.54600     Cu( 1.00)
        O              6.00    15.99900     O ( 1.00)
        Y             11.00    88.90584     Y ( 1.00)

      4 Sym. Ops. (no inversion) found

   Cartesian axes

     site n.     atom                  positions (alat units)
         1           O   tau(   1) = (   0.0000000   0.4877884  -0.0257983  )
         2           Cu  tau(   2) = (   0.0000000   0.0000000   0.0215779  )
         3           O   tau(   3) = (   0.0000000   0.0000000   0.5073114  )
         4           Ba  tau(   4) = (   0.4999996   0.4877884   0.5319677  )
         5           Cu  tau(   5) = (   0.0000000   0.0000000   1.0495845  )
         6           O   tau(   6) = (   0.4999996   0.0000000   1.1181579  )
         7           O   tau(   7) = (   0.0000000   0.4877884   1.1273137  )
         8           Y   tau(   8) = (   0.4999996   0.4877884   1.4938777  )
         9           O   tau(   9) = (   0.0000000   0.4877884   1.8497402  )
        10           O   tau(  10) = (   0.4999996   0.0000000   1.8692709  )
        11           Cu  tau(  11) = (   0.0000000   0.0000000   1.9417560  )
        12           Ba  tau(  12) = (   0.4999996   0.4877884   2.4526063  )
        13           O   tau(  13) = (   0.0000000   0.0000000   2.5103470  )
        14           O   tau(  14) = (   0.0000000   0.4877884   2.9968469  )
        15           Cu  tau(  15) = (   0.0000000   0.0000000   2.9968521  )
        16           O   tau(  16) = (   0.0000000   0.0000000   3.4833288  )
        17           Ba  tau(  17) = (   0.4999996   0.4877884   3.5410618  )
        18           Cu  tau(  18) = (   0.0000000   0.0000000   4.0519352  )
        19           O   tau(  19) = (   0.4999996   0.0000000   4.1244075  )
        20           O   tau(  20) = (   0.0000000   0.4877884   4.1439202  )
        21           Y   tau(  21) = (   0.4999996   0.4877884   4.4997853  )
        22           O   tau(  22) = (   0.0000000   0.4877884   5.1235348  )
        23           O   tau(  23) = (   0.4999996   0.0000000   5.1327035  )
        24           Cu  tau(  24) = (   0.0000000   0.0000000   5.2012820  )
        25           Ba  tau(  25) = (   0.4999996   0.4877884   5.7188833  )
        26           O   tau(  26) = (   0.0000000   0.0000000   5.7435397  )
        27           Cu  tau(  27) = (   0.0000000   0.0000000   6.2292449  )
        28           O   tau(  28) = (   0.0000000   0.4877884   6.2766262  )

     number of k points=    25  Gaussian smearing, width (Ry)=  0.0100
                       cart. coord. in units 2pi/alat
        k(    1) = (   0.0000000   0.0000000   0.0000000), wk =   0.0312500
        k(    2) = (   0.0000000   0.1281293   0.0000000), wk =   0.0625000
        k(    3) = (   0.0000000   0.2562585   0.0000000), wk =   0.0625000
        k(    4) = (   0.0000000   0.3843878   0.0000000), wk =   0.0625000
        k(    5) = (   0.0000000  -0.5125170   0.0000000), wk =   0.0312500
        k(    6) = (   0.1250000   0.0000000   0.0000000), wk =   0.0625000
        k(    7) = (   0.1250000   0.1281293   0.0000000), wk =   0.1250000
        k(    8) = (   0.1250000   0.2562585   0.0000000), wk =   0.1250000
        k(    9) = (   0.1250000   0.3843878   0.0000000), wk =   0.1250000
        k(   10) = (   0.1250000  -0.5125170   0.0000000), wk =   0.0625000
        k(   11) = (   0.2500000   0.0000000   0.0000000), wk =   0.0625000
        k(   12) = (   0.2500000   0.1281293   0.0000000), wk =   0.1250000
        k(   13) = (   0.2500000   0.2562585   0.0000000), wk =   0.1250000
        k(   14) = (   0.2500000   0.3843878   0.0000000), wk =   0.1250000
        k(   15) = (   0.2500000  -0.5125170   0.0000000), wk =   0.0625000
        k(   16) = (   0.3750000   0.0000000   0.0000000), wk =   0.0625000
        k(   17) = (   0.3750000   0.1281293   0.0000000), wk =   0.1250000
        k(   18) = (   0.3750000   0.2562585   0.0000000), wk =   0.1250000
        k(   19) = (   0.3750000   0.3843878   0.0000000), wk =   0.1250000
        k(   20) = (   0.3750000  -0.5125170   0.0000000), wk =   0.0625000
        k(   21) = (  -0.5000000   0.0000000   0.0000000), wk =   0.0312500
        k(   22) = (  -0.5000000   0.1281293   0.0000000), wk =   0.0625000
        k(   23) = (  -0.5000000   0.2562585   0.0000000), wk =   0.0625000
        k(   24) = (  -0.5000000   0.3843878   0.0000000), wk =   0.0625000
        k(   25) = (  -0.5000000  -0.5125170   0.0000000), wk =   0.0312500

     Initial potential from superposition of free atoms

     starting charge  228.84827, renormalised to  229.00000

     negative rho (up, down):  8.981E-02 0.000E+00
     Starting wfcs are  201 randomized atomic wfcs

     Self-consistent Calculation

     iteration #  1     ecut=    60.00 Ry     beta= 0.20
     Davidson diagonalization with overlap
     ethr =  1.00E-02,  avg # of iterations =  2.0

     negative rho (up, down):  8.743E-02 0.000E+00

     total energy              =   -1869.47895124 Ry
     Harris-Foulkes estimate   =   -1871.02688772 Ry
     estimated scf accuracy    <      13.70162900 Ry

[...]

     iteration # 19     ecut=    60.00 Ry     beta= 0.20
     Davidson diagonalization with overlap
     c_bands:  1 eigenvalues not converged
     ethr =  6.54E-06,  avg # of iterations =  8.4

[...]

     iteration # 27     ecut=    60.00 Ry     beta= 0.20
     Davidson diagonalization with overlap
     c_bands:  1 eigenvalues not converged
     c_bands:  1 eigenvalues not converged
     c_bands:  1 eigenvalues not converged
     ethr =  1.19E-07,  avg # of iterations =  6.7

[...]

     total energy              =   -1868.65960941 Ry
     Harris-Foulkes estimate   =   -1868.65960947 Ry
     estimated scf accuracy    <       0.00000135 Ry

     iteration # 34     ecut=    60.00 Ry     beta= 0.20
     Davidson diagonalization with overlap
     ethr =  5.89E-10,  avg # of iterations =  1.4

[...]

     End of self-consistent calculation

          k = 0.0000 0.0000 0.0000 ( 34859 PWs)   bands (ev):

   -40.2619 -37.9207 -22.7766 -22.5766 -22.4243 -22.3779 -20.2946 -20.1764
   -20.1696 -18.4557 -17.9255 -17.9154 -15.7569 -15.2519 -14.8578 -14.4774
   -14.3753 -14.2907 -14.0622 -14.0407 -14.0374 -13.7757 -13.5605 -13.5428
   -13.4063 -13.2498 -13.1920  -8.0845  -7.7976  -7.7134  -7.7028  -7.6967
    -7.5691  -7.5422  -7.5242  -7.3936  -7.3775  -7.3633  -7.3595  -2.5589
    -2.5370  -2.0963  -1.8805  -1.8476  -1.7927  -1.6976  -1.6607  -1.6465
    -1.5935  -1.5152  -1.1340  -1.0130  -0.9103  -0.6838  -0.6209  -0.5980
    -0.4302  -0.3338  -0.2611  -0.2604  -0.1594  -0.0186   0.0940   0.1288
     0.1584   0.1653   0.1837   0.1966   0.3223   0.3300   0.3446   0.3630
     0.3686   0.4251   0.4825   0.4897   0.5528   0.5947   0.6013   0.6121
     0.7170   0.7325   0.7348   0.7429   0.7457   0.8043   0.8092   0.8596
     0.8614   0.8767   1.1310   1.2018   1.3014   1.3047   1.4314   1.4893
     1.5232   1.5630   1.5954   1.6446   1.6505   1.6900   1.7021   1.9397
     2.0427   2.0825   2.1356   2.1633   2.1842   2.3414   2.3829   2.4255
     2.5025   2.5338   2.5881   2.6108   2.6117   2.8539   2.8697   4.1046
     5.4715   5.5366   5.8621   6.0868   6.2755   6.5295   6.5853   6.8813
     7.0748   7.2521   7.4054   7.7899   7.8151   7.8410   8.3492   8.3775
     8.4329   8.5323

[...]

          k = 0.3750-0.5125 0.0000 ( 35078 PWs)   bands (ev):

[...]

          k =-0.5000 0.0000 0.0000 ( 34974 PWs)   bands (ev):

[...]

          k =-0.5000-0.5125 0.0000 ( 35092 PWs)   bands (ev):

   -40.2409 -37.8929 -22.5420 -22.3345 -22.1887 -22.1334 -20.4717 -20.4351
   -20.0924 -18.4746 -18.4491 -17.9745 -15.0421 -15.0367 -14.3105 -14.2918
   -14.0538 -14.0315 -13.8591 -13.7924 -13.7368 -13.6970 -13.6682 -13.5474
   -13.4746 -13.4427 -13.4290  -8.6765  -8.5287  -8.4099  -8.3539  -8.3305
    -8.2397  -8.1364  -8.0711  -7.9881  -7.7757  -7.6587  -7.4921  -4.4156
    -3.9924  -3.4092  -3.0742  -2.9680  -2.7438  -2.5298  -2.5196  -2.4421
    -2.3166  -2.1389  -2.0159  -1.9332  -1.7815  -1.6466  -1.6243  -1.6102
    -1.4753  -1.2787  -1.2483  -1.0018  -0.8242  -0.7253  -0.7232  -0.6306
    -0.5440  -0.5066  -0.4646  -0.4620  -0.4483  -0.3852  -0.3077  -0.2955
    -0.1015   0.3340   0.3452   0.6597   0.7916   0.8634   0.9314   1.1287
     1.2902   1.3861   1.4466   1.5618   1.6083   1.6200   1.6957   1.7147
     1.7634   1.7964   1.8181   1.9168   1.9609   1.9868   2.0421   2.0475
     2.0728   2.2304   2.2320   2.2570   2.2693   2.2753   2.3115   2.4275
     2.4821   2.6970   2.7593   2.7675   2.7958   2.8670   2.8773   3.1974
     3.2171   3.2730   4.2577   4.5894   4.9570   5.0267   5.0594   5.2426
     5.3161   5.9477   6.0041   6.4560   6.5902   6.8369   7.0229   8.1893
     8.5193   8.6104   8.7630   9.0298   9.1297   9.4032   9.4649   9.5652
     9.7209   9.8962

     the Fermi energy is     3.1650 ev

!    total energy              =   -1868.65960884 Ry
     Harris-Foulkes estimate   =   -1868.65960945 Ry
     estimated scf accuracy    <       0.00000087 Ry

     The total energy is the sum of the following terms:

     one-electron contribution =  -31545.32524349 Ry
     hartree contribution      =   15927.29542682 Ry
     xc contribution           =    -642.03110872 Ry
     ewald contribution        =   14391.40992096 Ry
     smearing contrib. (-TS)   =      -0.00860441 Ry

     convergence has been achieved in  34 iterations

     negative rho (up, down):  9.017E-02 0.000E+00

     Forces acting on atoms (cartesian axes, Ry/au):

     atom    1 type  3   force =     0.00000000    0.00000000    0.00007789
     atom    2 type  2   force =     0.00000000    0.00000000    0.00159884
     atom    3 type  3   force =     0.00000000    0.00000000   -0.00015558
     atom    4 type  1   force =     0.00000000    0.00000000   -0.00008379
     atom    5 type  2   force =     0.00000000    0.00000000   -0.00110056
     atom    6 type  3   force =     0.00000000    0.00000000    0.00015064
     atom    7 type  3   force =     0.00000000    0.00000000    0.00002221
     atom    8 type  4   force =     0.00000000    0.00000000   -0.00018179
     atom    9 type  3   force =     0.00000000    0.00000000    0.00045821
     atom   10 type  3   force =     0.00000000    0.00000000    0.00065399
     atom   11 type  2   force =     0.00000000    0.00000000   -0.00246375
     atom   12 type  1   force =     0.00000000    0.00000000   -0.00127683
     atom   13 type  3   force =     0.00000000    0.00000000    0.00194131
     atom   14 type  3   force =     0.00000000    0.00000000    0.00476088
     atom   15 type  2   force =     0.00000000    0.00000000   -0.00831425
     atom   16 type  3   force =     0.00000000    0.00000000    0.01380634
     atom   17 type  1   force =     0.00000000    0.00000000   -0.01893131
     atom   18 type  2   force =     0.00000000    0.00000000    0.00150268
     atom   19 type  3   force =     0.00000000    0.00000000    0.06593533
     atom   20 type  3   force =     0.00000000    0.00000000    0.06388306
     atom   21 type  4   force =     0.00000000    0.00000000    0.00498008
     atom   22 type  3   force =     0.00000000    0.00000000   -0.04070127
     atom   23 type  3   force =     0.00000000    0.00000000   -0.03808655
     atom   24 type  2   force =     0.00000000    0.00000000   -0.02269409
     atom   25 type  1   force =     0.00000000    0.00000000   -0.02624137
     atom   26 type  3   force =     0.00000000    0.00000000    0.00102420
     atom   27 type  2   force =     0.00000000    0.00000000   -0.00285872
     atom   28 type  3   force =     0.00000000    0.00000000    0.00229422

     Total force =     0.115921     Total SCF correction =     0.005059

     Computing stress (Cartesian axis) and pressure

     negative rho (up, down):  9.017E-02 0.000E+00
          total   stress  (Ry/bohr**3)                   (kbar)     P=      -11.30
  -0.00001562   0.00000000   0.00000000           -2.30        0.00        0.00
   0.00000000   0.00000243   0.00000000            0.00        0.36        0.00
   0.00000000   0.00000000  -0.00021726            0.00        0.00      -31.96

     General routines

     Parallel routines

   This run was terminated on:  17:35:27   5May2021

   JOB DONE.
[1620250527.392729] [holy7c06306:41451:0]          mpool.c:43   UCX  WARN  object 0x40fbc00 was not returned to mpool ucp_requests
[1620250527.392058] [holy7c06211:127138:0]          mpool.c:43   UCX  WARN  object 0x2bdf940 was not returned to mpool ucp_requests
[1620250527.394805] [holy7c06201:79813:0]          mpool.c:43   UCX  WARN  object 0x3bc2800 was not returned to mpool ucp_requests
[1620250527.397093] [holy7c06209:15346:0]          mpool.c:43   UCX  WARN  object 0x3b74a40 was not returned to mpool ucp_requests
[1620250527.397108] [holy7c06209:15346:0]          mpool.c:43   UCX  WARN  object 0x3b74dc0 was not returned to mpool ucp_requests
[1620250527.398087] [holy7c06202:65564:0]          mpool.c:43   UCX  WARN  object 0x3826d80 was not returned to mpool ucp_requests
[1620250527.398050] [holy7c06304:13723:0]          mpool.c:43   UCX  WARN  object 0x2ad7700 was not returned to mpool ucp_requests
[1620250527.398073] [holy7c06304:13723:0]          mpool.c:43   UCX  WARN  object 0x2ad7fc0 was not returned to mpool ucp_requests
[1620250527.400607] [holy7c06305:5132 :0]          mpool.c:43   UCX  WARN  object 0x2cdb080 was not returned to mpool ucp_requests