     Program PWSCF v.6.5 starts on  5May2021 at 18: 6:20

     R & G space division:  proc/nbgrp/npool/nimage =      20
     Reading input from YBCO_Y_cleave_3.5_sep_scf.pwi
Warning: card &IONS ignored
Warning: card     ION_DYNAMICS = 'BFGS' ignored
Warning: card / ignored
Warning: card &CELL ignored
Warning: card     CELL_DYNAMICS = 'BFGS' ignored
Warning: card / ignored

     Current dimensions of program PWSCF are:
     Max number of different atomic species (ntypx) = 10
     Max number of k-points (npk) =  40000
     Max angular momentum in pseudopotentials (lmaxx) =  3

     Message from routine setup:
     using ibrav=0 with symmetry is DISCOURAGED, use correct ibrav instead

     bravais-lattice index     =            0
     lattice parameter (alat)  =       7.3477  a.u.
     unit-cell volume          =    4705.1293 (a.u.)^3
     number of atoms/cell      =           28
     number of atomic types    =            4
     number of electrons       =       229.00
     number of Kohn-Sham states=          138
     kinetic-energy cutoff     =      60.0000  Ry
     charge density cutoff     =     720.0000  Ry
     convergence threshold     =      1.0E-06
     mixing beta               =       0.2000
     number of iterations used =           10  local-TF  mixing
     Exchange-correlation= SLA PW PBE PBE
                           (   1   4   3   4   0   0   0)

     celldm(1)=   7.347715  celldm(2)=   0.000000  celldm(3)=   0.000000
     celldm(4)=   0.000000  celldm(5)=   0.000000  celldm(6)=   0.000000

     crystal axes: (cart. coord. in units of alat)
               a(1) = (   1.000000   0.000000   0.000000 )
               a(2) = (   0.000000   0.975577   0.000000 )
               a(3) = (   0.000000   0.000000  12.157743 )

     reciprocal axes: (cart. coord. in units 2 pi/alat)
               b(1) = (  1.000000  0.000000  0.000000 )
               b(2) = (  0.000000  1.025034  0.000000 )
               b(3) = (  0.000000  0.000000  0.082252 )

     PseudoPot. # 1 for Ba read from file:
     /n/holyscratch01/hoffman_lab/ruizhe/YBCO_Project/pseudo/Ba.pbe-nsp-van.UPF
     MD5 check sum: 2b9c31dd849566dd297d80989662b7a0
     Pseudo is Ultrasoft + core correction, Zval = 10.0
     Generated by new atomic code, or converted to UPF format
     Using radial grid of  907 points,  6 beta functions with:
                l(1) =   0
                l(2) =   0
                l(3) =   1
                l(4) =   1
                l(5) =   2
                l(6) =   2
     Q(r) pseudized with  6 coefficients,  rinner =    1.200   1.200   1.200
                                                       1.200   1.200

     PseudoPot. # 2 for Cu read from file:
     /n/holyscratch01/hoffman_lab/ruizhe/YBCO_Project/pseudo/Cu.pbe-n-van_ak.UPF
     MD5 check sum: 34e3282627ffb533726feb647e090d62
     Pseudo is Ultrasoft + core correction, Zval = 11.0
     Generated by new atomic code, or converted to UPF format
     Using radial grid of  867 points,  6 beta functions with:
                l(1) =   0
                l(2) =   0
                l(3) =   1
                l(4) =   1
                l(5) =   2
                l(6) =   2
     Q(r) pseudized with  8 coefficients,  rinner =    1.400   1.400   1.400
                                                       1.400   1.400

     PseudoPot. # 3 for O  read from file:
     /n/holyscratch01/hoffman_lab/ruizhe/YBCO_Project/pseudo/O.pbe-van_ak.UPF
     MD5 check sum: 783ce7fe4c79b6a4916957118fed0856
     Pseudo is Ultrasoft, Zval =  6.0
     Generated by new atomic code, or converted to UPF format
     Using radial grid of  737 points,  4 beta functions with:
                l(1) =   0
                l(2) =   0
                l(3) =   1
                l(4) =   1
     Q(r) pseudized with  8 coefficients,  rinner =    0.800   0.800   0.800

     PseudoPot. # 4 for Y  read from file:
     /n/holyscratch01/hoffman_lab/ruizhe/YBCO_Project/pseudo/Y.pbe-nsp-van.UPF
     MD5 check sum: 4412fed3ab108fed87a1b7d6a69a4a38
     Pseudo is Ultrasoft + core correction, Zval = 11.0
     Generated by new atomic code, or converted to UPF format
     Using radial grid of  885 points,  6 beta functions with:
                l(1) =   0
                l(2) =   0
                l(3) =   1
                l(4) =   1
                l(5) =   2
                l(6) =   2
     Q(r) pseudized with  6 coefficients,  rinner =    1.200   1.200   1.200
                                                       1.200   1.200

     atomic species   valence    mass     pseudopotential
        Ba            10.00   137.32700     Ba( 1.00)
        Cu            11.00    63.54600     Cu( 1.00)
        O              6.00    15.99900     O ( 1.00)
        Y             11.00    88.90584     Y ( 1.00)

      4 Sym. Ops. (no inversion) found

   Cartesian axes

     site n.     atom                  positions (alat units)
         1           O   tau(   1) = (   0.0000000   0.4877884  -0.0257983  )
         2           Cu  tau(   2) = (   0.0000000   0.0000000   0.0215779  )
         3           O   tau(   3) = (   0.0000000   0.0000000   0.5073114  )
         4           Ba  tau(   4) = (   0.4999996   0.4877884   0.5319677  )
         5           Cu  tau(   5) = (   0.0000000   0.0000000   1.0495845  )
         6           O   tau(   6) = (   0.4999996   0.0000000   1.1181579  )
         7           O   tau(   7) = (   0.0000000   0.4877884   1.1273137  )
         8           Y   tau(   8) = (   0.4999996   0.4877884   1.4938777  )
         9           O   tau(   9) = (   0.0000000   0.4877884   1.8497402  )
        10           O   tau(  10) = (   0.4999996   0.0000000   1.8692709  )
        11           Cu  tau(  11) = (   0.0000000   0.0000000   1.9417560  )
        12           Ba  tau(  12) = (   0.4999996   0.4877884   2.4526063  )
        13           O   tau(  13) = (   0.0000000   0.0000000   2.5103470  )
        14           O   tau(  14) = (   0.0000000   0.4877884   2.9968469  )
        15           Cu  tau(  15) = (   0.0000000   0.0000000   2.9968521  )
        16           O   tau(  16) = (   0.0000000   0.0000000   3.4833288  )
        17           Ba  tau(  17) = (   0.4999996   0.4877884   3.5410618  )
        18           Cu  tau(  18) = (   0.0000000   0.0000000   4.0519352  )
        19           O   tau(  19) = (   0.4999996   0.0000000   4.1244075  )
        20           O   tau(  20) = (   0.0000000   0.4877884   4.1439202  )
        21           Y   tau(  21) = (   0.4999996   0.4877884   4.4997853  )
        22           O   tau(  22) = (   0.0000000   0.4877884   5.7664987  )
        23           O   tau(  23) = (   0.4999996   0.0000000   5.7756673  )
        24           Cu  tau(  24) = (   0.0000000   0.0000000   5.8442459  )
        25           Ba  tau(  25) = (   0.4999996   0.4877884   6.3618472  )
        26           O   tau(  26) = (   0.0000000   0.0000000   6.3865036  )
        27           Cu  tau(  27) = (   0.0000000   0.0000000   6.8722088  )
        28           O   tau(  28) = (   0.0000000   0.4877884   6.9195901  )

     number of k points=    25  Gaussian smearing, width (Ry)=  0.0100
                       cart. coord. in units 2pi/alat
        k(    1) = (   0.0000000   0.0000000   0.0000000), wk =   0.0312500
        k(    2) = (   0.0000000   0.1281293   0.0000000), wk =   0.0625000
        k(    3) = (   0.0000000   0.2562585   0.0000000), wk =   0.0625000
        k(    4) = (   0.0000000   0.3843878   0.0000000), wk =   0.0625000
        k(    5) = (   0.0000000  -0.5125170   0.0000000), wk =   0.0312500
        k(    6) = (   0.1250000   0.0000000   0.0000000), wk =   0.0625000
        k(    7) = (   0.1250000   0.1281293   0.0000000), wk =   0.1250000
        k(    8) = (   0.1250000   0.2562585   0.0000000), wk =   0.1250000
        k(    9) = (   0.1250000   0.3843878   0.0000000), wk =   0.1250000
        k(   10) = (   0.1250000  -0.5125170   0.0000000), wk =   0.0625000
        k(   11) = (   0.2500000   0.0000000   0.0000000), wk =   0.0625000
        k(   12) = (   0.2500000   0.1281293   0.0000000), wk =   0.1250000
        k(   13) = (   0.2500000   0.2562585   0.0000000), wk =   0.1250000
        k(   14) = (   0.2500000   0.3843878   0.0000000), wk =   0.1250000
        k(   15) = (   0.2500000  -0.5125170   0.0000000), wk =   0.0625000
        k(   16) = (   0.3750000   0.0000000   0.0000000), wk =   0.0625000
        k(   17) = (   0.3750000   0.1281293   0.0000000), wk =   0.1250000
        k(   18) = (   0.3750000   0.2562585   0.0000000), wk =   0.1250000
        k(   19) = (   0.3750000   0.3843878   0.0000000), wk =   0.1250000
        k(   20) = (   0.3750000  -0.5125170   0.0000000), wk =   0.0625000
        k(   21) = (  -0.5000000   0.0000000   0.0000000), wk =   0.0312500
        k(   22) = (  -0.5000000   0.1281293   0.0000000), wk =   0.0625000
        k(   23) = (  -0.5000000   0.2562585   0.0000000), wk =   0.0625000
        k(   24) = (  -0.5000000   0.3843878   0.0000000), wk =   0.0625000
        k(   25) = (  -0.5000000  -0.5125170   0.0000000), wk =   0.0312500

     Initial potential from superposition of free atoms

     starting charge  228.84827, renormalised to  229.00000

     negative rho (up, down):  8.970E-02 0.000E+00
     Starting wfcs are  201 randomized atomic wfcs

     Self-consistent Calculation

     iteration #  1     ecut=    60.00 Ry     beta= 0.20
     Davidson diagonalization with overlap
     ethr =  1.00E-02,  avg # of iterations =  2.0

     negative rho (up, down):  8.736E-02 0.000E+00

     total energy              =   -1869.45158938 Ry
     Harris-Foulkes estimate   =   -1871.03690790 Ry
     estimated scf accuracy    <      14.56683973 Ry

[...]

     iteration # 17     ecut=    60.00 Ry     beta= 0.20
     Davidson diagonalization with overlap
     c_bands:  2 eigenvalues not converged
     ethr =  6.72E-06,  avg # of iterations =  7.2

[...]

     iteration # 28     ecut=    60.00 Ry     beta= 0.20
     Davidson diagonalization with overlap
     c_bands:  1 eigenvalues not converged
     ethr =  3.18E-07,  avg # of iterations =  4.6

[...]

     total energy              =   -1868.40074139 Ry
     Harris-Foulkes estimate   =   -1868.40074152 Ry
     estimated scf accuracy    <       0.00000110 Ry

     iteration # 38     ecut=    60.00 Ry     beta= 0.20
     Davidson diagonalization with overlap
     ethr =  4.79E-10,  avg # of iterations =  1.0

[...]

     End of self-consistent calculation

          k = 0.0000 0.0000 0.0000 ( 36815 PWs)   bands (ev):

   -41.2459 -38.3362 -23.2722 -22.9903 -22.8503 -22.6100 -21.3841 -21.1179
   -21.1098 -18.8708 -18.3409 -18.3309 -16.3860 -15.6657 -15.4572 -14.8106
   -14.7054 -14.5333 -14.4745 -14.4512 -14.3837 -14.1896 -13.9725 -13.9107
   -13.8683 -13.6823 -13.2312  -8.5854  -8.2115  -8.2066  -8.1966  -8.1219
    -7.9827  -7.9559  -7.8041  -7.7855  -7.7370  -7.6379  -7.6030  -3.1621
    -3.1382  -2.6905  -2.2945  -2.2613  -2.2405  -2.1135  -2.0733  -2.0396
    -2.0068  -1.9295  -1.7448  -1.1009  -1.0715  -1.0446  -1.0290  -0.9030
    -0.7525  -0.6723  -0.6425  -0.6327  -0.5869  -0.4290  -0.3207  -0.2835
    -0.2468  -0.2098  -0.1829  -0.1662  -0.1493  -0.0953  -0.0822  -0.0803
    -0.0662   0.0120   0.0691   0.0761   0.1829   0.1881   0.2108   0.2820
     0.3178   0.3187   0.3311   0.3459   0.3628   0.4065   0.4172   0.4477
     0.4517   0.5500   0.5814   0.7218   0.8667   0.8880   1.0174   1.0743
     1.0999   1.1525   1.1560   1.2330   1.2737   1.2891   1.3292   1.4846
     1.7067   1.7144   1.7718   1.8313   1.8715   1.8804   1.9702   2.0652
     2.0884   2.1220   2.1591   2.1919   2.4530   2.4572   2.5025   2.5551
     3.9595   4.9409   5.0595   5.2206   5.4673   5.6624   5.8128   6.4017
     6.4360   6.4664   6.6753   6.7796   6.8184   7.1765   7.5688   7.9545
     7.9622   7.9983

[...]

          k = 0.3750-0.5125 0.0000 ( 37046 PWs)   bands (ev):

[...]

          k =-0.5000 0.0000 0.0000 ( 36894 PWs)   bands (ev):

[...]

          k =-0.5000-0.5125 0.0000 ( 37044 PWs)   bands (ev):

   -41.2252 -38.3083 -23.0375 -22.7483 -22.6146 -22.3630 -21.3890 -21.3667
   -21.2146 -18.8900 -18.8641 -18.3898 -15.6738 -15.6437 -14.7234 -14.7066
   -14.4661 -14.4262 -14.2895 -14.2063 -14.1588 -14.1517 -13.9119 -13.8546
   -13.8106 -13.6885 -13.5403  -9.1700  -8.9423  -8.8962  -8.7564  -8.6533
    -8.6338  -8.5893  -8.4211  -8.3141  -8.1898  -8.0906  -7.7128  -4.9824
    -4.4064  -3.8236  -3.3898  -3.3557  -3.1500  -2.9952  -2.9418  -2.8854
    -2.7312  -2.5514  -2.4298  -2.2457  -2.2241  -2.0587  -2.0245  -2.0182
    -1.8351  -1.8232  -1.5413  -1.4611  -1.2385  -1.1468  -1.1392  -0.9665
    -0.9564  -0.9430  -0.8778  -0.7993  -0.7196  -0.6695  -0.6351  -0.5467
    -0.5249  -0.0779  -0.0288   0.1494   0.2146   0.4508   0.5941   0.6436
     0.8502   0.8688   0.8869   1.0673   1.1945   1.2635   1.2673   1.2999
     1.3505   1.3652   1.3845   1.5687   1.6326   1.6332   1.7961   1.7990
     1.8187   1.8201   1.8341   1.8445   1.9160   2.0028   2.0571   2.2131
     2.2568   2.2907   2.3474   2.3528   2.4409   2.4551   2.5069   2.7895
     2.9143   3.2074   3.3688   4.0102   4.0305   4.0969   4.3074   4.5588
     4.6450   4.8713   4.9660   5.3833   5.5918   5.7775   6.4208   7.2208
     7.9674   8.1669   8.1840   8.2333   8.5568   8.5893   8.9866   9.0898
     9.1293   9.3005

     the Fermi energy is     2.7528 ev

!    total energy              =   -1868.40074105 Ry
     Harris-Foulkes estimate   =   -1868.40074141 Ry
     estimated scf accuracy    <       0.00000058 Ry

     The total energy is the sum of the following terms:

     one-electron contribution =  -29893.22845766 Ry
     hartree contribution      =   15097.56338090 Ry
     xc contribution           =    -641.75800464 Ry
     ewald contribution        =   13569.03104055 Ry
     smearing contrib. (-TS)   =      -0.00870021 Ry

     convergence has been achieved in  38 iterations

     negative rho (up, down):  8.991E-02 0.000E+00

     Forces acting on atoms (cartesian axes, Ry/au):

     atom    1 type  3   force =     0.00000000    0.00000000    0.00008047
     atom    2 type  2   force =     0.00000000    0.00000000    0.00071861
     atom    3 type  3   force =     0.00000000    0.00000000   -0.00011808
     atom    4 type  1   force =     0.00000000    0.00000000   -0.00007092
     atom    5 type  2   force =     0.00000000    0.00000000   -0.00071950
     atom    6 type  3   force =     0.00000000    0.00000000    0.00033685
     atom    7 type  3   force =     0.00000000    0.00000000    0.00011973
     atom    8 type  4   force =     0.00000000    0.00000000   -0.00045119
     atom    9 type  3   force =     0.00000000    0.00000000    0.00079600
     atom   10 type  3   force =     0.00000000    0.00000000    0.00104233
     atom   11 type  2   force =     0.00000000    0.00000000   -0.00212788
     atom   12 type  1   force =     0.00000000    0.00000000   -0.00163092
     atom   13 type  3   force =     0.00000000    0.00000000    0.00237841
     atom   14 type  3   force =     0.00000000    0.00000000    0.00586488
     atom   15 type  2   force =     0.00000000    0.00000000   -0.01078998
     atom   16 type  3   force =     0.00000000    0.00000000    0.01987239
     atom   17 type  1   force =     0.00000000    0.00000000   -0.02310191
     atom   18 type  2   force =     0.00000000    0.00000000    0.00295875
     atom   19 type  3   force =     0.00000000    0.00000000    0.06120608
     atom   20 type  3   force =     0.00000000    0.00000000    0.06300548
     atom   21 type  4   force =     0.00000000    0.00000000   -0.11074836
     atom   22 type  3   force =     0.00000000    0.00000000    0.01943575
     atom   23 type  3   force =     0.00000000    0.00000000    0.02559996
     atom   24 type  2   force =     0.00000000    0.00000000   -0.01892914
     atom   25 type  1   force =     0.00000000    0.00000000   -0.03291575
     atom   26 type  3   force =     0.00000000    0.00000000   -0.00341754
     atom   27 type  2   force =     0.00000000    0.00000000   -0.00367944
     atom   28 type  3   force =     0.00000000    0.00000000    0.00528492

     Total force =     0.153666     Total SCF correction =     0.002761

     Computing stress (Cartesian axis) and pressure

     negative rho (up, down):  8.991E-02 0.000E+00
          total   stress  (Ry/bohr**3)                   (kbar)     P=      -10.75
  -0.00006196   0.00000000   0.00000000           -9.11        0.00        0.00
   0.00000000  -0.00004832   0.00000000            0.00       -7.11        0.00
   0.00000000   0.00000000  -0.00010896            0.00        0.00      -16.03

     General routines

     Parallel routines

   This run was terminated on:  18:17:27   5May2021

   JOB DONE.
[1620253047.475746] [holy7c06408:5376 :0]          mpool.c:43   UCX  WARN  object 0x4772e80 was not returned to mpool ucp_requests
[1620253047.491501] [holy7c06212:18941:0]          mpool.c:43   UCX  WARN  object 0x3608c00 was not returned to mpool ucp_requests
[1620253047.476675] [holy7c06408:5375 :0]          mpool.c:43   UCX  WARN  object 0x40c5c00 was not returned to mpool ucp_requests
[1620253047.493544] [holy7c06212:18945:0]          mpool.c:43   UCX  WARN  object 0x2d19f00 was not returned to mpool ucp_requests
[1620253047.484887] [holy7c06212:18949:0]          mpool.c:43   UCX  WARN  object 0x3f70f80 was not returned to mpool ucp_requests
[1620253047.484907] [holy7c06212:18949:0]          mpool.c:43   UCX  WARN  object 0x3f71140 was not returned to mpool ucp_requests
[1620253047.502398] [holy7c06212:18946:0]          mpool.c:43   UCX  WARN  object 0x3836e80 was not returned to mpool ucp_requests
[1620253047.503136] [holy7c06212:18940:0]          mpool.c:43   UCX  WARN  object 0x3779a40 was not returned to mpool ucp_requests
[1620253047.503160] [holy7c06212:18940:0]          mpool.c:43   UCX  WARN  object 0x3779dc0 was not returned to mpool ucp_requests