     Program PWSCF v.6.5 starts on  5May2021 at 18: 6:40

     R & G space division:  proc/nbgrp/npool/nimage =      20
     Reading input from YBCO_Y_cleave_5.0_sep_scf.pwi
Warning: card &IONS ignored
Warning: card     ION_DYNAMICS = 'BFGS' ignored
Warning: card / ignored
Warning: card &CELL ignored
Warning: card     CELL_DYNAMICS = 'BFGS' ignored
Warning: card / ignored

     Current dimensions of program PWSCF are:
     Max number of different atomic species (ntypx) = 10
     Max number of k-points (npk) =  40000
     Max angular momentum in pseudopotentials (lmaxx) =  3

     Message from routine setup:
     using ibrav=0 with symmetry is DISCOURAGED, use correct ibrav instead

     bravais-lattice index     =            0
     lattice parameter (alat)  =       7.3477  a.u.
     unit-cell volume          =    4854.4281 (a.u.)^3
     number of atoms/cell      =           28
     number of atomic types    =            4
     number of electrons       =       229.00
     number of Kohn-Sham states=          138
     kinetic-energy cutoff     =      60.0000  Ry
     charge density cutoff     =     720.0000  Ry
     convergence threshold     =      1.0E-06
     mixing beta               =       0.2000
     number of iterations used =           10  local-TF  mixing
     Exchange-correlation= SLA PW PBE PBE
                           (   1   4   3   4   0   0   0)

     celldm(1)=   7.347715  celldm(2)=   0.000000  celldm(3)=   0.000000
     celldm(4)=   0.000000  celldm(5)=   0.000000  celldm(6)=   0.000000

     crystal axes: (cart. coord. in units of alat)
               a(1) = (   1.000000   0.000000   0.000000 )
               a(2) = (   0.000000   0.975577   0.000000 )
               a(3) = (   0.000000   0.000000  12.543521 )

     reciprocal axes: (cart. coord. in units 2 pi/alat)
               b(1) = (  1.000000  0.000000  0.000000 )
               b(2) = (  0.000000  1.025034  0.000000 )
               b(3) = (  0.000000  0.000000  0.079722 )

     PseudoPot. # 1 for Ba read from file:
     /n/holyscratch01/hoffman_lab/ruizhe/YBCO_Project/pseudo/Ba.pbe-nsp-van.UPF
     MD5 check sum: 2b9c31dd849566dd297d80989662b7a0
     Pseudo is Ultrasoft + core correction, Zval = 10.0
     Generated by new atomic code, or converted to UPF format
     Using radial grid of  907 points,  6 beta functions with:
                l(1) =   0
                l(2) =   0
                l(3) =   1
                l(4) =   1
                l(5) =   2
                l(6) =   2
     Q(r) pseudized with  6 coefficients,  rinner =    1.200   1.200   1.200
                                                       1.200   1.200

     PseudoPot. # 2 for Cu read from file:
     /n/holyscratch01/hoffman_lab/ruizhe/YBCO_Project/pseudo/Cu.pbe-n-van_ak.UPF
     MD5 check sum: 34e3282627ffb533726feb647e090d62
     Pseudo is Ultrasoft + core correction, Zval = 11.0
     Generated by new atomic code, or converted to UPF format
     Using radial grid of  867 points,  6 beta functions with:
                l(1) =   0
                l(2) =   0
                l(3) =   1
                l(4) =   1
                l(5) =   2
                l(6) =   2
     Q(r) pseudized with  8 coefficients,  rinner =    1.400   1.400   1.400
                                                       1.400   1.400

     PseudoPot. # 3 for O  read from file:
     /n/holyscratch01/hoffman_lab/ruizhe/YBCO_Project/pseudo/O.pbe-van_ak.UPF
     MD5 check sum: 783ce7fe4c79b6a4916957118fed0856
     Pseudo is Ultrasoft, Zval =  6.0
     Generated by new atomic code, or converted to UPF format
     Using radial grid of  737 points,  4 beta functions with:
                l(1) =   0
                l(2) =   0
                l(3) =   1
                l(4) =   1
     Q(r) pseudized with  8 coefficients,  rinner =    0.800   0.800   0.800

     PseudoPot. # 4 for Y  read from file:
     /n/holyscratch01/hoffman_lab/ruizhe/YBCO_Project/pseudo/Y.pbe-nsp-van.UPF
     MD5 check sum: 4412fed3ab108fed87a1b7d6a69a4a38
     Pseudo is Ultrasoft + core correction, Zval = 11.0
     Generated by new atomic code, or converted to UPF format
     Using radial grid of  885 points,  6 beta functions with:
                l(1) =   0
                l(2) =   0
                l(3) =   1
                l(4) =   1
                l(5) =   2
                l(6) =   2
     Q(r) pseudized with  6 coefficients,  rinner =    1.200   1.200   1.200
                                                       1.200   1.200

     atomic species   valence    mass     pseudopotential
        Ba            10.00   137.32700     Ba( 1.00)
        Cu            11.00    63.54600     Cu( 1.00)
        O              6.00    15.99900     O ( 1.00)
        Y             11.00    88.90584     Y ( 1.00)

      4 Sym. Ops. (no inversion) found

   Cartesian axes

     site n.     atom                  positions (alat units)
         1           O   tau(   1) = (   0.0000000   0.4877884  -0.0257983  )
         2           Cu  tau(   2) = (   0.0000000   0.0000000   0.0215779  )
         3           O   tau(   3) = (   0.0000000   0.0000000   0.5073114  )
         4           Ba  tau(   4) = (   0.4999996   0.4877884   0.5319677  )
         5           Cu  tau(   5) = (   0.0000000   0.0000000   1.0495845  )
         6           O   tau(   6) = (   0.4999996   0.0000000   1.1181579  )
         7           O   tau(   7) = (   0.0000000   0.4877884   1.1273137  )
         8           Y   tau(   8) = (   0.4999996   0.4877884   1.4938777  )
         9           O   tau(   9) = (   0.0000000   0.4877884   1.8497402  )
        10           O   tau(  10) = (   0.4999996   0.0000000   1.8692709  )
        11           Cu  tau(  11) = (   0.0000000   0.0000000   1.9417560  )
        12           Ba  tau(  12) = (   0.4999996   0.4877884   2.4526063  )
        13           O   tau(  13) = (   0.0000000   0.0000000   2.5103470  )
        14           O   tau(  14) = (   0.0000000   0.4877884   2.9968469  )
        15           Cu  tau(  15) = (   0.0000000   0.0000000   2.9968521  )
        16           O   tau(  16) = (   0.0000000   0.0000000   3.4833288  )
        17           Ba  tau(  17) = (   0.4999996   0.4877884   3.5410618  )
        18           Cu  tau(  18) = (   0.0000000   0.0000000   4.0519352  )
        19           O   tau(  19) = (   0.4999996   0.0000000   4.1244075  )
        20           O   tau(  20) = (   0.0000000   0.4877884   4.1439202  )
        21           Y   tau(  21) = (   0.4999996   0.4877884   4.4997853  )
        22           O   tau(  22) = (   0.0000000   0.4877884   6.1522770  )
        23           O   tau(  23) = (   0.4999996   0.0000000   6.1614457  )
        24           Cu  tau(  24) = (   0.0000000   0.0000000   6.2300242  )
        25           Ba  tau(  25) = (   0.4999996   0.4877884   6.7476255  )
        26           O   tau(  26) = (   0.0000000   0.0000000   6.7722819  )
        27           Cu  tau(  27) = (   0.0000000   0.0000000   7.2579871  )
        28           O   tau(  28) = (   0.0000000   0.4877884   7.3053684  )

     number of k points=    25  Gaussian smearing, width (Ry)=  0.0100
                       cart. coord. in units 2pi/alat
        k(    1) = (   0.0000000   0.0000000   0.0000000), wk =   0.0312500
        k(    2) = (   0.0000000   0.1281293   0.0000000), wk =   0.0625000
        k(    3) = (   0.0000000   0.2562585   0.0000000), wk =   0.0625000
        k(    4) = (   0.0000000   0.3843878   0.0000000), wk =   0.0625000
        k(    5) = (   0.0000000  -0.5125170   0.0000000), wk =   0.0312500
        k(    6) = (   0.1250000   0.0000000   0.0000000), wk =   0.0625000
        k(    7) = (   0.1250000   0.1281293   0.0000000), wk =   0.1250000
        k(    8) = (   0.1250000   0.2562585   0.0000000), wk =   0.1250000
        k(    9) = (   0.1250000   0.3843878   0.0000000), wk =   0.1250000
        k(   10) = (   0.1250000  -0.5125170   0.0000000), wk =   0.0625000
        k(   11) = (   0.2500000   0.0000000   0.0000000), wk =   0.0625000
        k(   12) = (   0.2500000   0.1281293   0.0000000), wk =   0.1250000
        k(   13) = (   0.2500000   0.2562585   0.0000000), wk =   0.1250000
        k(   14) = (   0.2500000   0.3843878   0.0000000), wk =   0.1250000
        k(   15) = (   0.2500000  -0.5125170   0.0000000), wk =   0.0625000
        k(   16) = (   0.3750000   0.0000000   0.0000000), wk =   0.0625000
        k(   17) = (   0.3750000   0.1281293   0.0000000), wk =   0.1250000
        k(   18) = (   0.3750000   0.2562585   0.0000000), wk =   0.1250000
        k(   19) = (   0.3750000   0.3843878   0.0000000), wk =   0.1250000
        k(   20) = (   0.3750000  -0.5125170   0.0000000), wk =   0.0625000
        k(   21) = (  -0.5000000   0.0000000   0.0000000), wk =   0.0312500
        k(   22) = (  -0.5000000   0.1281293   0.0000000), wk =   0.0625000
        k(   23) = (  -0.5000000   0.2562585   0.0000000), wk =   0.0625000
        k(   24) = (  -0.5000000   0.3843878   0.0000000), wk =   0.0625000
        k(   25) = (  -0.5000000  -0.5125170   0.0000000), wk =   0.0312500

     Initial potential from superposition of free atoms

     starting charge  228.84827, renormalised to  229.00000

     negative rho (up, down):  8.967E-02 0.000E+00
     Starting wfcs are  201 randomized atomic wfcs

     Self-consistent Calculation

     iteration #  1     ecut=    60.00 Ry     beta= 0.20
     Davidson diagonalization with overlap
     ethr =  1.00E-02,  avg # of iterations =  2.0

     negative rho (up, down):  8.734E-02 0.000E+00

     total energy              =   -1869.45786011 Ry
     Harris-Foulkes estimate   =   -1871.04075540 Ry
     estimated scf accuracy    <      14.68146799 Ry

[...]

     iteration # 21     ecut=    60.00 Ry     beta= 0.20
     Davidson diagonalization with overlap
     c_bands:  1 eigenvalues not converged
     ethr =  4.87E-06,  avg # of iterations =  5.3

[...]

     iteration # 27     ecut=    60.00 Ry     beta= 0.20
     Davidson diagonalization with overlap
     c_bands:  1 eigenvalues not converged
     c_bands:  1 eigenvalues not converged
     c_bands:  1 eigenvalues not converged
     ethr =  4.25E-07,  avg # of iterations =  5.4

[...]

     total energy              =   -1868.38796813 Ry
     Harris-Foulkes estimate   =   -1868.38796821 Ry
     estimated scf accuracy    <       0.00000106 Ry

     iteration # 36     ecut=    60.00 Ry     beta= 0.20
     Davidson diagonalization with overlap
     ethr =  4.63E-10,  avg # of iterations =  1.7

[...]

     End of self-consistent calculation

          k = 0.0000 0.0000 0.0000 ( 37989 PWs)   bands (ev):

   -41.4382 -38.6036 -23.5277 -23.2594 -23.1153 -22.8572 -21.5806 -21.3112
   -21.3046 -19.1386 -18.6084 -18.5985 -16.6223 -15.9346 -15.6959 -15.0760
   -14.9740 -14.7761 -14.7438 -14.7200 -14.6315 -14.4585 -14.2419 -14.1666
   -14.1307 -13.9482 -13.4684  -8.8400  -8.4806  -8.4626  -8.4525  -8.3873
    -8.2518  -8.2251  -8.0692  -8.0507  -7.9834  -7.8858  -7.8506  -3.4013
    -3.3775  -2.9255  -2.5633  -2.5301  -2.5042  -2.3821  -2.3425  -2.2965
    -2.2757  -2.1982  -1.9806  -1.3688  -1.3357  -1.2946  -1.2729  -1.1318
    -1.0195  -0.9414  -0.8983  -0.8742  -0.8528  -0.6699  -0.5893  -0.5527
    -0.5162  -0.4646  -0.4384  -0.4258  -0.3629  -0.3512  -0.3427  -0.3354
    -0.3343  -0.2570  -0.1998  -0.1928  -0.0864  -0.0809  -0.0443   0.0189
     0.0491   0.0587   0.0618   0.0892   0.1050   0.1417   0.1703   0.1784
     0.1958   0.3089   0.3285   0.4611   0.6002   0.6195   0.7486   0.8055
     0.8423   0.8842   0.8975   0.9646   1.0053   1.0202   1.1001   1.2211
     1.4423   1.4511   1.5024   1.5154   1.6100   1.6263   1.7008   1.7781
     1.7999   1.8927   1.8977   1.9240   2.1881   2.2105   2.2586   2.3033
     3.6326   4.7179   4.7912   4.9650   5.2033   5.4634   5.5477   6.1678
     6.1972   6.2051   6.4144   6.4805   6.5653   6.8564   7.2057   7.6820
     7.6943   7.7385

[...]

          k = 0.3750-0.5125 0.0000 ( 38222 PWs)   bands (ev):

[...]

          k =-0.5000 0.0000 0.0000 ( 38122 PWs)   bands (ev):

[...]

          k =-0.5000-0.5125 0.0000 ( 38244 PWs)   bands (ev):

   -41.4175 -38.5758 -23.2929 -23.0174 -22.8796 -22.6100 -21.5855 -21.5618
   -21.4088 -19.1577 -19.1319 -18.6574 -15.9087 -15.8821 -14.9923 -14.9753
   -14.7357 -14.6840 -14.5555 -14.4750 -14.4212 -14.4203 -14.1774 -14.1238
   -14.0672 -13.9221 -13.7758  -9.4259  -9.2115  -9.1532  -9.0217  -8.9225
    -8.8890  -8.8365  -8.6856  -8.5616  -8.4588  -8.3552  -7.9605  -5.2246
    -4.6751  -4.0923  -3.6567  -3.5964  -3.3838  -3.2460  -3.2109  -3.1387
    -2.9999  -2.8204  -2.6985  -2.4982  -2.4889  -2.3280  -2.2931  -2.2751
    -2.0797  -2.0664  -1.7830  -1.7241  -1.5073  -1.4134  -1.4080  -1.2296
    -1.2255  -1.1962  -1.1463  -1.0680  -0.9889  -0.9265  -0.8734  -0.7916
    -0.7862  -0.3473  -0.2838  -0.0841  -0.0470   0.1846   0.3366   0.3932
     0.5962   0.6009   0.6359   0.8112   0.9257   0.9974   1.0277   1.0312
     1.0816   1.0983   1.1169   1.3005   1.3638   1.3675   1.5315   1.5486
     1.5497   1.5664   1.5675   1.5751   1.6727   1.7362   1.7905   1.9919
     1.9920   2.0782   2.0792   2.0881   2.1859   2.2012   2.2494   2.5206
     2.6666   2.9609   3.1305   3.7327   3.7790   3.8202   4.0467   4.2901
     4.3760   4.6083   4.7155   5.0825   5.3224   5.5259   6.1526   7.0220
     7.7101   7.8425   7.9106   7.9313   8.2896   8.3262   8.7185   8.8221
     8.9381   9.0327

     the Fermi energy is     2.4837 ev

!    total energy              =   -1868.38796770 Ry
     Harris-Foulkes estimate   =   -1868.38796817 Ry
     estimated scf accuracy    <       0.00000055 Ry

     The total energy is the sum of the following terms:

     one-electron contribution =  -29466.01955297 Ry
     hartree contribution      =   14881.74851522 Ry
     xc contribution           =    -641.72891008 Ry
     ewald contribution        =   13357.62073521 Ry
     smearing contrib. (-TS)   =      -0.00875507 Ry

     convergence has been achieved in  36 iterations

     negative rho (up, down):  8.996E-02 0.000E+00

     Forces acting on atoms (cartesian axes, Ry/au):

     atom    1 type  3   force =     0.00000000    0.00000000    0.00001170
     atom    2 type  2   force =     0.00000000    0.00000000    0.00084459
     atom    3 type  3   force =     0.00000000    0.00000000    0.00004138
     atom    4 type  1   force =     0.00000000    0.00000000   -0.00011935
     atom    5 type  2   force =     0.00000000    0.00000000    0.00059886
     atom    6 type  3   force =     0.00000000    0.00000000    0.00044060
     atom    7 type  3   force =     0.00000000    0.00000000    0.00023203
     atom    8 type  4   force =     0.00000000    0.00000000   -0.00066693
     atom    9 type  3   force =     0.00000000    0.00000000    0.00085790
     atom   10 type  3   force =     0.00000000    0.00000000    0.00109238
     atom   11 type  2   force =     0.00000000    0.00000000   -0.00122509
     atom   12 type  1   force =     0.00000000    0.00000000   -0.00159884
     atom   13 type  3   force =     0.00000000    0.00000000    0.00237618
     atom   14 type  3   force =     0.00000000    0.00000000    0.00565279
     atom   15 type  2   force =     0.00000000    0.00000000   -0.01092608
     atom   16 type  3   force =     0.00000000    0.00000000    0.01913589
     atom   17 type  1   force =     0.00000000    0.00000000   -0.02249749
     atom   18 type  2   force =     0.00000000    0.00000000    0.00163998
     atom   19 type  3   force =     0.00000000    0.00000000    0.06060064
     atom   20 type  3   force =     0.00000000    0.00000000    0.06197819
     atom   21 type  4   force =     0.00000000    0.00000000   -0.11575746
     atom   22 type  3   force =     0.00000000    0.00000000    0.02381466
     atom   23 type  3   force =     0.00000000    0.00000000    0.02984263
     atom   24 type  2   force =     0.00000000    0.00000000   -0.02041855
     atom   25 type  1   force =     0.00000000    0.00000000   -0.03303516
     atom   26 type  3   force =     0.00000000    0.00000000   -0.00445392
     atom   27 type  2   force =     0.00000000    0.00000000   -0.00392045
     atom   28 type  3   force =     0.00000000    0.00000000    0.00545891

     Total force =     0.158064     Total SCF correction =     0.003702

     Computing stress (Cartesian axis) and pressure

     negative rho (up, down):  8.996E-02 0.000E+00
          total   stress  (Ry/bohr**3)                   (kbar)     P=      -11.13
  -0.00006993   0.00000000   0.00000000          -10.29        0.00        0.00
   0.00000000  -0.00005758   0.00000000            0.00       -8.47        0.00
   0.00000000   0.00000000  -0.00009957            0.00        0.00      -14.65

     General routines

     Parallel routines

   This run was terminated on:  18:21:39   5May2021

   JOB DONE.
[1620253299.539744] [holy7c16601:15928:0]          mpool.c:43   UCX  WARN  object 0x3122800 was not returned to mpool ucp_requests
[1620253299.539904] [holy7c16504:125383:0]          mpool.c:43   UCX  WARN  object 0x3eb8880 was not returned to mpool ucp_requests
[1620253299.539924] [holy7c16504:125383:0]          mpool.c:43   UCX  WARN  object 0x3eb9140 was not returned to mpool ucp_requests
[1620253299.539560] [holy7c16510:67158:0]          mpool.c:43   UCX  WARN  object 0x38fc880 was not returned to mpool ucp_requests
[1620253299.539577] [holy7c16510:67158:0]          mpool.c:43   UCX  WARN  object 0x38fcc00 was not returned to mpool ucp_requests
[1620253299.545477] [holy7c16603:258925:0]          mpool.c:43   UCX  WARN  object 0x43bee40 was not returned to mpool ucp_requests
[1620253299.541918] [holy7c16411:102230:0]          mpool.c:43   UCX  WARN  object 0x3b28600 was not returned to mpool ucp_requests
[1620253299.565243] [holy7c16410:218135:0]          mpool.c:43   UCX  WARN  object 0x30842c0 was not returned to mpool ucp_requests