     Program PWSCF v.6.5 starts on  5May2021 at 17:59:54

     R & G space division:  proc/nbgrp/npool/nimage =      20
     Reading input from YBCO_CuO_cleave_6.0_sep_scf.pwi
Warning: card &IONS ignored
Warning: card     ION_DYNAMICS = 'BFGS' ignored
Warning: card / ignored
Warning: card &CELL ignored
Warning: card     CELL_DYNAMICS = 'BFGS' ignored
Warning: card / ignored

     Current dimensions of program PWSCF are:
     Max number of different atomic species (ntypx) = 10
     Max number of k-points (npk) =  40000
     Max angular momentum in pseudopotentials (lmaxx) =  3

     Message from routine setup:
     using ibrav=0 with symmetry is DISCOURAGED, use correct ibrav instead

     bravais-lattice index     =            0
     lattice parameter (alat)  =       7.3477  a.u.
     unit-cell volume          =    4953.9607 (a.u.)^3
     number of atoms/cell      =           28
     number of atomic types    =            4
     number of electrons       =       229.00
     number of Kohn-Sham states=          138
     kinetic-energy cutoff     =      60.0000  Ry
     charge density cutoff     =     720.0000  Ry
     convergence threshold     =      1.0E-06
     mixing beta               =       0.2000
     number of iterations used =           10  local-TF  mixing
     Exchange-correlation= SLA PW PBE PBE
                           (   1   4   3   4   0   0   0)

     celldm(1)=   7.347715  celldm(2)=   0.000000  celldm(3)=   0.000000
     celldm(4)=   0.000000  celldm(5)=   0.000000  celldm(6)=   0.000000

     crystal axes: (cart. coord. in units of alat)
               a(1) = (   1.000000   0.000000   0.000000 )
               a(2) = (   0.000000   0.975577   0.000000 )
               a(3) = (   0.000000   0.000000  12.800707 )

     reciprocal axes: (cart. coord. in units 2 pi/alat)
               b(1) = (  1.000000  0.000000  0.000000 )
               b(2) = (  0.000000  1.025034  0.000000 )
               b(3) = (  0.000000  0.000000  0.078121 )

     PseudoPot. # 1 for Ba read from file:
     /n/holyscratch01/hoffman_lab/ruizhe/YBCO_Project/pseudo/Ba.pbe-nsp-van.UPF
     MD5 check sum: 2b9c31dd849566dd297d80989662b7a0
     Pseudo is Ultrasoft + core correction, Zval = 10.0
     Generated by new atomic code, or converted to UPF format
     Using radial grid of  907 points,  6 beta functions with:
                l(1) =   0
                l(2) =   0
                l(3) =   1
                l(4) =   1
                l(5) =   2
                l(6) =   2
     Q(r) pseudized with  6 coefficients,  rinner =    1.200   1.200   1.200
                                                       1.200   1.200

     PseudoPot. # 2 for Cu read from file:
     /n/holyscratch01/hoffman_lab/ruizhe/YBCO_Project/pseudo/Cu.pbe-n-van_ak.UPF
     MD5 check sum: 34e3282627ffb533726feb647e090d62
     Pseudo is Ultrasoft + core correction, Zval = 11.0
     Generated by new atomic code, or converted to UPF format
     Using radial grid of  867 points,  6 beta functions with:
                l(1) =   0
                l(2) =   0
                l(3) =   1
                l(4) =   1
                l(5) =   2
                l(6) =   2
     Q(r) pseudized with  8 coefficients,  rinner =    1.400   1.400   1.400
                                                       1.400   1.400

     PseudoPot. # 3 for O  read from file:
     /n/holyscratch01/hoffman_lab/ruizhe/YBCO_Project/pseudo/O.pbe-van_ak.UPF
     MD5 check sum: 783ce7fe4c79b6a4916957118fed0856
     Pseudo is Ultrasoft, Zval =  6.0
     Generated by new atomic code, or converted to UPF format
     Using radial grid of  737 points,  4 beta functions with:
                l(1) =   0
                l(2) =   0
                l(3) =   1
                l(4) =   1
     Q(r) pseudized with  8 coefficients,  rinner =    0.800   0.800   0.800

     PseudoPot. # 4 for Y  read from file:
     /n/holyscratch01/hoffman_lab/ruizhe/YBCO_Project/pseudo/Y.pbe-nsp-van.UPF
     MD5 check sum: 4412fed3ab108fed87a1b7d6a69a4a38
     Pseudo is Ultrasoft + core correction, Zval = 11.0
     Generated by new atomic code, or converted to UPF format
     Using radial grid of  885 points,  6 beta functions with:
                l(1) =   0
                l(2) =   0
                l(3) =   1
                l(4) =   1
                l(5) =   2
                l(6) =   2
     Q(r) pseudized with  6 coefficients,  rinner =    1.200   1.200   1.200
                                                       1.200   1.200

     atomic species   valence    mass     pseudopotential
        Ba            10.00   137.32700     Ba( 1.00)
        Cu            11.00    63.54600     Cu( 1.00)
        O              6.00    15.99900     O ( 1.00)
        Y             11.00    88.90584     Y ( 1.00)

      4 Sym. Ops. (no inversion) found

   Cartesian axes

     site n.     atom                  positions (alat units)
         1           O   tau(   1) = (   0.0000000   0.4877884  -0.0257983  )
         2           Cu  tau(   2) = (   0.0000000   0.0000000   0.0215779  )
         3           O   tau(   3) = (   0.0000000   0.0000000   0.5073114  )
         4           Ba  tau(   4) = (   0.4999996   0.4877884   0.5319677  )
         5           Cu  tau(   5) = (   0.0000000   0.0000000   1.0495845  )
         6           O   tau(   6) = (   0.4999996   0.0000000   1.1181579  )
         7           O   tau(   7) = (   0.0000000   0.4877884   1.1273137  )
         8           Y   tau(   8) = (   0.4999996   0.4877884   1.4938777  )
         9           O   tau(   9) = (   0.0000000   0.4877884   1.8497402  )
        10           O   tau(  10) = (   0.4999996   0.0000000   1.8692709  )
        11           Cu  tau(  11) = (   0.0000000   0.0000000   1.9417560  )
        12           Ba  tau(  12) = (   0.4999996   0.4877884   2.4526063  )
        13           O   tau(  13) = (   0.0000000   0.0000000   2.5103470  )
        14           O   tau(  14) = (   0.0000000   0.4877884   2.9968469  )
        15           Cu  tau(  15) = (   0.0000000   0.0000000   2.9968521  )
        16           O   tau(  16) = (   0.0000000   0.0000000   5.0264421  )
        17           Ba  tau(  17) = (   0.4999996   0.4877884   5.0841751  )
        18           Cu  tau(  18) = (   0.0000000   0.0000000   5.5950485  )
        19           O   tau(  19) = (   0.4999996   0.0000000   5.6675208  )
        20           O   tau(  20) = (   0.0000000   0.4877884   5.6870335  )
        21           Y   tau(  21) = (   0.4999996   0.4877884   6.0428986  )
        22           O   tau(  22) = (   0.0000000   0.4877884   6.4094625  )
        23           O   tau(  23) = (   0.4999996   0.0000000   6.4186312  )
        24           Cu  tau(  24) = (   0.0000000   0.0000000   6.4872097  )
        25           Ba  tau(  25) = (   0.4999996   0.4877884   7.0048111  )
        26           O   tau(  26) = (   0.0000000   0.0000000   7.0294675  )
        27           Cu  tau(  27) = (   0.0000000   0.0000000   7.5151727  )
        28           O   tau(  28) = (   0.0000000   0.4877884   7.5625540  )

     number of k points=    25  Gaussian smearing, width (Ry)=  0.0100
                       cart. coord. in units 2pi/alat
        k(    1) = (   0.0000000   0.0000000   0.0000000), wk =   0.0312500
        k(    2) = (   0.0000000   0.1281293   0.0000000), wk =   0.0625000
        k(    3) = (   0.0000000   0.2562585   0.0000000), wk =   0.0625000
        k(    4) = (   0.0000000   0.3843878   0.0000000), wk =   0.0625000
        k(    5) = (   0.0000000  -0.5125170   0.0000000), wk =   0.0312500
        k(    6) = (   0.1250000   0.0000000   0.0000000), wk =   0.0625000
        k(    7) = (   0.1250000   0.1281293   0.0000000), wk =   0.1250000
        k(    8) = (   0.1250000   0.2562585   0.0000000), wk =   0.1250000
        k(    9) = (   0.1250000   0.3843878   0.0000000), wk =   0.1250000
        k(   10) = (   0.1250000  -0.5125170   0.0000000), wk =   0.0625000
        k(   11) = (   0.2500000   0.0000000   0.0000000), wk =   0.0625000
        k(   12) = (   0.2500000   0.1281293   0.0000000), wk =   0.1250000
        k(   13) = (   0.2500000   0.2562585   0.0000000), wk =   0.1250000
        k(   14) = (   0.2500000   0.3843878   0.0000000), wk =   0.1250000
        k(   15) = (   0.2500000  -0.5125170   0.0000000), wk =   0.0625000
        k(   16) = (   0.3750000   0.0000000   0.0000000), wk =   0.0625000
        k(   17) = (   0.3750000   0.1281293   0.0000000), wk =   0.1250000
        k(   18) = (   0.3750000   0.2562585   0.0000000), wk =   0.1250000
        k(   19) = (   0.3750000   0.3843878   0.0000000), wk =   0.1250000
        k(   20) = (   0.3750000  -0.5125170   0.0000000), wk =   0.0625000
        k(   21) = (  -0.5000000   0.0000000   0.0000000), wk =   0.0312500
        k(   22) = (  -0.5000000   0.1281293   0.0000000), wk =   0.0625000
        k(   23) = (  -0.5000000   0.2562585   0.0000000), wk =   0.0625000
        k(   24) = (  -0.5000000   0.3843878   0.0000000), wk =   0.0625000
        k(   25) = (  -0.5000000  -0.5125170   0.0000000), wk =   0.0312500

     Initial potential from superposition of free atoms

     starting charge  228.84827, renormalised to  229.00000

     negative rho (up, down):  8.956E-02 0.000E+00
     Starting wfcs are  201 randomized atomic wfcs

     Self-consistent Calculation

     iteration #  1     ecut=    60.00 Ry     beta= 0.20
     Davidson diagonalization with overlap
     ethr =  1.00E-02,  avg # of iterations =  2.0

     negative rho (up, down):  8.741E-02 0.000E+00

     total energy              =   -1869.52041289 Ry
     Harris-Foulkes estimate   =   -1871.09978475 Ry
     estimated scf accuracy    <      13.50344070 Ry

[...]

     iteration # 32     ecut=    60.00 Ry     beta= 0.20
     Davidson diagonalization with overlap
     c_bands:  1 eigenvalues not converged
     ethr =  3.21E-09,  avg # of iterations =  4.2

[...]

     total energy              =   -1868.72171414 Ry
     Harris-Foulkes estimate   =   -1868.72171402 Ry
     estimated scf accuracy    <       0.00000101 Ry

     iteration # 35     ecut=    60.00 Ry     beta= 0.20
     Davidson diagonalization with overlap
     ethr =  4.40E-10,  avg # of iterations =  2.0

[...]

     End of self-consistent calculation

          k = 0.0000 0.0000 0.0000 ( 38797 PWs)   bands (ev):

   -38.8622 -38.7856 -23.4913 -23.4790 -23.3924 -23.3319 -19.3951 -19.3274
   -18.8675 -18.8587 -18.7916 -18.7786 -16.1862 -16.1361 -15.2285 -15.1748
   -14.9756 -14.9718 -14.9658 -14.9216 -14.8737 -14.7105 -14.6566 -14.4730
   -14.4606 -14.2130 -12.9301  -8.7675  -8.7120  -8.6932  -8.5455  -8.4835
    -8.4718  -8.4567  -8.4451  -8.3051  -8.2822  -8.2641  -8.1822  -2.8178
    -2.7874  -2.7656  -2.7377  -2.6472  -2.5920  -2.5739  -2.5644  -2.5305
    -2.4904  -2.4543  -2.3997  -2.2791  -1.6230  -1.5606  -1.1714  -1.1547
    -1.1038  -0.8398  -0.7823  -0.7822  -0.7732  -0.7448  -0.7380  -0.5837
    -0.5816  -0.5499  -0.5296  -0.5108  -0.5037  -0.4510  -0.4460  -0.4199
    -0.4106  -0.3205  -0.3170  -0.3052  -0.3038  -0.2809  -0.2199  -0.2042
    -0.1662  -0.1619  -0.1525  -0.1382  -0.0877  -0.0522  -0.0484  -0.0311
     0.2518   0.3921   0.4365   0.5016   0.5041   0.5439   0.5744   0.6122
     0.6506   0.6618   0.6684   0.7538   0.7613   0.7738   0.7859   0.7881
     0.8306   1.2091   1.2509   1.2713   1.2789   1.3622   1.4708   1.4777
     1.5590   1.7759   1.9140   1.9619   1.9987   2.0415   2.0697   4.4843
     4.5846   4.6350   5.1564   5.2024   5.6763   5.9531   5.9684   6.1349
     6.1748   6.6755   6.8039   7.4318   7.4432   7.5058   7.6413   7.7244
     7.8731   7.9353

[...]

          k = 0.3750-0.5125 0.0000 ( 39018 PWs)   bands (ev):

[...]

          k =-0.5000 0.0000 0.0000 ( 38882 PWs)   bands (ev):

[...]

          k =-0.5000-0.5125 0.0000 ( 39028 PWs)   bands (ev):

   -38.8343 -38.7577 -23.2493 -23.2368 -23.1827 -23.0935 -19.4180 -19.3904
   -19.3394 -19.3189 -18.9143 -18.8436 -15.2404 -15.2309 -15.2040 -15.1658
   -14.9639 -14.9630 -14.7286 -14.6854 -14.6758 -14.6600 -14.6060 -14.3568
   -14.3383 -14.2697 -13.0441  -9.4430  -9.4315  -9.2562  -9.1542  -9.1422
    -9.0884  -8.9769  -8.9571  -8.6909  -8.6882  -8.6570  -8.5490  -4.9309
    -4.8672  -4.3472  -4.2672  -3.4413  -3.4323  -3.4259  -3.2445  -3.2009
    -3.0550  -3.0428  -2.9661  -2.9192  -2.5565  -2.5549  -2.5342  -2.4871
    -2.2520  -1.7829  -1.7389  -1.6634  -1.6141  -1.5227  -1.4421  -1.4299
    -1.4208  -1.3212  -1.2967  -1.2925  -1.2189  -1.2042  -1.1623  -0.5753
    -0.5663  -0.5644  -0.4621  -0.2411   0.0618   0.1935   0.4688   0.5338
     0.6737   0.7179   0.7661   0.7829   0.7995   0.8132   0.8215   0.8313
     0.8518   0.9294   1.0297   1.0573   1.1047   1.1169   1.1456   1.3024
     1.3251   1.3312   1.3381   1.3444   1.3495   1.4662   1.5514   1.6585
     1.8469   1.8654   1.9549   1.9705   2.0394   2.0721   2.2378   2.2505
     2.2568   2.3464   2.5813   4.0218   4.0506   4.1353   4.1489   5.0921
     5.1045   5.3741   5.8610   5.9769   7.3057   7.3347   7.6632   7.6858
     8.0039   8.1927   8.4436   8.5194   8.5488   8.5524   8.7412   8.7932
     8.7955   8.9214

     the Fermi energy is     2.2509 ev

!    total energy              =   -1868.72171420 Ry
     Harris-Foulkes estimate   =   -1868.72171420 Ry
     estimated scf accuracy    <       0.00000046 Ry

     The total energy is the sum of the following terms:

     one-electron contribution =  -23145.42764100 Ry
     hartree contribution      =   11721.26833658 Ry
     xc contribution           =    -642.19967046 Ry
     ewald contribution        =   10197.64797073 Ry
     smearing contrib. (-TS)   =      -0.01071006 Ry

     convergence has been achieved in  35 iterations

     negative rho (up, down):  9.060E-02 0.000E+00

     Forces acting on atoms (cartesian axes, Ry/au):

     atom    1 type  3   force =     0.00000000    0.00000000   -0.00058193
     atom    2 type  2   force =     0.00000000    0.00000000    0.00060343
     atom    3 type  3   force =     0.00000000    0.00000000    0.00030054
     atom    4 type  1   force =     0.00000000    0.00000000   -0.00022110
     atom    5 type  2   force =     0.00000000    0.00000000   -0.00049132
     atom    6 type  3   force =     0.00000000    0.00000000    0.00127475
     atom    7 type  3   force =     0.00000000    0.00000000    0.00097935
     atom    8 type  4   force =     0.00000000    0.00000000   -0.00276219
     atom    9 type  3   force =     0.00000000    0.00000000    0.00494937
     atom   10 type  3   force =     0.00000000    0.00000000    0.00338060
     atom   11 type  2   force =     0.00000000    0.00000000   -0.00250593
     atom   12 type  1   force =     0.00000000    0.00000000    0.01658224
     atom   13 type  3   force =     0.00000000    0.00000000   -0.01925463
     atom   14 type  3   force =     0.00000000    0.00000000    0.02137661
     atom   15 type  2   force =     0.00000000    0.00000000   -0.02318209
     atom   16 type  3   force =     0.00000000    0.00000000    0.01751806
     atom   17 type  1   force =     0.00000000    0.00000000   -0.00118423
     atom   18 type  2   force =     0.00000000    0.00000000   -0.02164212
     atom   19 type  3   force =     0.00000000    0.00000000    0.00425618
     atom   20 type  3   force =     0.00000000    0.00000000    0.00306345
     atom   21 type  4   force =     0.00000000    0.00000000   -0.00099197
     atom   22 type  3   force =     0.00000000    0.00000000   -0.00057954
     atom   23 type  3   force =     0.00000000    0.00000000    0.00077455
     atom   24 type  2   force =     0.00000000    0.00000000    0.00004367
     atom   25 type  1   force =     0.00000000    0.00000000    0.00001385
     atom   26 type  3   force =     0.00000000    0.00000000   -0.00193485
     atom   27 type  2   force =     0.00000000    0.00000000    0.00000968
     atom   28 type  3   force =     0.00000000    0.00000000    0.00020555

     Total force =     0.050035     Total SCF correction =     0.002058

     Computing stress (Cartesian axis) and pressure

     negative rho (up, down):  9.060E-02 0.000E+00
          total   stress  (Ry/bohr**3)                   (kbar)     P=       -6.78
  -0.00000412   0.00000000   0.00000000           -0.61        0.00        0.00
   0.00000000  -0.00010702   0.00000000            0.00      -15.74        0.00
   0.00000000   0.00000000  -0.00002711            0.00        0.00       -3.99

     General routines

     Parallel routines

   This run was terminated on:  18:11:19   5May2021

   JOB DONE.
[1620252679.441363] [holy7c12407:179490:0]          mpool.c:43   UCX  WARN  object 0x3192140 was not returned to mpool ucp_requests
[1620252679.441611] [holy7c12405:57554:0]          mpool.c:43   UCX  WARN  object 0x37d0c00 was not returned to mpool ucp_requests
[1620252679.442386] [holy7c12209:161368:0]          mpool.c:43   UCX  WARN  object 0x2af9680 was not returned to mpool ucp_requests
[1620252679.443173] [holy7c12401:81445:0]          mpool.c:43   UCX  WARN  object 0x3d06280 was not returned to mpool ucp_requests
[1620252679.445173] [holy7c12402:164578:0]          mpool.c:43   UCX  WARN  object 0x4059d00 was not returned to mpool ucp_requests
[1620252679.445191] [holy7c12402:164578:0]          mpool.c:43   UCX  WARN  object 0x405a080 was not returned to mpool ucp_requests
[1620252679.447042] [holy7c12311:68161:0]          mpool.c:43   UCX  WARN  object 0x28db980 was not returned to mpool ucp_requests
[1620252679.447065] [holy7c12311:68161:0]          mpool.c:43   UCX  WARN  object 0x28dbd00 was not returned to mpool ucp_requests
[1620252679.442293] [holy7c12209:161367:0]          mpool.c:43   UCX  WARN  object 0x33f6840 was not returned to mpool ucp_requests
[1620252679.442313] [holy7c12209:161367:0]          mpool.c:43   UCX  WARN  object 0x33f6bc0 was not returned to mpool ucp_requests