     Program PWSCF v.6.5 starts on  5May2021 at 17:10:42

     R & G space division:  proc/nbgrp/npool/nimage =      20
     Reading input from YBCO_BaO_cleave_2.0_sep_scf.pwi
Warning: card &IONS ignored
Warning: card     ION_DYNAMICS = 'BFGS' ignored
Warning: card / ignored
Warning: card &CELL ignored
Warning: card     CELL_DYNAMICS = 'BFGS' ignored
Warning: card / ignored

     Current dimensions of program PWSCF are:
     Max number of different atomic species (ntypx) = 10
     Max number of k-points (npk) =  40000
     Max angular momentum in pseudopotentials (lmaxx) =  3

     Message from routine setup:
     using ibrav=0 with symmetry is DISCOURAGED, use correct ibrav instead

     bravais-lattice index     =            0
     lattice parameter (alat)  =       7.3477  a.u.
     unit-cell volume          =    4555.8304 (a.u.)^3
     number of atoms/cell      =           28
     number of atomic types    =            4
     number of electrons       =       229.00
     number of Kohn-Sham states=          138
     kinetic-energy cutoff     =      60.0000  Ry
     charge density cutoff     =     720.0000  Ry
     convergence threshold     =      1.0E-06
     mixing beta               =       0.2000
     number of iterations used =           10  local-TF  mixing
     Exchange-correlation= SLA PW PBE PBE
                           (   1   4   3   4   0   0   0)

     celldm(1)=   7.347715  celldm(2)=   0.000000  celldm(3)=   0.000000
     celldm(4)=   0.000000  celldm(5)=   0.000000  celldm(6)=   0.000000

     crystal axes: (cart. coord. in units of alat)
               a(1) = (   1.000000   0.000000   0.000000 )
               a(2) = (   0.000000   0.975577   0.000000 )
               a(3) = (   0.000000   0.000000  11.771964 )

     reciprocal axes: (cart. coord. in units 2 pi/alat)
               b(1) = (  1.000000  0.000000  0.000000 )
               b(2) = (  0.000000  1.025034  0.000000 )
               b(3) = (  0.000000  0.000000  0.084948 )

     PseudoPot. # 1 for Ba read from file:
     /n/holyscratch01/hoffman_lab/ruizhe/YBCO_Project/pseudo/Ba.pbe-nsp-van.UPF
     MD5 check sum: 2b9c31dd849566dd297d80989662b7a0
     Pseudo is Ultrasoft + core correction, Zval = 10.0
     Generated by new atomic code, or converted to UPF format
     Using radial grid of  907 points,  6 beta functions with:
                l(1) =   0
                l(2) =   0
                l(3) =   1
                l(4) =   1
                l(5) =   2
                l(6) =   2
     Q(r) pseudized with  6 coefficients,  rinner =    1.200   1.200   1.200
                                                       1.200   1.200

     PseudoPot. # 2 for Cu read from file:
     /n/holyscratch01/hoffman_lab/ruizhe/YBCO_Project/pseudo/Cu.pbe-n-van_ak.UPF
     MD5 check sum: 34e3282627ffb533726feb647e090d62
     Pseudo is Ultrasoft + core correction, Zval = 11.0
     Generated by new atomic code, or converted to UPF format
     Using radial grid of  867 points,  6 beta functions with:
                l(1) =   0
                l(2) =   0
                l(3) =   1
                l(4) =   1
                l(5) =   2
                l(6) =   2
     Q(r) pseudized with  8 coefficients,  rinner =    1.400   1.400   1.400
                                                       1.400   1.400

     PseudoPot. # 3 for O  read from file:
     /n/holyscratch01/hoffman_lab/ruizhe/YBCO_Project/pseudo/O.pbe-van_ak.UPF
     MD5 check sum: 783ce7fe4c79b6a4916957118fed0856
     Pseudo is Ultrasoft, Zval =  6.0
     Generated by new atomic code, or converted to UPF format
     Using radial grid of  737 points,  4 beta functions with:
                l(1) =   0
                l(2) =   0
                l(3) =   1
                l(4) =   1
     Q(r) pseudized with  8 coefficients,  rinner =    0.800   0.800   0.800

     PseudoPot. # 4 for Y  read from file:
     /n/holyscratch01/hoffman_lab/ruizhe/YBCO_Project/pseudo/Y.pbe-nsp-van.UPF
     MD5 check sum: 4412fed3ab108fed87a1b7d6a69a4a38
     Pseudo is Ultrasoft + core correction, Zval = 11.0
     Generated by new atomic code, or converted to UPF format
     Using radial grid of  885 points,  6 beta functions with:
                l(1) =   0
                l(2) =   0
                l(3) =   1
                l(4) =   1
                l(5) =   2
                l(6) =   2
     Q(r) pseudized with  6 coefficients,  rinner =    1.200   1.200   1.200
                                                       1.200   1.200

     atomic species   valence    mass     pseudopotential
        Ba            10.00   137.32700     Ba( 1.00)
        Cu            11.00    63.54600     Cu( 1.00)
        O              6.00    15.99900     O ( 1.00)
        Y             11.00    88.90584     Y ( 1.00)

      4 Sym. Ops. (no inversion) found

   Cartesian axes

     site n.     atom                  positions (alat units)
         1           O   tau(   1) = (   0.0000000   0.4877884  -0.0257983  )
         2           Cu  tau(   2) = (   0.0000000   0.0000000   0.0215779  )
         3           O   tau(   3) = (   0.0000000   0.0000000   0.5073114  )
         4           Ba  tau(   4) = (   0.4999996   0.4877884   0.5319677  )
         5           Cu  tau(   5) = (   0.0000000   0.0000000   1.0495845  )
         6           O   tau(   6) = (   0.4999996   0.0000000   1.1181579  )
         7           O   tau(   7) = (   0.0000000   0.4877884   1.1273137  )
         8           Y   tau(   8) = (   0.4999996   0.4877884   1.4938777  )
         9           O   tau(   9) = (   0.0000000   0.4877884   1.8497402  )
        10           O   tau(  10) = (   0.4999996   0.0000000   1.8692709  )
        11           Cu  tau(  11) = (   0.0000000   0.0000000   1.9417560  )
        12           Ba  tau(  12) = (   0.4999996   0.4877884   2.4526063  )
        13           O   tau(  13) = (   0.0000000   0.0000000   2.5103470  )
        14           O   tau(  14) = (   0.0000000   0.4877884   2.9968469  )
        15           Cu  tau(  15) = (   0.0000000   0.0000000   2.9968521  )
        16           O   tau(  16) = (   0.0000000   0.0000000   3.4833288  )
        17           Ba  tau(  17) = (   0.4999996   0.4877884   3.5410618  )
        18           Cu  tau(  18) = (   0.0000000   0.0000000   4.5663063  )
        19           O   tau(  19) = (   0.4999996   0.0000000   4.6387786  )
        20           O   tau(  20) = (   0.0000000   0.4877884   4.6582913  )
        21           Y   tau(  21) = (   0.4999996   0.4877884   5.0141564  )
        22           O   tau(  22) = (   0.0000000   0.4877884   5.3807203  )
        23           O   tau(  23) = (   0.4999996   0.0000000   5.3898890  )
        24           Cu  tau(  24) = (   0.0000000   0.0000000   5.4584675  )
        25           Ba  tau(  25) = (   0.4999996   0.4877884   5.9760689  )
        26           O   tau(  26) = (   0.0000000   0.0000000   6.0007253  )
        27           Cu  tau(  27) = (   0.0000000   0.0000000   6.4864305  )
        28           O   tau(  28) = (   0.0000000   0.4877884   6.5338118  )

     number of k points=    25  Gaussian smearing, width (Ry)=  0.0100
                       cart. coord. in units 2pi/alat
        k(    1) = (   0.0000000   0.0000000   0.0000000), wk =   0.0312500
        k(    2) = (   0.0000000   0.1281293   0.0000000), wk =   0.0625000
        k(    3) = (   0.0000000   0.2562585   0.0000000), wk =   0.0625000
        k(    4) = (   0.0000000   0.3843878   0.0000000), wk =   0.0625000
        k(    5) = (   0.0000000  -0.5125170   0.0000000), wk =   0.0312500
        k(    6) = (   0.1250000   0.0000000   0.0000000), wk =   0.0625000
        k(    7) = (   0.1250000   0.1281293   0.0000000), wk =   0.1250000
        k(    8) = (   0.1250000   0.2562585   0.0000000), wk =   0.1250000
        k(    9) = (   0.1250000   0.3843878   0.0000000), wk =   0.1250000
        k(   10) = (   0.1250000  -0.5125170   0.0000000), wk =   0.0625000
        k(   11) = (   0.2500000   0.0000000   0.0000000), wk =   0.0625000
        k(   12) = (   0.2500000   0.1281293   0.0000000), wk =   0.1250000
        k(   13) = (   0.2500000   0.2562585   0.0000000), wk =   0.1250000
        k(   14) = (   0.2500000   0.3843878   0.0000000), wk =   0.1250000
        k(   15) = (   0.2500000  -0.5125170   0.0000000), wk =   0.0625000
        k(   16) = (   0.3750000   0.0000000   0.0000000), wk =   0.0625000
        k(   17) = (   0.3750000   0.1281293   0.0000000), wk =   0.1250000
        k(   18) = (   0.3750000   0.2562585   0.0000000), wk =   0.1250000
        k(   19) = (   0.3750000   0.3843878   0.0000000), wk =   0.1250000
        k(   20) = (   0.3750000  -0.5125170   0.0000000), wk =   0.0625000
        k(   21) = (  -0.5000000   0.0000000   0.0000000), wk =   0.0312500
        k(   22) = (  -0.5000000   0.1281293   0.0000000), wk =   0.0625000
        k(   23) = (  -0.5000000   0.2562585   0.0000000), wk =   0.0625000
        k(   24) = (  -0.5000000   0.3843878   0.0000000), wk =   0.0625000
        k(   25) = (  -0.5000000  -0.5125170   0.0000000), wk =   0.0312500

     Initial potential from superposition of free atoms

     starting charge  228.84827, renormalised to  229.00000

     negative rho (up, down):  8.965E-02 0.000E+00
     Starting wfcs are  201 randomized atomic wfcs

     Self-consistent Calculation

     iteration #  1     ecut=    60.00 Ry     beta= 0.20
     Davidson diagonalization with overlap
     ethr =  1.00E-02,  avg # of iterations =  2.0

     negative rho (up, down):  8.750E-02 0.000E+00

     total energy              =   -1869.56422463 Ry
     Harris-Foulkes estimate   =   -1871.16599310 Ry
     estimated scf accuracy    <      14.29999296 Ry

[...]

     iteration # 17     ecut=    60.00 Ry     beta= 0.20
     Davidson diagonalization with overlap
     c_bands:  1 eigenvalues not converged
     ethr =  5.81E-06,  avg # of iterations =  6.5

[...]

     iteration # 29     ecut=    60.00 Ry     beta= 0.20
     Davidson diagonalization with overlap
     c_bands:  1 eigenvalues not converged
     ethr =  4.22E-08,  avg # of iterations =  5.3

[...]

     total energy              =   -1868.79071393 Ry
     Harris-Foulkes estimate   =   -1868.79071420 Ry
     estimated scf accuracy    <       0.00000115 Ry

     iteration # 36     ecut=    60.00 Ry     beta= 0.20
     Davidson diagonalization with overlap
     ethr =  5.03E-10,  avg # of iterations =  1.5

[...]

     End of self-consistent calculation

          k = 0.0000 0.0000 0.0000 ( 35655 PWs)   bands (ev):

   -38.1420 -37.8715 -23.6369 -22.7971 -22.7750 -22.6691 -18.6770 -18.3758
   -18.1466 -18.1367 -17.8926 -17.8770 -15.4728 -15.2406 -14.6726 -14.5127
   -14.3014 -14.2825 -14.2581 -14.1711 -14.1094 -13.9966 -13.7807 -13.7785
   -13.6259 -13.5207 -13.4325  -8.9165  -8.4775  -8.4611  -8.0191  -7.9912
    -7.9452  -7.7896  -7.7691  -7.7628  -7.7414  -7.6227  -7.6013  -2.1013
    -2.0678  -1.9305  -1.9221  -1.9071  -1.8841  -1.8814  -1.8130  -1.7845
    -1.7705  -1.7361  -1.5681  -1.4422  -0.9029  -0.8933  -0.6647  -0.5494
    -0.4881  -0.4805  -0.3819  -0.3725  -0.1220  -0.0912  -0.0896  -0.0546
    -0.0523   0.0021   0.0747   0.1104   0.1148   0.1240   0.2077   0.2522
     0.2629   0.2694   0.3374   0.3578   0.3748   0.3779   0.4128   0.4251
     0.4378   0.5132   0.5155   0.5232   0.5549   0.6352   0.6401   0.7258
     0.7682   0.8809   0.9959   1.0741   1.1984   1.2104   1.2609   1.3161
     1.3355   1.3616   1.3633   1.4141   1.4659   1.4818   1.5278   1.6203
     1.8249   1.8416   1.9529   1.9572   1.9639   1.9909   2.0020   2.1623
     2.1791   2.2321   2.2545   2.3554   2.3795   2.6413   2.6485   4.8987
     5.2529   5.3039   5.6755   5.8544   6.3116   6.6044   6.6728   6.7252
     7.2227   7.6321   7.8805   8.0543   8.1342   8.1566   8.3411   8.3858
     8.6250   8.6865

[...]

          k = 0.3750-0.5125 0.0000 ( 35878 PWs)   bands (ev):

[...]

          k =-0.5000 0.0000 0.0000 ( 35718 PWs)   bands (ev):

[...]

          k =-0.5000-0.5125 0.0000 ( 35908 PWs)   bands (ev):

   -38.1141 -37.8434 -23.4298 -22.5550 -22.5327 -22.4335 -18.6959 -18.6699
   -18.4384 -18.4212 -18.1958 -17.8872 -14.5303 -14.5137 -14.3462 -14.2909
   -14.2742 -14.2681 -14.1842 -14.0144 -13.9587 -13.8091 -13.7055 -13.6656
   -13.6628 -13.6088 -13.5669  -9.4408  -9.1107  -8.8432  -8.7492  -8.7276
    -8.5714  -8.4603  -8.4402  -8.2596  -7.9980  -7.9694  -7.9295  -4.2125
    -4.0548  -3.6292  -3.3198  -3.2217  -2.7554  -2.7498  -2.5404  -2.3619
    -2.3587  -2.3260  -2.2345  -2.0657  -1.8668  -1.8625  -1.8350  -1.7801
    -1.6036  -1.3615  -1.0481  -1.0279  -0.9877  -0.9458  -0.8568  -0.7641
    -0.7486  -0.6834  -0.6048  -0.5323  -0.5277  -0.4098  -0.3999  -0.3408
    -0.1727   0.1112   0.1141   0.3596   0.5985   0.7067   0.8615   1.0630
     1.3474   1.3875   1.4156   1.4939   1.5400   1.5408   1.5441   1.5574
     1.5814   1.5993   1.6977   1.7619   1.8088   1.8237   1.9485   1.9788
     1.9860   2.0110   2.0140   2.0246   2.0367   2.0606   2.0611   2.1180
     2.1837   2.3683   2.4617   2.5340   2.5393   2.5572   2.6423   2.6470
     2.9721   2.9852   4.4078   4.7520   4.8236   4.8267   4.8381   4.9321
     5.7836   5.7923   6.3294   6.6174   7.4210   7.4466   8.3533   8.4154
     8.4799   8.7177   8.8609   8.9403   9.1741   9.2406   9.2566   9.2996
     9.4887   9.5841

     the Fermi energy is     2.9452 ev

!    total energy              =   -1868.79071372 Ry
     Harris-Foulkes estimate   =   -1868.79071400 Ry
     estimated scf accuracy    <       0.00000046 Ry

     The total energy is the sum of the following terms:

     one-electron contribution =  -28788.34321785 Ry
     hartree contribution      =   14548.05308017 Ry
     xc contribution           =    -642.20910907 Ry
     ewald contribution        =   13013.71708592 Ry
     smearing contrib. (-TS)   =      -0.00855289 Ry

     convergence has been achieved in  36 iterations

     negative rho (up, down):  9.059E-02 0.000E+00

     Forces acting on atoms (cartesian axes, Ry/au):

     atom    1 type  3   force =     0.00000000    0.00000000    0.00000345
     atom    2 type  2   force =     0.00000000    0.00000000    0.00052554
     atom    3 type  3   force =     0.00000000    0.00000000   -0.00008332
     atom    4 type  1   force =     0.00000000    0.00000000   -0.00013988
     atom    5 type  2   force =     0.00000000    0.00000000   -0.00069762
     atom    6 type  3   force =     0.00000000    0.00000000    0.00027158
     atom    7 type  3   force =     0.00000000    0.00000000    0.00002364
     atom    8 type  4   force =     0.00000000    0.00000000   -0.00048144
     atom    9 type  3   force =     0.00000000    0.00000000    0.00066457
     atom   10 type  3   force =     0.00000000    0.00000000    0.00098873
     atom   11 type  2   force =     0.00000000    0.00000000   -0.00108410
     atom   12 type  1   force =     0.00000000    0.00000000   -0.00349259
     atom   13 type  3   force =     0.00000000    0.00000000    0.00228805
     atom   14 type  3   force =     0.00000000    0.00000000    0.01196651
     atom   15 type  2   force =     0.00000000    0.00000000   -0.00818917
     atom   16 type  3   force =     0.00000000    0.00000000    0.01984089
     atom   17 type  1   force =     0.00000000    0.00000000   -0.01443379
     atom   18 type  2   force =     0.00000000    0.00000000    0.00674507
     atom   19 type  3   force =     0.00000000    0.00000000    0.00914218
     atom   20 type  3   force =     0.00000000    0.00000000    0.00315430
     atom   21 type  4   force =     0.00000000    0.00000000   -0.03603062
     atom   22 type  3   force =     0.00000000    0.00000000    0.00296739
     atom   23 type  3   force =     0.00000000    0.00000000    0.00464104
     atom   24 type  2   force =     0.00000000    0.00000000    0.00274096
     atom   25 type  1   force =     0.00000000    0.00000000   -0.00134967
     atom   26 type  3   force =     0.00000000    0.00000000    0.00136424
     atom   27 type  2   force =     0.00000000    0.00000000   -0.00181220
     atom   28 type  3   force =     0.00000000    0.00000000    0.00046628

     Total force =     0.048121     Total SCF correction =     0.003440

     Computing stress (Cartesian axis) and pressure

     negative rho (up, down):  9.059E-02 0.000E+00
          total   stress  (Ry/bohr**3)                   (kbar)     P=       -7.02
  -0.00007144   0.00000000   0.00000000          -10.51        0.00        0.00
   0.00000000  -0.00003880   0.00000000            0.00       -5.71        0.00
   0.00000000   0.00000000  -0.00003295            0.00        0.00       -4.85

     General routines

     Parallel routines

   This run was terminated on:  17:21:28   5May2021

   JOB DONE.
[1620249688.311861] [holy7c06610:9042 :0]          mpool.c:43   UCX  WARN  object 0x2b71440 was not returned to mpool ucp_requests
[1620249688.311876] [holy7c06610:9042 :0]          mpool.c:43   UCX  WARN  object 0x2b71980 was not returned to mpool ucp_requests
[1620249688.311982] [holy7c06504:26796:0]          mpool.c:43   UCX  WARN  object 0x28ada80 was not returned to mpool ucp_requests
[1620249688.311998] [holy7c06504:26796:0]          mpool.c:43   UCX  WARN  object 0x28adfc0 was not returned to mpool ucp_requests
[1620249688.312212] [holy7c08106:106700:0]          mpool.c:43   UCX  WARN  object 0x41dd740 was not returned to mpool ucp_requests
[1620249688.313113] [holy7c08103:169053:0]          mpool.c:43   UCX  WARN  object 0x403ef80 was not returned to mpool ucp_requests
[1620249688.317684] [holy7c06606:257461:0]          mpool.c:43   UCX  WARN  object 0x326c500 was not returned to mpool ucp_requests
[1620249688.314019] [holy7c08108:214571:0]          mpool.c:43   UCX  WARN  object 0x326df80 was not returned to mpool ucp_requests
[1620249688.318626] [holy7c08104:164510:0]          mpool.c:43   UCX  WARN  object 0x3f0e480 was not returned to mpool ucp_requests
[1620249688.318650] [holy7c08104:164510:0]          mpool.c:43   UCX  WARN  object 0x3f0e640 was not returned to mpool ucp_requests