     Program PWSCF v.6.5 starts on  5May2021 at 17:15: 8

     R & G space division:  proc/nbgrp/npool/nimage =      20
     Reading input from YBCO_CuO_cleave_1.5_sep_scf.pwi
Warning: card &IONS ignored
Warning: card     ION_DYNAMICS = 'BFGS' ignored
Warning: card / ignored
Warning: card &CELL ignored
Warning: card     CELL_DYNAMICS = 'BFGS' ignored
Warning: card / ignored

     Current dimensions of program PWSCF are:
     Max number of different atomic species (ntypx) = 10
     Max number of k-points (npk) =  40000
     Max angular momentum in pseudopotentials (lmaxx) =  3

     Message from routine setup:
     using ibrav=0 with symmetry is DISCOURAGED, use correct ibrav instead

     bravais-lattice index     =            0
     lattice parameter (alat)  =       7.3477  a.u.
     unit-cell volume          =    4506.0642 (a.u.)^3
     number of atoms/cell      =           28
     number of atomic types    =            4
     number of electrons       =       229.00
     number of Kohn-Sham states=          138
     kinetic-energy cutoff     =      60.0000  Ry
     charge density cutoff     =     720.0000  Ry
     convergence threshold     =      1.0E-06
     mixing beta               =       0.2000
     number of iterations used =           10  local-TF  mixing
     Exchange-correlation= SLA PW PBE PBE
                           (   1   4   3   4   0   0   0)

     celldm(1)=   7.347715  celldm(2)=   0.000000  celldm(3)=   0.000000
     celldm(4)=   0.000000  celldm(5)=   0.000000  celldm(6)=   0.000000

     crystal axes: (cart. coord. in units of alat)
               a(1) = (   1.000000   0.000000   0.000000 )
               a(2) = (   0.000000   0.975577   0.000000 )
               a(3) = (   0.000000   0.000000  11.643372 )

     reciprocal axes: (cart. coord. in units 2 pi/alat)
               b(1) = (  1.000000  0.000000  0.000000 )
               b(2) = (  0.000000  1.025034  0.000000 )
               b(3) = (  0.000000  0.000000  0.085886 )

     PseudoPot. # 1 for Ba read from file:
     /n/holyscratch01/hoffman_lab/ruizhe/YBCO_Project/pseudo/Ba.pbe-nsp-van.UPF
     MD5 check sum: 2b9c31dd849566dd297d80989662b7a0
     Pseudo is Ultrasoft + core correction, Zval = 10.0
     Generated by new atomic code, or converted to UPF format
     Using radial grid of  907 points,  6 beta functions with:
                l(1) =   0
                l(2) =   0
                l(3) =   1
                l(4) =   1
                l(5) =   2
                l(6) =   2
     Q(r) pseudized with  6 coefficients,  rinner =    1.200   1.200   1.200
                                                       1.200   1.200

     PseudoPot. # 2 for Cu read from file:
     /n/holyscratch01/hoffman_lab/ruizhe/YBCO_Project/pseudo/Cu.pbe-n-van_ak.UPF
     MD5 check sum: 34e3282627ffb533726feb647e090d62
     Pseudo is Ultrasoft + core correction, Zval = 11.0
     Generated by new atomic code, or converted to UPF format
     Using radial grid of  867 points,  6 beta functions with:
                l(1) =   0
                l(2) =   0
                l(3) =   1
                l(4) =   1
                l(5) =   2
                l(6) =   2
     Q(r) pseudized with  8 coefficients,  rinner =    1.400   1.400   1.400
                                                       1.400   1.400

     PseudoPot. # 3 for O  read from file:
     /n/holyscratch01/hoffman_lab/ruizhe/YBCO_Project/pseudo/O.pbe-van_ak.UPF
     MD5 check sum: 783ce7fe4c79b6a4916957118fed0856
     Pseudo is Ultrasoft, Zval =  6.0
     Generated by new atomic code, or converted to UPF format
     Using radial grid of  737 points,  4 beta functions with:
                l(1) =   0
                l(2) =   0
                l(3) =   1
                l(4) =   1
     Q(r) pseudized with  8 coefficients,  rinner =    0.800   0.800   0.800

     PseudoPot. # 4 for Y  read from file:
     /n/holyscratch01/hoffman_lab/ruizhe/YBCO_Project/pseudo/Y.pbe-nsp-van.UPF
     MD5 check sum: 4412fed3ab108fed87a1b7d6a69a4a38
     Pseudo is Ultrasoft + core correction, Zval = 11.0
     Generated by new atomic code, or converted to UPF format
     Using radial grid of  885 points,  6 beta functions with:
                l(1) =   0
                l(2) =   0
                l(3) =   1
                l(4) =   1
                l(5) =   2
                l(6) =   2
     Q(r) pseudized with  6 coefficients,  rinner =    1.200   1.200   1.200
                                                       1.200   1.200

     atomic species   valence    mass     pseudopotential
        Ba            10.00   137.32700     Ba( 1.00)
        Cu            11.00    63.54600     Cu( 1.00)
        O              6.00    15.99900     O ( 1.00)
        Y             11.00    88.90584     Y ( 1.00)

      4 Sym. Ops. (no inversion) found

   Cartesian axes

     site n.     atom                  positions (alat units)
         1           O   tau(   1) = (   0.0000000   0.4877884  -0.0257983  )
         2           Cu  tau(   2) = (   0.0000000   0.0000000   0.0215779  )
         3           O   tau(   3) = (   0.0000000   0.0000000   0.5073114  )
         4           Ba  tau(   4) = (   0.4999996   0.4877884   0.5319677  )
         5           Cu  tau(   5) = (   0.0000000   0.0000000   1.0495845  )
         6           O   tau(   6) = (   0.4999996   0.0000000   1.1181579  )
         7           O   tau(   7) = (   0.0000000   0.4877884   1.1273137  )
         8           Y   tau(   8) = (   0.4999996   0.4877884   1.4938777  )
         9           O   tau(   9) = (   0.0000000   0.4877884   1.8497402  )
        10           O   tau(  10) = (   0.4999996   0.0000000   1.8692709  )
        11           Cu  tau(  11) = (   0.0000000   0.0000000   1.9417560  )
        12           Ba  tau(  12) = (   0.4999996   0.4877884   2.4526063  )
        13           O   tau(  13) = (   0.0000000   0.0000000   2.5103470  )
        14           O   tau(  14) = (   0.0000000   0.4877884   2.9968469  )
        15           Cu  tau(  15) = (   0.0000000   0.0000000   2.9968521  )
        16           O   tau(  16) = (   0.0000000   0.0000000   3.8691071  )
        17           Ba  tau(  17) = (   0.4999996   0.4877884   3.9268401  )
        18           Cu  tau(  18) = (   0.0000000   0.0000000   4.4377135  )
        19           O   tau(  19) = (   0.4999996   0.0000000   4.5101858  )
        20           O   tau(  20) = (   0.0000000   0.4877884   4.5296985  )
        21           Y   tau(  21) = (   0.4999996   0.4877884   4.8855636  )
        22           O   tau(  22) = (   0.0000000   0.4877884   5.2521276  )
        23           O   tau(  23) = (   0.4999996   0.0000000   5.2612962  )
        24           Cu  tau(  24) = (   0.0000000   0.0000000   5.3298748  )
        25           Ba  tau(  25) = (   0.4999996   0.4877884   5.8474761  )
        26           O   tau(  26) = (   0.0000000   0.0000000   5.8721325  )
        27           Cu  tau(  27) = (   0.0000000   0.0000000   6.3578377  )
        28           O   tau(  28) = (   0.0000000   0.4877884   6.4052190  )

     number of k points=    25  Gaussian smearing, width (Ry)=  0.0100
                       cart. coord. in units 2pi/alat
        k(    1) = (   0.0000000   0.0000000   0.0000000), wk =   0.0312500
        k(    2) = (   0.0000000   0.1281293   0.0000000), wk =   0.0625000
        k(    3) = (   0.0000000   0.2562585   0.0000000), wk =   0.0625000
        k(    4) = (   0.0000000   0.3843878   0.0000000), wk =   0.0625000
        k(    5) = (   0.0000000  -0.5125170   0.0000000), wk =   0.0312500
        k(    6) = (   0.1250000   0.0000000   0.0000000), wk =   0.0625000
        k(    7) = (   0.1250000   0.1281293   0.0000000), wk =   0.1250000
        k(    8) = (   0.1250000   0.2562585   0.0000000), wk =   0.1250000
        k(    9) = (   0.1250000   0.3843878   0.0000000), wk =   0.1250000
        k(   10) = (   0.1250000  -0.5125170   0.0000000), wk =   0.0625000
        k(   11) = (   0.2500000   0.0000000   0.0000000), wk =   0.0625000
        k(   12) = (   0.2500000   0.1281293   0.0000000), wk =   0.1250000
        k(   13) = (   0.2500000   0.2562585   0.0000000), wk =   0.1250000
        k(   14) = (   0.2500000   0.3843878   0.0000000), wk =   0.1250000
        k(   15) = (   0.2500000  -0.5125170   0.0000000), wk =   0.0625000
        k(   16) = (   0.3750000   0.0000000   0.0000000), wk =   0.0625000
        k(   17) = (   0.3750000   0.1281293   0.0000000), wk =   0.1250000
        k(   18) = (   0.3750000   0.2562585   0.0000000), wk =   0.1250000
        k(   19) = (   0.3750000   0.3843878   0.0000000), wk =   0.1250000
        k(   20) = (   0.3750000  -0.5125170   0.0000000), wk =   0.0625000
        k(   21) = (  -0.5000000   0.0000000   0.0000000), wk =   0.0312500
        k(   22) = (  -0.5000000   0.1281293   0.0000000), wk =   0.0625000
        k(   23) = (  -0.5000000   0.2562585   0.0000000), wk =   0.0625000
        k(   24) = (  -0.5000000   0.3843878   0.0000000), wk =   0.0625000
        k(   25) = (  -0.5000000  -0.5125170   0.0000000), wk =   0.0312500

     Initial potential from superposition of free atoms

     starting charge  228.84827, renormalised to  229.00000

     negative rho (up, down):  8.944E-02 0.000E+00
     Starting wfcs are  201 randomized atomic wfcs

     Self-consistent Calculation

     iteration #  1     ecut=    60.00 Ry     beta= 0.20
     Davidson diagonalization with overlap
     ethr =  1.00E-02,  avg # of iterations =  2.0

     negative rho (up, down):  8.726E-02 0.000E+00

     total energy              =   -1869.49498048 Ry
     Harris-Foulkes estimate   =   -1871.06438210 Ry
     estimated scf accuracy    <      13.12720727 Ry

[...]

     iteration # 25     ecut=    60.00 Ry     beta= 0.20
     Davidson diagonalization with overlap
     c_bands:  1 eigenvalues not converged
     ethr =  4.09E-07,  avg # of iterations =  6.5

[...]

     iteration # 30     ecut=    60.00 Ry     beta= 0.20
     Davidson diagonalization with overlap
     c_bands:  1 eigenvalues not converged
     ethr =  4.68E-09,  avg # of iterations =  4.6

[...]

     total energy              =   -1868.74116863 Ry
     Harris-Foulkes estimate   =   -1868.74116891 Ry
     estimated scf accuracy    <       0.00000101 Ry

     iteration # 33     ecut=    60.00 Ry     beta= 0.20
     Davidson diagonalization with overlap
     ethr =  4.40E-10,  avg # of iterations =  2.1

[...]

     End of self-consistent calculation

          k = 0.0000 0.0000 0.0000 ( 35281 PWs)   bands (ev):

   -38.1825 -38.1166 -22.8174 -22.8077 -22.6410 -22.5906 -18.7159 -18.6569
   -18.1879 -18.1788 -18.1228 -18.1102 -15.5081 -15.4631 -14.5503 -14.5018
   -14.3004 -14.2945 -14.2935 -14.2497 -14.1884 -14.0326 -13.9846 -13.7984
   -13.7886 -13.5238 -12.3057  -8.0377  -8.0277  -7.9306  -7.8593  -7.8096
    -7.8004  -7.7828  -7.7737  -7.6124  -7.5902  -7.4741  -7.3994  -2.1393
    -2.1082  -2.0936  -2.0653  -1.9676  -1.9196  -1.8997  -1.8915  -1.8524
    -1.8181  -1.7759  -1.7289  -1.5736  -0.9439  -0.8896  -0.4968  -0.4837
    -0.4277  -0.1603  -0.1134  -0.1082  -0.1013  -0.0710  -0.0661   0.0909
     0.0928   0.1406   0.1502   0.1583   0.1745   0.2265   0.2320   0.2515
     0.2601   0.3099   0.3563   0.3576   0.3674   0.3708   0.4610   0.4780
     0.5074   0.5078   0.5183   0.5265   0.5728   0.6221   0.6224   0.6392
     0.9251   1.0701   1.1069   1.1744   1.1801   1.2149   1.2487   1.2835
     1.3079   1.3244   1.3441   1.4335   1.4354   1.4507   1.4583   1.4606
     1.5011   1.8878   1.9234   1.9454   1.9513   2.0577   2.1447   2.1502
     2.2570   2.4550   2.5864   2.6365   2.6550   2.7035   2.7474   5.1600
     5.2537   5.3414   5.8451   5.9589   6.6272   6.6454   6.8028   6.9505
     7.3453   7.4393   8.1117   8.1276   8.1743   8.3075   8.5490   8.6347
     8.6718   8.7109

[...]

          k = 0.3750-0.5125 0.0000 ( 35450 PWs)   bands (ev):

[...]

          k =-0.5000 0.0000 0.0000 ( 35346 PWs)   bands (ev):

[...]

          k =-0.5000-0.5125 0.0000 ( 35476 PWs)   bands (ev):

   -38.1546 -38.0887 -22.5753 -22.5655 -22.4028 -22.3787 -18.7382 -18.7110
   -18.6710 -18.6495 -18.2350 -18.1735 -14.5632 -14.5519 -14.5297 -14.4954
   -14.2911 -14.2898 -14.0510 -14.0113 -13.9970 -13.9483 -13.9358 -13.6814
   -13.6666 -13.6050 -12.4216  -8.7691  -8.7602  -8.5642  -8.4802  -8.4708
    -8.3122  -8.2655  -8.1871  -8.0166  -8.0055  -7.8652  -7.8340  -4.2521
    -4.1964  -3.6681  -3.5963  -2.7669  -2.7625  -2.7545  -2.5670  -2.5240
    -2.3803  -2.3696  -2.2859  -2.2493  -1.8827  -1.8819  -1.8568  -1.8102
    -1.5477  -1.1058  -1.0658  -0.9844  -0.9425  -0.8482  -0.7714  -0.7556
    -0.7391  -0.6527  -0.6250  -0.6104  -0.5446  -0.5330  -0.5144   0.0713
     0.0986   0.1066   0.2240   0.4417   0.7250   0.8733   1.1444   1.1980
     1.3520   1.3903   1.4470   1.4619   1.4772   1.4833   1.4923   1.5087
     1.5252   1.6109   1.6938   1.7366   1.7751   1.7947   1.8185   1.9795
     1.9991   2.0042   2.0119   2.0181   2.0220   2.1605   2.2383   2.2522
     2.5218   2.5364   2.6296   2.6418   2.6835   2.7154   2.9074   2.9240
     2.9377   3.0077   3.3457   4.7013   4.7219   4.8106   4.8220   5.7662
     5.7757   5.9039   6.5409   6.6431   8.1359   8.2371   8.3647   8.3696
     8.6899   8.8890   9.0919   9.1884   9.2254   9.2591   9.3857   9.4835
     9.4959   9.7417

     the Fermi energy is     2.9261 ev

!    total energy              =   -1868.74116813 Ry
     Harris-Foulkes estimate   =   -1868.74116868 Ry
     estimated scf accuracy    <       0.00000064 Ry

     The total energy is the sum of the following terms:

     one-electron contribution =  -29385.62142146 Ry
     hartree contribution      =   14847.11269791 Ry
     xc contribution           =    -642.19929825 Ry
     ewald contribution        =   13311.97741787 Ry
     smearing contrib. (-TS)   =      -0.01056420 Ry

     convergence has been achieved in  33 iterations

     negative rho (up, down):  9.043E-02 0.000E+00

     Forces acting on atoms (cartesian axes, Ry/au):

     atom    1 type  3   force =     0.00000000    0.00000000   -0.00023464
     atom    2 type  2   force =     0.00000000    0.00000000    0.00061984
     atom    3 type  3   force =     0.00000000    0.00000000    0.00025861
     atom    4 type  1   force =     0.00000000    0.00000000   -0.00012385
     atom    5 type  2   force =     0.00000000    0.00000000   -0.00065450
     atom    6 type  3   force =     0.00000000    0.00000000    0.00125435
     atom    7 type  3   force =     0.00000000    0.00000000    0.00087065
     atom    8 type  4   force =     0.00000000    0.00000000   -0.00231428
     atom    9 type  3   force =     0.00000000    0.00000000    0.00407557
     atom   10 type  3   force =     0.00000000    0.00000000    0.00298026
     atom   11 type  2   force =     0.00000000    0.00000000   -0.00117981
     atom   12 type  1   force =     0.00000000    0.00000000    0.01573801
     atom   13 type  3   force =     0.00000000    0.00000000   -0.01695706
     atom   14 type  3   force =     0.00000000    0.00000000    0.02283773
     atom   15 type  2   force =     0.00000000    0.00000000   -0.01055594
     atom   16 type  3   force =     0.00000000    0.00000000    0.01463693
     atom   17 type  1   force =     0.00000000    0.00000000   -0.01556367
     atom   18 type  2   force =     0.00000000    0.00000000   -0.02303978
     atom   19 type  3   force =     0.00000000    0.00000000    0.00476141
     atom   20 type  3   force =     0.00000000    0.00000000    0.00306034
     atom   21 type  4   force =     0.00000000    0.00000000   -0.00080539
     atom   22 type  3   force =     0.00000000    0.00000000   -0.00026642
     atom   23 type  3   force =     0.00000000    0.00000000    0.00071570
     atom   24 type  2   force =     0.00000000    0.00000000    0.00044288
     atom   25 type  1   force =     0.00000000    0.00000000    0.00006662
     atom   26 type  3   force =     0.00000000    0.00000000   -0.00156743
     atom   27 type  2   force =     0.00000000    0.00000000    0.00071396
     atom   28 type  3   force =     0.00000000    0.00000000    0.00022991

     Total force =     0.047197     Total SCF correction =     0.003901

     Computing stress (Cartesian axis) and pressure

     negative rho (up, down):  9.043E-02 0.000E+00
          total   stress  (Ry/bohr**3)                   (kbar)     P=       -6.65
   0.00000110   0.00000000   0.00000000            0.16        0.00        0.00
   0.00000000  -0.00009263   0.00000000            0.00      -13.63        0.00
   0.00000000   0.00000000  -0.00004399            0.00        0.00       -6.47

     General routines

     Parallel routines

   This run was terminated on:  17:27:37   5May2021

   JOB DONE.
[1620250057.767859] [holy7c10611:253241:0]          mpool.c:43   UCX  WARN  object 0x37b9880 was not returned to mpool ucp_requests
[1620250057.768206] [holy7c12209:157409:0]          mpool.c:43   UCX  WARN  object 0x31ef100 was not returned to mpool ucp_requests
[1620250057.768224] [holy7c12209:157409:0]          mpool.c:43   UCX  WARN  object 0x31ef480 was not returned to mpool ucp_requests
[1620250057.769032] [holy7c12209:157408:0]          mpool.c:43   UCX  WARN  object 0x2aa8400 was not returned to mpool ucp_requests
[1620250057.767421] [holy7c12107:61151:0]          mpool.c:43   UCX  WARN  object 0x3e38540 was not returned to mpool ucp_requests
[1620250057.767439] [holy7c12107:61151:0]          mpool.c:43   UCX  WARN  object 0x3e38700 was not returned to mpool ucp_requests
[1620250057.772357] [holy7c12111:15583:0]          mpool.c:43   UCX  WARN  object 0x3176040 was not returned to mpool ucp_requests
[1620250057.772383] [holy7c12111:15583:0]          mpool.c:43   UCX  WARN  object 0x31763c0 was not returned to mpool ucp_requests
[1620250057.772950] [holy7c12110:178420:0]          mpool.c:43   UCX  WARN  object 0x44a8d80 was not returned to mpool ucp_requests
[1620250057.774297] [holy7c10608:79485:0]          mpool.c:43   UCX  WARN  object 0x33d69c0 was not returned to mpool ucp_requests
[1620250057.774310] [holy7c10608:79485:0]          mpool.c:43   UCX  WARN  object 0x33d6f00 was not returned to mpool ucp_requests