     Program PWSCF v.6.5 starts on  5May2021 at 17: 8:59

     R & G space division:  proc/nbgrp/npool/nimage =      20
     Reading input from YBCO_BaO_cleave_1.5_sep_scf.pwi
Warning: card &IONS ignored
Warning: card     ION_DYNAMICS = 'BFGS' ignored
Warning: card / ignored
Warning: card &CELL ignored
Warning: card     CELL_DYNAMICS = 'BFGS' ignored
Warning: card / ignored

     Current dimensions of program PWSCF are:
     Max number of different atomic species (ntypx) = 10
     Max number of k-points (npk) =  40000
     Max angular momentum in pseudopotentials (lmaxx) =  3

     Message from routine setup:
     using ibrav=0 with symmetry is DISCOURAGED, use correct ibrav instead

     bravais-lattice index     =            0
     lattice parameter (alat)  =       7.3477  a.u.
     unit-cell volume          =    4506.0642 (a.u.)^3
     number of atoms/cell      =           28
     number of atomic types    =            4
     number of electrons       =       229.00
     number of Kohn-Sham states=          138
     kinetic-energy cutoff     =      60.0000  Ry
     charge density cutoff     =     720.0000  Ry
     convergence threshold     =      1.0E-06
     mixing beta               =       0.2000
     number of iterations used =           10  local-TF  mixing
     Exchange-correlation= SLA PW PBE PBE
                           (   1   4   3   4   0   0   0)

     celldm(1)=   7.347715  celldm(2)=   0.000000  celldm(3)=   0.000000
     celldm(4)=   0.000000  celldm(5)=   0.000000  celldm(6)=   0.000000

     crystal axes: (cart. coord. in units of alat)
               a(1) = (   1.000000   0.000000   0.000000 )
               a(2) = (   0.000000   0.975577   0.000000 )
               a(3) = (   0.000000   0.000000  11.643372 )

     reciprocal axes: (cart. coord. in units 2 pi/alat)
               b(1) = (  1.000000  0.000000  0.000000 )
               b(2) = (  0.000000  1.025034  0.000000 )
               b(3) = (  0.000000  0.000000  0.085886 )

     PseudoPot. # 1 for Ba read from file:
     /n/holyscratch01/hoffman_lab/ruizhe/YBCO_Project/pseudo/Ba.pbe-nsp-van.UPF
     MD5 check sum: 2b9c31dd849566dd297d80989662b7a0
     Pseudo is Ultrasoft + core correction, Zval = 10.0
     Generated by new atomic code, or converted to UPF format
     Using radial grid of  907 points,  6 beta functions with:
                l(1) =   0
                l(2) =   0
                l(3) =   1
                l(4) =   1
                l(5) =   2
                l(6) =   2
     Q(r) pseudized with  6 coefficients,  rinner =    1.200   1.200   1.200
                                                       1.200   1.200

     PseudoPot. # 2 for Cu read from file:
     /n/holyscratch01/hoffman_lab/ruizhe/YBCO_Project/pseudo/Cu.pbe-n-van_ak.UPF
     MD5 check sum: 34e3282627ffb533726feb647e090d62
     Pseudo is Ultrasoft + core correction, Zval = 11.0
     Generated by new atomic code, or converted to UPF format
     Using radial grid of  867 points,  6 beta functions with:
                l(1) =   0
                l(2) =   0
                l(3) =   1
                l(4) =   1
                l(5) =   2
                l(6) =   2
     Q(r) pseudized with  8 coefficients,  rinner =    1.400   1.400   1.400
                                                       1.400   1.400

     PseudoPot. # 3 for O  read from file:
     /n/holyscratch01/hoffman_lab/ruizhe/YBCO_Project/pseudo/O.pbe-van_ak.UPF
     MD5 check sum: 783ce7fe4c79b6a4916957118fed0856
     Pseudo is Ultrasoft, Zval =  6.0
     Generated by new atomic code, or converted to UPF format
     Using radial grid of  737 points,  4 beta functions with:
                l(1) =   0
                l(2) =   0
                l(3) =   1
                l(4) =   1
     Q(r) pseudized with  8 coefficients,  rinner =    0.800   0.800   0.800

     PseudoPot. # 4 for Y  read from file:
     /n/holyscratch01/hoffman_lab/ruizhe/YBCO_Project/pseudo/Y.pbe-nsp-van.UPF
     MD5 check sum: 4412fed3ab108fed87a1b7d6a69a4a38
     Pseudo is Ultrasoft + core correction, Zval = 11.0
     Generated by new atomic code, or converted to UPF format
     Using radial grid of  885 points,  6 beta functions with:
                l(1) =   0
                l(2) =   0
                l(3) =   1
                l(4) =   1
                l(5) =   2
                l(6) =   2
     Q(r) pseudized with  6 coefficients,  rinner =    1.200   1.200   1.200
                                                       1.200   1.200

     atomic species   valence    mass     pseudopotential
        Ba            10.00   137.32700     Ba( 1.00)
        Cu            11.00    63.54600     Cu( 1.00)
        O              6.00    15.99900     O ( 1.00)
        Y             11.00    88.90584     Y ( 1.00)

      4 Sym. Ops. (no inversion) found

   Cartesian axes

     site n.     atom                  positions (alat units)
         1           O   tau(   1) = (   0.0000000   0.4877884  -0.0257983  )
         2           Cu  tau(   2) = (   0.0000000   0.0000000   0.0215779  )
         3           O   tau(   3) = (   0.0000000   0.0000000   0.5073114  )
         4           Ba  tau(   4) = (   0.4999996   0.4877884   0.5319677  )
         5           Cu  tau(   5) = (   0.0000000   0.0000000   1.0495845  )
         6           O   tau(   6) = (   0.4999996   0.0000000   1.1181579  )
         7           O   tau(   7) = (   0.0000000   0.4877884   1.1273137  )
         8           Y   tau(   8) = (   0.4999996   0.4877884   1.4938777  )
         9           O   tau(   9) = (   0.0000000   0.4877884   1.8497402  )
        10           O   tau(  10) = (   0.4999996   0.0000000   1.8692709  )
        11           Cu  tau(  11) = (   0.0000000   0.0000000   1.9417560  )
        12           Ba  tau(  12) = (   0.4999996   0.4877884   2.4526063  )
        13           O   tau(  13) = (   0.0000000   0.0000000   2.5103470  )
        14           O   tau(  14) = (   0.0000000   0.4877884   2.9968469  )
        15           Cu  tau(  15) = (   0.0000000   0.0000000   2.9968521  )
        16           O   tau(  16) = (   0.0000000   0.0000000   3.4833288  )
        17           Ba  tau(  17) = (   0.4999996   0.4877884   3.5410618  )
        18           Cu  tau(  18) = (   0.0000000   0.0000000   4.4377135  )
        19           O   tau(  19) = (   0.4999996   0.0000000   4.5101858  )
        20           O   tau(  20) = (   0.0000000   0.4877884   4.5296985  )
        21           Y   tau(  21) = (   0.4999996   0.4877884   4.8855636  )
        22           O   tau(  22) = (   0.0000000   0.4877884   5.2521276  )
        23           O   tau(  23) = (   0.4999996   0.0000000   5.2612962  )
        24           Cu  tau(  24) = (   0.0000000   0.0000000   5.3298748  )
        25           Ba  tau(  25) = (   0.4999996   0.4877884   5.8474761  )
        26           O   tau(  26) = (   0.0000000   0.0000000   5.8721325  )
        27           Cu  tau(  27) = (   0.0000000   0.0000000   6.3578377  )
        28           O   tau(  28) = (   0.0000000   0.4877884   6.4052190  )

     number of k points=    25  Gaussian smearing, width (Ry)=  0.0100
                       cart. coord. in units 2pi/alat
        k(    1) = (   0.0000000   0.0000000   0.0000000), wk =   0.0312500
        k(    2) = (   0.0000000   0.1281293   0.0000000), wk =   0.0625000
        k(    3) = (   0.0000000   0.2562585   0.0000000), wk =   0.0625000
        k(    4) = (   0.0000000   0.3843878   0.0000000), wk =   0.0625000
        k(    5) = (   0.0000000  -0.5125170   0.0000000), wk =   0.0312500
        k(    6) = (   0.1250000   0.0000000   0.0000000), wk =   0.0625000
        k(    7) = (   0.1250000   0.1281293   0.0000000), wk =   0.1250000
        k(    8) = (   0.1250000   0.2562585   0.0000000), wk =   0.1250000
        k(    9) = (   0.1250000   0.3843878   0.0000000), wk =   0.1250000
        k(   10) = (   0.1250000  -0.5125170   0.0000000), wk =   0.0625000
        k(   11) = (   0.2500000   0.0000000   0.0000000), wk =   0.0625000
        k(   12) = (   0.2500000   0.1281293   0.0000000), wk =   0.1250000
        k(   13) = (   0.2500000   0.2562585   0.0000000), wk =   0.1250000
        k(   14) = (   0.2500000   0.3843878   0.0000000), wk =   0.1250000
        k(   15) = (   0.2500000  -0.5125170   0.0000000), wk =   0.0625000
        k(   16) = (   0.3750000   0.0000000   0.0000000), wk =   0.0625000
        k(   17) = (   0.3750000   0.1281293   0.0000000), wk =   0.1250000
        k(   18) = (   0.3750000   0.2562585   0.0000000), wk =   0.1250000
        k(   19) = (   0.3750000   0.3843878   0.0000000), wk =   0.1250000
        k(   20) = (   0.3750000  -0.5125170   0.0000000), wk =   0.0625000
        k(   21) = (  -0.5000000   0.0000000   0.0000000), wk =   0.0312500
        k(   22) = (  -0.5000000   0.1281293   0.0000000), wk =   0.0625000
        k(   23) = (  -0.5000000   0.2562585   0.0000000), wk =   0.0625000
        k(   24) = (  -0.5000000   0.3843878   0.0000000), wk =   0.0625000
        k(   25) = (  -0.5000000  -0.5125170   0.0000000), wk =   0.0312500

     Initial potential from superposition of free atoms

     starting charge  228.84827, renormalised to  229.00000

     negative rho (up, down):  8.946E-02 0.000E+00
     Starting wfcs are  201 randomized atomic wfcs

     Self-consistent Calculation

     iteration #  1     ecut=    60.00 Ry     beta= 0.20
     Davidson diagonalization with overlap
     ethr =  1.00E-02,  avg # of iterations =  2.0

     negative rho (up, down):  8.735E-02 0.000E+00

     total energy              =   -1869.55033613 Ry
     Harris-Foulkes estimate   =   -1871.14647860 Ry
     estimated scf accuracy    <      13.98478495 Ry

[...]

     iteration # 20     ecut=    60.00 Ry     beta= 0.20
     Davidson diagonalization with overlap
     c_bands:  1 eigenvalues not converged
     ethr =  5.00E-06,  avg # of iterations =  5.6

[...]

     iteration # 28     ecut=    60.00 Ry     beta= 0.20
     Davidson diagonalization with overlap
     c_bands:  1 eigenvalues not converged
     ethr =  3.08E-08,  avg # of iterations =  5.0

[...]

     total energy              =   -1868.80051380 Ry
     Harris-Foulkes estimate   =   -1868.80051395 Ry
     estimated scf accuracy    <       0.00000103 Ry

     iteration # 34     ecut=    60.00 Ry     beta= 0.20
     Davidson diagonalization with overlap
     ethr =  4.50E-10,  avg # of iterations =  1.5

[...]

     End of self-consistent calculation

          k = 0.0000 0.0000 0.0000 ( 35281 PWs)   bands (ev):

   -38.0776 -37.8423 -23.3923 -22.7331 -22.7150 -22.5949 -18.6126 -18.3470
   -18.0823 -18.0723 -17.8622 -17.8474 -15.4083 -15.2008 -14.5752 -14.4477
   -14.2435 -14.2185 -14.1936 -14.1407 -14.0588 -13.9320 -13.7168 -13.7157
   -13.6115 -13.4344 -13.2936  -8.6625  -8.2389  -8.2262  -7.9547  -7.9315
    -7.8706  -7.7257  -7.7088  -7.6988  -7.6812  -7.5482  -7.5276  -2.0368
    -2.0035  -1.8736  -1.8655  -1.8566  -1.8214  -1.8175  -1.7490  -1.7481
    -1.6939  -1.6715  -1.5373  -1.4159  -0.8384  -0.8015  -0.6251  -0.4774
    -0.4241  -0.4169  -0.2988  -0.2674  -0.0546  -0.0275  -0.0262   0.0090
     0.0110   0.0355   0.1485   0.1740   0.1803   0.1865   0.2710   0.3117
     0.3268   0.3336   0.3948   0.4200   0.4383   0.4438   0.4736   0.4860
     0.5157   0.5775   0.5796   0.5867   0.6296   0.6985   0.7037   0.7694
     0.8046   0.9157   1.0840   1.1419   1.2558   1.2748   1.3283   1.3699
     1.4003   1.4189   1.4236   1.4862   1.5323   1.5456   1.5864   1.7380
     1.8491   1.9377   1.9731   2.0279   2.0438   2.0491   2.1458   2.2264
     2.2402   2.2631   2.3485   2.4336   2.4489   2.7037   2.7126   5.1136
     5.3189   5.4019   5.8324   5.9632   6.5123   6.7102   6.7467   6.8655
     7.3446   7.7531   7.9828   8.1879   8.2210   8.2649   8.4036   8.4192
     8.7119   8.7597

[...]

          k = 0.3750-0.5125 0.0000 ( 35450 PWs)   bands (ev):

[...]

          k =-0.5000 0.0000 0.0000 ( 35346 PWs)   bands (ev):

[...]

          k =-0.5000-0.5125 0.0000 ( 35476 PWs)   bands (ev):

   -38.0498 -37.8143 -23.1841 -22.4911 -22.4727 -22.3593 -18.6314 -18.6057
   -18.4081 -18.3899 -18.1314 -17.8595 -14.4664 -14.4486 -14.3006 -14.2471
   -14.2101 -14.2043 -14.0904 -13.9502 -13.8936 -13.7152 -13.6807 -13.6034
   -13.5991 -13.5523 -13.4748  -9.2038  -8.8841  -8.6853  -8.6674  -8.5923
    -8.4977  -8.3963  -8.3798  -8.1800  -7.9333  -7.9098  -7.8492  -4.1481
    -4.0060  -3.5644  -3.2912  -3.1436  -2.6916  -2.6863  -2.4757  -2.3208
    -2.2949  -2.2665  -2.1704  -2.0236  -1.8029  -1.7989  -1.7698  -1.6986
    -1.5768  -1.2788  -0.9836  -0.9441  -0.9325  -0.8815  -0.8026  -0.7003
    -0.6873  -0.6181  -0.5406  -0.4686  -0.4641  -0.3826  -0.3815  -0.2584
    -0.0769   0.1748   0.1776   0.4209   0.6680   0.7823   0.9277   1.1292
     1.4102   1.4519   1.5070   1.5587   1.5940   1.6077   1.6148   1.6168
     1.6365   1.6685   1.7445   1.8314   1.8885   1.9008   1.9941   2.0093
     2.0556   2.0754   2.0764   2.1007   2.1132   2.1183   2.1242   2.2030
     2.2688   2.3860   2.5633   2.5977   2.6030   2.6637   2.7061   2.7107
     3.0349   3.0494   4.4824   4.8160   4.8825   4.9019   4.9671   4.9785
     5.8474   5.8544   6.3761   6.6835   7.6440   7.7140   8.4410   8.5171
     8.6344   8.7862   8.9945   9.0252   9.2420   9.3280   9.3338   9.3977
     9.5580   9.6360

     the Fermi energy is     3.0088 ev

!    total energy              =   -1868.80051401 Ry
     Harris-Foulkes estimate   =   -1868.80051384 Ry
     estimated scf accuracy    <       0.00000058 Ry

     The total energy is the sum of the following terms:

     one-electron contribution =  -29635.75147189 Ry
     hartree contribution      =   14972.34605862 Ry
     xc contribution           =    -642.21746477 Ry
     ewald contribution        =   13436.83089664 Ry
     smearing contrib. (-TS)   =      -0.00853261 Ry

     convergence has been achieved in  34 iterations

     negative rho (up, down):  9.048E-02 0.000E+00

     Forces acting on atoms (cartesian axes, Ry/au):

     atom    1 type  3   force =     0.00000000    0.00000000    0.00004347
     atom    2 type  2   force =     0.00000000    0.00000000    0.00102440
     atom    3 type  3   force =     0.00000000    0.00000000   -0.00006634
     atom    4 type  1   force =     0.00000000    0.00000000   -0.00013801
     atom    5 type  2   force =     0.00000000    0.00000000   -0.00070337
     atom    6 type  3   force =     0.00000000    0.00000000    0.00015434
     atom    7 type  3   force =     0.00000000    0.00000000   -0.00001965
     atom    8 type  4   force =     0.00000000    0.00000000   -0.00033097
     atom    9 type  3   force =     0.00000000    0.00000000    0.00049677
     atom   10 type  3   force =     0.00000000    0.00000000    0.00080759
     atom   11 type  2   force =     0.00000000    0.00000000   -0.00140145
     atom   12 type  1   force =     0.00000000    0.00000000   -0.00284338
     atom   13 type  3   force =     0.00000000    0.00000000    0.00191605
     atom   14 type  3   force =     0.00000000    0.00000000    0.01006282
     atom   15 type  2   force =     0.00000000    0.00000000   -0.00495426
     atom   16 type  3   force =     0.00000000    0.00000000    0.01338691
     atom   17 type  1   force =     0.00000000    0.00000000   -0.00480727
     atom   18 type  2   force =     0.00000000    0.00000000    0.00786589
     atom   19 type  3   force =     0.00000000    0.00000000    0.00508422
     atom   20 type  3   force =     0.00000000    0.00000000    0.00052210
     atom   21 type  4   force =     0.00000000    0.00000000   -0.03300641
     atom   22 type  3   force =     0.00000000    0.00000000    0.00250493
     atom   23 type  3   force =     0.00000000    0.00000000    0.00376909
     atom   24 type  2   force =     0.00000000    0.00000000    0.00215012
     atom   25 type  1   force =     0.00000000    0.00000000   -0.00108918
     atom   26 type  3   force =     0.00000000    0.00000000    0.00127401
     atom   27 type  2   force =     0.00000000    0.00000000   -0.00210723
     atom   28 type  3   force =     0.00000000    0.00000000    0.00040482

     Total force =     0.039426     Total SCF correction =     0.003792

     Computing stress (Cartesian axis) and pressure

     negative rho (up, down):  9.048E-02 0.000E+00
          total   stress  (Ry/bohr**3)                   (kbar)     P=       -6.76
  -0.00006407   0.00000000   0.00000000           -9.42        0.00        0.00
   0.00000000  -0.00003676   0.00000000            0.00       -5.41        0.00
   0.00000000   0.00000000  -0.00003705            0.00        0.00       -5.45

     General routines

     Parallel routines

   This run was terminated on:  17:21:15   5May2021

   JOB DONE.
[1620249675.449610] [holy7c06405:204753:0]          mpool.c:43   UCX  WARN  object 0x3ff7300 was not returned to mpool ucp_requests
[1620249675.449626] [holy7c06405:204753:0]          mpool.c:43   UCX  WARN  object 0x3ff7680 was not returned to mpool ucp_requests
[1620249675.447946] [holy7c06410:259517:0]          mpool.c:43   UCX  WARN  object 0x2f21480 was not returned to mpool ucp_requests
[1620249675.453154] [holy7c06501:192859:0]          mpool.c:43   UCX  WARN  object 0x46e2f40 was not returned to mpool ucp_requests
[1620249675.456828] [holy7c06503:230195:0]          mpool.c:43   UCX  WARN  object 0x2fafe00 was not returned to mpool ucp_requests
[1620249675.453277] [holy7c06304:12846:0]          mpool.c:43   UCX  WARN  object 0x3cda9c0 was not returned to mpool ucp_requests
[1620249675.455592] [holy7c06305:4155 :0]          mpool.c:43   UCX  WARN  object 0x35f2040 was not returned to mpool ucp_requests
[1620249675.459104] [holy7c06411:148535:0]          mpool.c:43   UCX  WARN  object 0x2d91d80 was not returned to mpool ucp_requests
[1620249675.459126] [holy7c06411:148535:0]          mpool.c:43   UCX  WARN  object 0x2d92800 was not returned to mpool ucp_requests