     Program PWSCF v.6.5 starts on  5May2021 at 17:23:49

     R & G space division:  proc/nbgrp/npool/nimage =      20
     Reading input from YBCO_Y_cleave_2.5_sep_scf.pwi
Warning: card &IONS ignored
Warning: card     ION_DYNAMICS = 'BFGS' ignored
Warning: card / ignored
Warning: card &CELL ignored
Warning: card     CELL_DYNAMICS = 'BFGS' ignored
Warning: card / ignored

     Current dimensions of program PWSCF are:
     Max number of different atomic species (ntypx) = 10
     Max number of k-points (npk) =  40000
     Max angular momentum in pseudopotentials (lmaxx) =  3

     Message from routine setup:
     using ibrav=0 with symmetry is DISCOURAGED, use correct ibrav instead

     bravais-lattice index     =            0
     lattice parameter (alat)  =       7.3477  a.u.
     unit-cell volume          =    4605.5967 (a.u.)^3
     number of atoms/cell      =           28
     number of atomic types    =            4
     number of electrons       =       229.00
     number of Kohn-Sham states=          138
     kinetic-energy cutoff     =      60.0000  Ry
     charge density cutoff     =     720.0000  Ry
     convergence threshold     =      1.0E-06
     mixing beta               =       0.2000
     number of iterations used =           10  local-TF  mixing
     Exchange-correlation= SLA PW PBE PBE
                           (   1   4   3   4   0   0   0)

     celldm(1)=   7.347715  celldm(2)=   0.000000  celldm(3)=   0.000000
     celldm(4)=   0.000000  celldm(5)=   0.000000  celldm(6)=   0.000000

     crystal axes: (cart. coord. in units of alat)
               a(1) = (   1.000000   0.000000   0.000000 )
               a(2) = (   0.000000   0.975577   0.000000 )
               a(3) = (   0.000000   0.000000  11.900557 )

     reciprocal axes: (cart. coord. in units 2 pi/alat)
               b(1) = (  1.000000  0.000000  0.000000 )
               b(2) = (  0.000000  1.025034  0.000000 )
               b(3) = (  0.000000  0.000000  0.084030 )

     PseudoPot. # 1 for Ba read from file:
     /n/holyscratch01/hoffman_lab/ruizhe/YBCO_Project/pseudo/Ba.pbe-nsp-van.UPF
     MD5 check sum: 2b9c31dd849566dd297d80989662b7a0
     Pseudo is Ultrasoft + core correction, Zval = 10.0
     Generated by new atomic code, or converted to UPF format
     Using radial grid of  907 points,  6 beta functions with:
                l(1) =   0
                l(2) =   0
                l(3) =   1
                l(4) =   1
                l(5) =   2
                l(6) =   2
     Q(r) pseudized with  6 coefficients,  rinner =    1.200   1.200   1.200
                                                       1.200   1.200

     PseudoPot. # 2 for Cu read from file:
     /n/holyscratch01/hoffman_lab/ruizhe/YBCO_Project/pseudo/Cu.pbe-n-van_ak.UPF
     MD5 check sum: 34e3282627ffb533726feb647e090d62
     Pseudo is Ultrasoft + core correction, Zval = 11.0
     Generated by new atomic code, or converted to UPF format
     Using radial grid of  867 points,  6 beta functions with:
                l(1) =   0
                l(2) =   0
                l(3) =   1
                l(4) =   1
                l(5) =   2
                l(6) =   2
     Q(r) pseudized with  8 coefficients,  rinner =    1.400   1.400   1.400
                                                       1.400   1.400

     PseudoPot. # 3 for O  read from file:
     /n/holyscratch01/hoffman_lab/ruizhe/YBCO_Project/pseudo/O.pbe-van_ak.UPF
     MD5 check sum: 783ce7fe4c79b6a4916957118fed0856
     Pseudo is Ultrasoft, Zval =  6.0
     Generated by new atomic code, or converted to UPF format
     Using radial grid of  737 points,  4 beta functions with:
                l(1) =   0
                l(2) =   0
                l(3) =   1
                l(4) =   1
     Q(r) pseudized with  8 coefficients,  rinner =    0.800   0.800   0.800

     PseudoPot. # 4 for Y  read from file:
     /n/holyscratch01/hoffman_lab/ruizhe/YBCO_Project/pseudo/Y.pbe-nsp-van.UPF
     MD5 check sum: 4412fed3ab108fed87a1b7d6a69a4a38
     Pseudo is Ultrasoft + core correction, Zval = 11.0
     Generated by new atomic code, or converted to UPF format
     Using radial grid of  885 points,  6 beta functions with:
                l(1) =   0
                l(2) =   0
                l(3) =   1
                l(4) =   1
                l(5) =   2
                l(6) =   2
     Q(r) pseudized with  6 coefficients,  rinner =    1.200   1.200   1.200
                                                       1.200   1.200

     atomic species   valence    mass     pseudopotential
        Ba            10.00   137.32700     Ba( 1.00)
        Cu            11.00    63.54600     Cu( 1.00)
        O              6.00    15.99900     O ( 1.00)
        Y             11.00    88.90584     Y ( 1.00)

      4 Sym. Ops. (no inversion) found

   Cartesian axes

     site n.     atom                  positions (alat units)
         1           O   tau(   1) = (   0.0000000   0.4877884  -0.0257983  )
         2           Cu  tau(   2) = (   0.0000000   0.0000000   0.0215779  )
         3           O   tau(   3) = (   0.0000000   0.0000000   0.5073114  )
         4           Ba  tau(   4) = (   0.4999996   0.4877884   0.5319677  )
         5           Cu  tau(   5) = (   0.0000000   0.0000000   1.0495845  )
         6           O   tau(   6) = (   0.4999996   0.0000000   1.1181579  )
         7           O   tau(   7) = (   0.0000000   0.4877884   1.1273137  )
         8           Y   tau(   8) = (   0.4999996   0.4877884   1.4938777  )
         9           O   tau(   9) = (   0.0000000   0.4877884   1.8497402  )
        10           O   tau(  10) = (   0.4999996   0.0000000   1.8692709  )
        11           Cu  tau(  11) = (   0.0000000   0.0000000   1.9417560  )
        12           Ba  tau(  12) = (   0.4999996   0.4877884   2.4526063  )
        13           O   tau(  13) = (   0.0000000   0.0000000   2.5103470  )
        14           O   tau(  14) = (   0.0000000   0.4877884   2.9968469  )
        15           Cu  tau(  15) = (   0.0000000   0.0000000   2.9968521  )
        16           O   tau(  16) = (   0.0000000   0.0000000   3.4833288  )
        17           Ba  tau(  17) = (   0.4999996   0.4877884   3.5410618  )
        18           Cu  tau(  18) = (   0.0000000   0.0000000   4.0519352  )
        19           O   tau(  19) = (   0.4999996   0.0000000   4.1244075  )
        20           O   tau(  20) = (   0.0000000   0.4877884   4.1439202  )
        21           Y   tau(  21) = (   0.4999996   0.4877884   4.4997853  )
        22           O   tau(  22) = (   0.0000000   0.4877884   5.5093131  )
        23           O   tau(  23) = (   0.4999996   0.0000000   5.5184818  )
        24           Cu  tau(  24) = (   0.0000000   0.0000000   5.5870603  )
        25           Ba  tau(  25) = (   0.4999996   0.4877884   6.1046617  )
        26           O   tau(  26) = (   0.0000000   0.0000000   6.1293180  )
        27           Cu  tau(  27) = (   0.0000000   0.0000000   6.6150232  )
        28           O   tau(  28) = (   0.0000000   0.4877884   6.6624045  )

     number of k points=    25  Gaussian smearing, width (Ry)=  0.0100
                       cart. coord. in units 2pi/alat
        k(    1) = (   0.0000000   0.0000000   0.0000000), wk =   0.0312500
        k(    2) = (   0.0000000   0.1281293   0.0000000), wk =   0.0625000
        k(    3) = (   0.0000000   0.2562585   0.0000000), wk =   0.0625000
        k(    4) = (   0.0000000   0.3843878   0.0000000), wk =   0.0625000
        k(    5) = (   0.0000000  -0.5125170   0.0000000), wk =   0.0312500
        k(    6) = (   0.1250000   0.0000000   0.0000000), wk =   0.0625000
        k(    7) = (   0.1250000   0.1281293   0.0000000), wk =   0.1250000
        k(    8) = (   0.1250000   0.2562585   0.0000000), wk =   0.1250000
        k(    9) = (   0.1250000   0.3843878   0.0000000), wk =   0.1250000
        k(   10) = (   0.1250000  -0.5125170   0.0000000), wk =   0.0625000
        k(   11) = (   0.2500000   0.0000000   0.0000000), wk =   0.0625000
        k(   12) = (   0.2500000   0.1281293   0.0000000), wk =   0.1250000
        k(   13) = (   0.2500000   0.2562585   0.0000000), wk =   0.1250000
        k(   14) = (   0.2500000   0.3843878   0.0000000), wk =   0.1250000
        k(   15) = (   0.2500000  -0.5125170   0.0000000), wk =   0.0625000
        k(   16) = (   0.3750000   0.0000000   0.0000000), wk =   0.0625000
        k(   17) = (   0.3750000   0.1281293   0.0000000), wk =   0.1250000
        k(   18) = (   0.3750000   0.2562585   0.0000000), wk =   0.1250000
        k(   19) = (   0.3750000   0.3843878   0.0000000), wk =   0.1250000
        k(   20) = (   0.3750000  -0.5125170   0.0000000), wk =   0.0625000
        k(   21) = (  -0.5000000   0.0000000   0.0000000), wk =   0.0312500
        k(   22) = (  -0.5000000   0.1281293   0.0000000), wk =   0.0625000
        k(   23) = (  -0.5000000   0.2562585   0.0000000), wk =   0.0625000
        k(   24) = (  -0.5000000   0.3843878   0.0000000), wk =   0.0625000
        k(   25) = (  -0.5000000  -0.5125170   0.0000000), wk =   0.0312500

     Initial potential from superposition of free atoms

     starting charge  228.84827, renormalised to  229.00000

     negative rho (up, down):  8.981E-02 0.000E+00
     Starting wfcs are  201 randomized atomic wfcs

     Self-consistent Calculation

     iteration #  1     ecut=    60.00 Ry     beta= 0.20
     Davidson diagonalization with overlap
     ethr =  1.00E-02,  avg # of iterations =  2.0

     negative rho (up, down):  8.744E-02 0.000E+00

     total energy              =   -1869.44337799 Ry
     Harris-Foulkes estimate   =   -1871.02704528 Ry
     estimated scf accuracy    <      14.45466430 Ry

[...]

     iteration # 21     ecut=    60.00 Ry     beta= 0.20
     Davidson diagonalization with overlap
     c_bands:  1 eigenvalues not converged
     ethr =  3.85E-06,  avg # of iterations =  5.6

[...]

     iteration # 23     ecut=    60.00 Ry     beta= 0.20
     Davidson diagonalization with overlap
     c_bands:  1 eigenvalues not converged
     ethr =  1.27E-06,  avg # of iterations =  7.7

[...]

     total energy              =   -1868.43348282 Ry
     Harris-Foulkes estimate   =   -1868.43348340 Ry
     estimated scf accuracy    <       0.00000324 Ry

     iteration # 35     ecut=    60.00 Ry     beta= 0.20
     Davidson diagonalization with overlap
     ethr =  1.42E-09,  avg # of iterations =  1.2

[...]

     End of self-consistent calculation

          k = 0.0000 0.0000 0.0000 ( 36065 PWs)   bands (ev):

   -41.2102 -38.1398 -23.1172 -22.7957 -22.6589 -22.4654 -21.3253 -21.0864
   -21.0791 -18.6747 -18.1445 -18.1347 -16.2910 -15.4705 -15.3622 -14.6244
   -14.5102 -14.4095 -14.2793 -14.2559 -14.2238 -13.9944 -13.7773 -13.7347
   -13.6947 -13.4929 -13.1226  -8.4334  -8.0501  -8.0409  -8.0169  -7.9303
    -7.7879  -7.7612  -7.6127  -7.5942  -7.5940  -7.4911  -7.4573  -3.0598
    -3.0353  -2.5988  -2.0991  -2.0658  -2.0596  -1.9187  -1.8779  -1.8579
    -1.8112  -1.7341  -1.6532  -0.9267  -0.9094  -0.8874  -0.8423  -0.7862
    -0.5643  -0.5187  -0.4765  -0.4611  -0.4021  -0.3170  -0.1556  -0.1257
    -0.0881  -0.0515  -0.0342  -0.0059   0.0049   0.0968   0.1137   0.1206
     0.1275   0.2080   0.2647   0.2715   0.3785   0.3831   0.3892   0.4501
     0.4982   0.5131   0.5267   0.5284   0.5488   0.5750   0.5926   0.6313
     0.6431   0.6989   0.7304   0.8938   1.0565   1.0822   1.2127   1.2650
     1.2687   1.3354   1.3469   1.4263   1.4547   1.4683   1.4849   1.6634
     1.8808   1.9103   1.9669   2.0432   2.0496   2.0607   2.1653   2.1866
     2.2510   2.3492   2.3826   2.4104   2.5793   2.6325   2.6526   2.7556
     4.2702   5.0394   5.2542   5.4078   5.6510   5.6989   5.9981   6.5358
     6.5628   6.6611   6.8430   6.9542   6.9994   7.3946   7.8268   8.1417
     8.1583   8.1696

[...]

          k = 0.3750-0.5125 0.0000 ( 36266 PWs)   bands (ev):

[...]

          k =-0.5000 0.0000 0.0000 ( 36146 PWs)   bands (ev):

[...]

          k =-0.5000-0.5125 0.0000 ( 36252 PWs)   bands (ev):

   -41.1895 -38.1119 -22.8825 -22.5536 -22.4232 -22.2188 -21.3561 -21.3331
   -21.1577 -18.6939 -18.6679 -18.1935 -15.5826 -15.5494 -14.5279 -14.5114
   -14.2712 -14.2474 -14.1009 -14.0110 -13.9856 -13.9565 -13.7243 -13.6592
   -13.6377 -13.5784 -13.4357  -9.0146  -8.7476  -8.7368  -8.5649  -8.4790
    -8.4585  -8.4445  -8.2324  -8.1677  -7.9952  -7.9018  -7.5678  -4.8743
    -4.2109  -3.6283  -3.2434  -3.1991  -3.0267  -2.8582  -2.7461  -2.7094
    -2.5360  -2.3556  -2.2342  -2.0774  -2.0407  -1.8633  -1.8353  -1.8293
    -1.7184  -1.7144  -1.4006  -1.2803  -1.0435  -0.9572  -0.9439  -0.7875
    -0.7684  -0.7608  -0.6828  -0.6039  -0.5241  -0.4946  -0.4891  -0.4045
    -0.3357   0.1174   0.1490   0.2368   0.3870   0.6377   0.7593   0.8199
     0.9998   1.0306   1.0612   1.2289   1.3899   1.4243   1.4505   1.4949
     1.5463   1.5549   1.5774   1.7618   1.8192   1.8280   1.9534   1.9760
     1.9801   2.0141   2.0264   2.0395   2.0576   2.1924   2.2474   2.2918
     2.3556   2.4414   2.5370   2.5431   2.5960   2.6506   2.6867   2.9845
     3.0767   3.3366   3.5004   4.1725   4.2572   4.3446   4.4840   4.7541
     4.8407   5.0509   5.1226   5.5859   5.7872   5.9439   6.6161   7.2576
     8.1284   8.3204   8.3870   8.5309   8.7367   8.7472   9.1759   9.1995
     9.2735   9.2775

     the Fermi energy is     2.9485 ev

!    total energy              =   -1868.43348212 Ry
     Harris-Foulkes estimate   =   -1868.43348293 Ry
     estimated scf accuracy    <       0.00000093 Ry

     The total energy is the sum of the following terms:

     one-electron contribution =  -30405.91894694 Ry
     hartree contribution      =   15355.35816225 Ry
     xc contribution           =    -641.81226928 Ry
     ewald contribution        =   13823.94882707 Ry
     smearing contrib. (-TS)   =      -0.00925522 Ry

     convergence has been achieved in  35 iterations

     negative rho (up, down):  8.984E-02 0.000E+00

     Forces acting on atoms (cartesian axes, Ry/au):

     atom    1 type  3   force =     0.00000000    0.00000000   -0.00009706
     atom    2 type  2   force =     0.00000000    0.00000000    0.00053448
     atom    3 type  3   force =     0.00000000    0.00000000   -0.00006043
     atom    4 type  1   force =     0.00000000    0.00000000   -0.00017346
     atom    5 type  2   force =     0.00000000    0.00000000   -0.00000038
     atom    6 type  3   force =     0.00000000    0.00000000    0.00030258
     atom    7 type  3   force =     0.00000000    0.00000000    0.00005654
     atom    8 type  4   force =     0.00000000    0.00000000   -0.00073923
     atom    9 type  3   force =     0.00000000    0.00000000    0.00090770
     atom   10 type  3   force =     0.00000000    0.00000000    0.00117986
     atom   11 type  2   force =     0.00000000    0.00000000   -0.00150263
     atom   12 type  1   force =     0.00000000    0.00000000   -0.00188580
     atom   13 type  3   force =     0.00000000    0.00000000    0.00255426
     atom   14 type  3   force =     0.00000000    0.00000000    0.00636951
     atom   15 type  2   force =     0.00000000    0.00000000   -0.01052324
     atom   16 type  3   force =     0.00000000    0.00000000    0.02136930
     atom   17 type  1   force =     0.00000000    0.00000000   -0.02494070
     atom   18 type  2   force =     0.00000000    0.00000000    0.00208962
     atom   19 type  3   force =     0.00000000    0.00000000    0.06591282
     atom   20 type  3   force =     0.00000000    0.00000000    0.06800761
     atom   21 type  4   force =     0.00000000    0.00000000   -0.09688547
     atom   22 type  3   force =     0.00000000    0.00000000    0.00763142
     atom   23 type  3   force =     0.00000000    0.00000000    0.01369178
     atom   24 type  2   force =     0.00000000    0.00000000   -0.02056153
     atom   25 type  1   force =     0.00000000    0.00000000   -0.03174585
     atom   26 type  3   force =     0.00000000    0.00000000   -0.00230177
     atom   27 type  2   force =     0.00000000    0.00000000   -0.00342955
     atom   28 type  3   force =     0.00000000    0.00000000    0.00423962

     Total force =     0.146005     Total SCF correction =     0.003813

     Computing stress (Cartesian axis) and pressure

     negative rho (up, down):  8.984E-02 0.000E+00
          total   stress  (Ry/bohr**3)                   (kbar)     P=      -10.80
  -0.00004521   0.00000000   0.00000000           -6.65        0.00        0.00
   0.00000000  -0.00002856   0.00000000            0.00       -4.20        0.00
   0.00000000   0.00000000  -0.00014640            0.00        0.00      -21.54

     General routines

     Parallel routines

   This run was terminated on:  17:34: 7   5May2021

   JOB DONE.
[1620250447.737651] [holy7c12411:8473 :0]          mpool.c:43   UCX  WARN  object 0x3618600 was not returned to mpool ucp_requests
[1620250447.737672] [holy7c12411:8473 :0]          mpool.c:43   UCX  WARN  object 0x36187c0 was not returned to mpool ucp_requests
[1620250447.740515] [holy7c08602:39846:0]          mpool.c:43   UCX  WARN  object 0x2a706c0 was not returned to mpool ucp_requests
[1620250447.735239] [holy7c12505:267143:0]          mpool.c:43   UCX  WARN  object 0x40fc3c0 was not returned to mpool ucp_requests
[1620250447.735257] [holy7c12505:267143:0]          mpool.c:43   UCX  WARN  object 0x40fc580 was not returned to mpool ucp_requests
[1620250447.742785] [holy7c08602:39845:0]          mpool.c:43   UCX  WARN  object 0x2a72700 was not returned to mpool ucp_requests
[1620250447.742802] [holy7c08602:39845:0]          mpool.c:43   UCX  WARN  object 0x2a72c40 was not returned to mpool ucp_requests
[1620250447.738055] [holy7c12411:8471 :0]          mpool.c:43   UCX  WARN  object 0x2eaa680 was not returned to mpool ucp_requests
[1620250447.742036] [holy7c12411:8474 :0]          mpool.c:43   UCX  WARN  object 0x3a80940 was not returned to mpool ucp_requests
[1620250447.739800] [holy7c12407:176924:0]          mpool.c:43   UCX  WARN  object 0x2f01fc0 was not returned to mpool ucp_requests
[1620250447.739833] [holy7c12407:176924:0]          mpool.c:43   UCX  WARN  object 0x2f02180 was not returned to mpool ucp_requests