     Program PWSCF v.6.5 starts on  5May2021 at 17:15: 5

     R & G space division:  proc/nbgrp/npool/nimage =      20
     Reading input from YBCO_CuO_cleave_2.0_sep_scf.pwi
Warning: card &IONS ignored
Warning: card     ION_DYNAMICS = 'BFGS' ignored
Warning: card / ignored
Warning: card &CELL ignored
Warning: card     CELL_DYNAMICS = 'BFGS' ignored
Warning: card / ignored

     Current dimensions of program PWSCF are:
     Max number of different atomic species (ntypx) = 10
     Max number of k-points (npk) =  40000
     Max angular momentum in pseudopotentials (lmaxx) =  3

     Message from routine setup:
     using ibrav=0 with symmetry is DISCOURAGED, use correct ibrav instead

     bravais-lattice index     =            0
     lattice parameter (alat)  =       7.3477  a.u.
     unit-cell volume          =    4555.8304 (a.u.)^3
     number of atoms/cell      =           28
     number of atomic types    =            4
     number of electrons       =       229.00
     number of Kohn-Sham states=          138
     kinetic-energy cutoff     =      60.0000  Ry
     charge density cutoff     =     720.0000  Ry
     convergence threshold     =      1.0E-06
     mixing beta               =       0.2000
     number of iterations used =           10  local-TF  mixing
     Exchange-correlation= SLA PW PBE PBE
                           (   1   4   3   4   0   0   0)

     celldm(1)=   7.347715  celldm(2)=   0.000000  celldm(3)=   0.000000
     celldm(4)=   0.000000  celldm(5)=   0.000000  celldm(6)=   0.000000

     crystal axes: (cart. coord. in units of alat)
               a(1) = (   1.000000   0.000000   0.000000 )
               a(2) = (   0.000000   0.975577   0.000000 )
               a(3) = (   0.000000   0.000000  11.771964 )

     reciprocal axes: (cart. coord. in units 2 pi/alat)
               b(1) = (  1.000000  0.000000  0.000000 )
               b(2) = (  0.000000  1.025034  0.000000 )
               b(3) = (  0.000000  0.000000  0.084948 )

     PseudoPot. # 1 for Ba read from file:
     /n/holyscratch01/hoffman_lab/ruizhe/YBCO_Project/pseudo/Ba.pbe-nsp-van.UPF
     MD5 check sum: 2b9c31dd849566dd297d80989662b7a0
     Pseudo is Ultrasoft + core correction, Zval = 10.0
     Generated by new atomic code, or converted to UPF format
     Using radial grid of  907 points,  6 beta functions with:
                l(1) =   0
                l(2) =   0
                l(3) =   1
                l(4) =   1
                l(5) =   2
                l(6) =   2
     Q(r) pseudized with  6 coefficients,  rinner =    1.200   1.200   1.200
                                                       1.200   1.200

     PseudoPot. # 2 for Cu read from file:
     /n/holyscratch01/hoffman_lab/ruizhe/YBCO_Project/pseudo/Cu.pbe-n-van_ak.UPF
     MD5 check sum: 34e3282627ffb533726feb647e090d62
     Pseudo is Ultrasoft + core correction, Zval = 11.0
     Generated by new atomic code, or converted to UPF format
     Using radial grid of  867 points,  6 beta functions with:
                l(1) =   0
                l(2) =   0
                l(3) =   1
                l(4) =   1
                l(5) =   2
                l(6) =   2
     Q(r) pseudized with  8 coefficients,  rinner =    1.400   1.400   1.400
                                                       1.400   1.400

     PseudoPot. # 3 for O  read from file:
     /n/holyscratch01/hoffman_lab/ruizhe/YBCO_Project/pseudo/O.pbe-van_ak.UPF
     MD5 check sum: 783ce7fe4c79b6a4916957118fed0856
     Pseudo is Ultrasoft, Zval =  6.0
     Generated by new atomic code, or converted to UPF format
     Using radial grid of  737 points,  4 beta functions with:
                l(1) =   0
                l(2) =   0
                l(3) =   1
                l(4) =   1
     Q(r) pseudized with  8 coefficients,  rinner =    0.800   0.800   0.800

     PseudoPot. # 4 for Y  read from file:
     /n/holyscratch01/hoffman_lab/ruizhe/YBCO_Project/pseudo/Y.pbe-nsp-van.UPF
     MD5 check sum: 4412fed3ab108fed87a1b7d6a69a4a38
     Pseudo is Ultrasoft + core correction, Zval = 11.0
     Generated by new atomic code, or converted to UPF format
     Using radial grid of  885 points,  6 beta functions with:
                l(1) =   0
                l(2) =   0
                l(3) =   1
                l(4) =   1
                l(5) =   2
                l(6) =   2
     Q(r) pseudized with  6 coefficients,  rinner =    1.200   1.200   1.200
                                                       1.200   1.200

     atomic species   valence    mass     pseudopotential
        Ba            10.00   137.32700     Ba( 1.00)
        Cu            11.00    63.54600     Cu( 1.00)
        O              6.00    15.99900     O ( 1.00)
        Y             11.00    88.90584     Y ( 1.00)

      4 Sym. Ops. (no inversion) found

   Cartesian axes

     site n.     atom                  positions (alat units)
         1           O   tau(   1) = (   0.0000000   0.4877884  -0.0257983  )
         2           Cu  tau(   2) = (   0.0000000   0.0000000   0.0215779  )
         3           O   tau(   3) = (   0.0000000   0.0000000   0.5073114  )
         4           Ba  tau(   4) = (   0.4999996   0.4877884   0.5319677  )
         5           Cu  tau(   5) = (   0.0000000   0.0000000   1.0495845  )
         6           O   tau(   6) = (   0.4999996   0.0000000   1.1181579  )
         7           O   tau(   7) = (   0.0000000   0.4877884   1.1273137  )
         8           Y   tau(   8) = (   0.4999996   0.4877884   1.4938777  )
         9           O   tau(   9) = (   0.0000000   0.4877884   1.8497402  )
        10           O   tau(  10) = (   0.4999996   0.0000000   1.8692709  )
        11           Cu  tau(  11) = (   0.0000000   0.0000000   1.9417560  )
        12           Ba  tau(  12) = (   0.4999996   0.4877884   2.4526063  )
        13           O   tau(  13) = (   0.0000000   0.0000000   2.5103470  )
        14           O   tau(  14) = (   0.0000000   0.4877884   2.9968469  )
        15           Cu  tau(  15) = (   0.0000000   0.0000000   2.9968521  )
        16           O   tau(  16) = (   0.0000000   0.0000000   3.9976999  )
        17           Ba  tau(  17) = (   0.4999996   0.4877884   4.0554329  )
        18           Cu  tau(  18) = (   0.0000000   0.0000000   4.5663063  )
        19           O   tau(  19) = (   0.4999996   0.0000000   4.6387786  )
        20           O   tau(  20) = (   0.0000000   0.4877884   4.6582913  )
        21           Y   tau(  21) = (   0.4999996   0.4877884   5.0141564  )
        22           O   tau(  22) = (   0.0000000   0.4877884   5.3807203  )
        23           O   tau(  23) = (   0.4999996   0.0000000   5.3898890  )
        24           Cu  tau(  24) = (   0.0000000   0.0000000   5.4584675  )
        25           Ba  tau(  25) = (   0.4999996   0.4877884   5.9760689  )
        26           O   tau(  26) = (   0.0000000   0.0000000   6.0007253  )
        27           Cu  tau(  27) = (   0.0000000   0.0000000   6.4864305  )
        28           O   tau(  28) = (   0.0000000   0.4877884   6.5338118  )

     number of k points=    25  Gaussian smearing, width (Ry)=  0.0100
                       cart. coord. in units 2pi/alat
        k(    1) = (   0.0000000   0.0000000   0.0000000), wk =   0.0312500
        k(    2) = (   0.0000000   0.1281293   0.0000000), wk =   0.0625000
        k(    3) = (   0.0000000   0.2562585   0.0000000), wk =   0.0625000
        k(    4) = (   0.0000000   0.3843878   0.0000000), wk =   0.0625000
        k(    5) = (   0.0000000  -0.5125170   0.0000000), wk =   0.0312500
        k(    6) = (   0.1250000   0.0000000   0.0000000), wk =   0.0625000
        k(    7) = (   0.1250000   0.1281293   0.0000000), wk =   0.1250000
        k(    8) = (   0.1250000   0.2562585   0.0000000), wk =   0.1250000
        k(    9) = (   0.1250000   0.3843878   0.0000000), wk =   0.1250000
        k(   10) = (   0.1250000  -0.5125170   0.0000000), wk =   0.0625000
        k(   11) = (   0.2500000   0.0000000   0.0000000), wk =   0.0625000
        k(   12) = (   0.2500000   0.1281293   0.0000000), wk =   0.1250000
        k(   13) = (   0.2500000   0.2562585   0.0000000), wk =   0.1250000
        k(   14) = (   0.2500000   0.3843878   0.0000000), wk =   0.1250000
        k(   15) = (   0.2500000  -0.5125170   0.0000000), wk =   0.0625000
        k(   16) = (   0.3750000   0.0000000   0.0000000), wk =   0.0625000
        k(   17) = (   0.3750000   0.1281293   0.0000000), wk =   0.1250000
        k(   18) = (   0.3750000   0.2562585   0.0000000), wk =   0.1250000
        k(   19) = (   0.3750000   0.3843878   0.0000000), wk =   0.1250000
        k(   20) = (   0.3750000  -0.5125170   0.0000000), wk =   0.0625000
        k(   21) = (  -0.5000000   0.0000000   0.0000000), wk =   0.0312500
        k(   22) = (  -0.5000000   0.1281293   0.0000000), wk =   0.0625000
        k(   23) = (  -0.5000000   0.2562585   0.0000000), wk =   0.0625000
        k(   24) = (  -0.5000000   0.3843878   0.0000000), wk =   0.0625000
        k(   25) = (  -0.5000000  -0.5125170   0.0000000), wk =   0.0312500

     Initial potential from superposition of free atoms

     starting charge  228.84827, renormalised to  229.00000

     negative rho (up, down):  8.959E-02 0.000E+00
     Starting wfcs are  201 randomized atomic wfcs

     Self-consistent Calculation

     iteration #  1     ecut=    60.00 Ry     beta= 0.20
     Davidson diagonalization with overlap
     ethr =  1.00E-02,  avg # of iterations =  2.0

     negative rho (up, down):  8.739E-02 0.000E+00

     total energy              =   -1869.49975233 Ry
     Harris-Foulkes estimate   =   -1871.07770986 Ry
     estimated scf accuracy    <      13.23629623 Ry

[...]

     iteration # 30     ecut=    60.00 Ry     beta= 0.20
     Davidson diagonalization with overlap
     c_bands:  1 eigenvalues not converged
     ethr =  4.76E-08,  avg # of iterations =  5.5

[...]

     iteration # 32     ecut=    60.00 Ry     beta= 0.20
     Davidson diagonalization with overlap
     c_bands:  1 eigenvalues not converged
     ethr =  1.05E-08,  avg # of iterations =  5.4

[...]

     total energy              =   -1868.73090958 Ry
     Harris-Foulkes estimate   =   -1868.73090967 Ry
     estimated scf accuracy    <       0.00000100 Ry

     iteration # 36     ecut=    60.00 Ry     beta= 0.20
     Davidson diagonalization with overlap
     ethr =  4.37E-10,  avg # of iterations =  1.4

[...]

     End of self-consistent calculation

          k = 0.0000 0.0000 0.0000 ( 35655 PWs)   bands (ev):

   -38.2664 -38.1932 -22.8963 -22.8852 -22.7340 -22.7167 -18.7993 -18.7342
   -18.2717 -18.2628 -18.1994 -18.1864 -15.5904 -15.5416 -14.6327 -14.5802
   -14.3802 -14.3763 -14.3714 -14.3277 -14.2841 -14.1147 -14.0625 -13.8779
   -13.8662 -13.6212 -12.3507  -8.1169  -8.1084  -8.0611  -7.9504  -7.8884
    -7.8778  -7.8616  -7.8512  -7.7066  -7.6836  -7.5955  -7.5168  -2.2218
    -2.1912  -2.1718  -2.1441  -2.0509  -1.9979  -1.9787  -1.9700  -1.9346
    -1.8973  -1.8583  -1.8066  -1.6729  -1.0268  -0.9673  -0.5764  -0.5609
    -0.5166  -0.2436  -0.1905  -0.1872  -0.1790  -0.1499  -0.1439   0.0115
     0.0132   0.0503   0.0670   0.0779   0.0885   0.1447   0.1491   0.1727
     0.1820   0.2751   0.2777   0.2810   0.2884   0.2971   0.3770   0.3930
     0.4287   0.4287   0.4411   0.4482   0.4952   0.5423   0.5467   0.5625
     0.8230   0.9881   1.0295   1.0869   1.0977   1.1367   1.1679   1.2061
     1.2320   1.2454   1.2629   1.3508   1.3525   1.3696   1.3786   1.3824
     1.4239   1.8053   1.8443   1.8663   1.8732   1.9631   2.0658   2.0721
     2.1612   2.3696   2.5106   2.5566   2.5929   2.6378   2.6747   5.0292
     5.1743   5.2220   5.7560   5.8556   6.5405   6.5642   6.6752   6.8365
     7.2371   7.3347   8.0279   8.0476   8.0977   8.1826   8.3448   8.4672
     8.5489   8.6014

[...]

          k = 0.3750-0.5125 0.0000 ( 35878 PWs)   bands (ev):

[...]

          k =-0.5000 0.0000 0.0000 ( 35718 PWs)   bands (ev):

[...]

          k =-0.5000-0.5125 0.0000 ( 35908 PWs)   bands (ev):

   -38.2385 -38.1653 -22.6542 -22.6430 -22.5059 -22.4957 -18.8221 -18.7946
   -18.7472 -18.7265 -18.3186 -18.2506 -14.6449 -14.6347 -14.6094 -14.5721
   -14.3693 -14.3680 -14.1331 -14.0908 -14.0798 -14.0523 -14.0122 -13.7616
   -13.7440 -13.6954 -12.4658  -8.8480  -8.8377  -8.6575  -8.5590  -8.5483
    -8.4260  -8.3593  -8.3086  -8.0959  -8.0838  -7.9706  -7.9537  -4.3347
    -4.2742  -3.7509  -3.6741  -2.8487  -2.8455  -2.8318  -2.6490  -2.6041
    -2.4600  -2.4484  -2.3694  -2.3282  -1.9615  -1.9603  -1.9387  -1.8906
    -1.6458  -1.1877  -1.1449  -1.0672  -1.0205  -0.9315  -0.8486  -0.8369
    -0.8237  -0.7298  -0.7041  -0.6973  -0.6240  -0.6104  -0.5862   0.0119
     0.0196   0.0293   0.1364   0.3565   0.6534   0.7903   1.0639   1.1261
     1.2696   1.3119   1.3630   1.3792   1.3946   1.4040   1.4142   1.4270
     1.4451   1.5263   1.6177   1.6537   1.6959   1.7128   1.7391   1.8979
     1.9201   1.9257   1.9327   1.9393   1.9438   2.0664   2.1540   2.2267
     2.4420   2.4593   2.5499   2.5644   2.6094   2.6449   2.8444   2.8465
     2.8528   2.9364   3.1952   4.6181   4.6422   4.7305   4.7428   5.6870
     5.6981   5.8836   6.4569   6.5678   8.0117   8.0780   8.2814   8.2826
     8.6027   8.8003   9.0025   9.1102   9.1247   9.1597   9.2854   9.3994
     9.4073   9.5711

     the Fermi energy is     2.8461 ev

!    total energy              =   -1868.73090883 Ry
     Harris-Foulkes estimate   =   -1868.73090960 Ry
     estimated scf accuracy    <       0.00000083 Ry

     The total energy is the sum of the following terms:

     one-electron contribution =  -28459.38991807 Ry
     hartree contribution      =   14383.25492920 Ry
     xc contribution           =    -642.19734673 Ry
     ewald contribution        =   12849.61212050 Ry
     smearing contrib. (-TS)   =      -0.01069374 Ry

     convergence has been achieved in  36 iterations

     negative rho (up, down):  9.052E-02 0.000E+00

     Forces acting on atoms (cartesian axes, Ry/au):

     atom    1 type  3   force =     0.00000000    0.00000000   -0.00033263
     atom    2 type  2   force =     0.00000000    0.00000000    0.00246157
     atom    3 type  3   force =     0.00000000    0.00000000    0.00041969
     atom    4 type  1   force =     0.00000000    0.00000000   -0.00012354
     atom    5 type  2   force =     0.00000000    0.00000000   -0.00039270
     atom    6 type  3   force =     0.00000000    0.00000000    0.00139041
     atom    7 type  3   force =     0.00000000    0.00000000    0.00105450
     atom    8 type  4   force =     0.00000000    0.00000000   -0.00269286
     atom    9 type  3   force =     0.00000000    0.00000000    0.00487977
     atom   10 type  3   force =     0.00000000    0.00000000    0.00344380
     atom   11 type  2   force =     0.00000000    0.00000000   -0.00086382
     atom   12 type  1   force =     0.00000000    0.00000000    0.01602085
     atom   13 type  3   force =     0.00000000    0.00000000   -0.01851366
     atom   14 type  3   force =     0.00000000    0.00000000    0.02321563
     atom   15 type  2   force =     0.00000000    0.00000000   -0.01995672
     atom   16 type  3   force =     0.00000000    0.00000000    0.02016551
     atom   17 type  1   force =     0.00000000    0.00000000   -0.01084470
     atom   18 type  2   force =     0.00000000    0.00000000   -0.02471576
     atom   19 type  3   force =     0.00000000    0.00000000    0.00458384
     atom   20 type  3   force =     0.00000000    0.00000000    0.00314643
     atom   21 type  4   force =     0.00000000    0.00000000   -0.00071456
     atom   22 type  3   force =     0.00000000    0.00000000   -0.00043109
     atom   23 type  3   force =     0.00000000    0.00000000    0.00080595
     atom   24 type  2   force =     0.00000000    0.00000000    0.00019529
     atom   25 type  1   force =     0.00000000    0.00000000    0.00009883
     atom   26 type  3   force =     0.00000000    0.00000000   -0.00184131
     atom   27 type  2   force =     0.00000000    0.00000000   -0.00075164
     atom   28 type  3   force =     0.00000000    0.00000000    0.00029293

     Total force =     0.052549     Total SCF correction =     0.006364
     SCF correction compared to forces is large: reduce conv_thr to get better values

     Computing stress (Cartesian axis) and pressure

     negative rho (up, down):  9.052E-02 0.000E+00
          total   stress  (Ry/bohr**3)                   (kbar)     P=       -7.78
  -0.00000684   0.00000000   0.00000000           -1.01        0.00        0.00
   0.00000000  -0.00010895   0.00000000            0.00      -16.03        0.00
   0.00000000   0.00000000  -0.00004297            0.00        0.00       -6.32

     General routines

     Parallel routines

   This run was terminated on:  17:25:44   5May2021

   JOB DONE.
[1620249944.189544] [holy7c12505:265503:0]          mpool.c:43   UCX  WARN  object 0x3bc4bc0 was not returned to mpool ucp_requests
[1620249944.189168] [holy7c12504:221719:0]          mpool.c:43   UCX  WARN  object 0x2909900 was not returned to mpool ucp_requests
[1620249944.189187] [holy7c12504:221719:0]          mpool.c:43   UCX  WARN  object 0x2909c80 was not returned to mpool ucp_requests
[1620249944.191656] [holy7c12411:7195 :0]          mpool.c:43   UCX  WARN  object 0x3ec4140 was not returned to mpool ucp_requests
[1620249944.191682] [holy7c12411:7195 :0]          mpool.c:43   UCX  WARN  object 0x3ec4680 was not returned to mpool ucp_requests
[1620249944.193023] [holy7c12502:171103:0]          mpool.c:43   UCX  WARN  object 0x3122100 was not returned to mpool ucp_requests
[1620249944.193114] [holy7c12404:171075:0]          mpool.c:43   UCX  WARN  object 0x35d3780 was not returned to mpool ucp_requests
[1620249944.195675] [holy7c12506:250649:0]          mpool.c:43   UCX  WARN  object 0x44bedc0 was not returned to mpool ucp_requests
[1620249944.200064] [holy7c12403:221353:0]          mpool.c:43   UCX  WARN  object 0x42fcdc0 was not returned to mpool ucp_requests
[1620249944.200085] [holy7c12403:221353:0]          mpool.c:43   UCX  WARN  object 0x42fcf80 was not returned to mpool ucp_requests