     Program PWSCF v.6.5 starts on  5May2021 at 17:29:20

     R & G space division:  proc/nbgrp/npool/nimage =      20
     Reading input from YBCO_BaO_cleave_5.0_sep_scf.pwi
Warning: card &IONS ignored
Warning: card     ION_DYNAMICS = 'BFGS' ignored
Warning: card / ignored
Warning: card &CELL ignored
Warning: card     CELL_DYNAMICS = 'BFGS' ignored
Warning: card / ignored

     Current dimensions of program PWSCF are:
     Max number of different atomic species (ntypx) = 10
     Max number of k-points (npk) =  40000
     Max angular momentum in pseudopotentials (lmaxx) =  3

     Message from routine setup:
     using ibrav=0 with symmetry is DISCOURAGED, use correct ibrav instead

     bravais-lattice index     =            0
     lattice parameter (alat)  =       7.3477  a.u.
     unit-cell volume          =    4854.4281 (a.u.)^3
     number of atoms/cell      =           28
     number of atomic types    =            4
     number of electrons       =       229.00
     number of Kohn-Sham states=          138
     kinetic-energy cutoff     =      60.0000  Ry
     charge density cutoff     =     720.0000  Ry
     convergence threshold     =      1.0E-06
     mixing beta               =       0.2000
     number of iterations used =           10  local-TF  mixing
     Exchange-correlation= SLA PW PBE PBE
                           (   1   4   3   4   0   0   0)

     celldm(1)=   7.347715  celldm(2)=   0.000000  celldm(3)=   0.000000
     celldm(4)=   0.000000  celldm(5)=   0.000000  celldm(6)=   0.000000

     crystal axes: (cart. coord. in units of alat)
               a(1) = (   1.000000   0.000000   0.000000 )
               a(2) = (   0.000000   0.975577   0.000000 )
               a(3) = (   0.000000   0.000000  12.543521 )

     reciprocal axes: (cart. coord. in units 2 pi/alat)
               b(1) = (  1.000000  0.000000  0.000000 )
               b(2) = (  0.000000  1.025034  0.000000 )
               b(3) = (  0.000000  0.000000  0.079722 )

     PseudoPot. # 1 for Ba read from file:
     /n/holyscratch01/hoffman_lab/ruizhe/YBCO_Project/pseudo/Ba.pbe-nsp-van.UPF
     MD5 check sum: 2b9c31dd849566dd297d80989662b7a0
     Pseudo is Ultrasoft + core correction, Zval = 10.0
     Generated by new atomic code, or converted to UPF format
     Using radial grid of  907 points,  6 beta functions with:
                l(1) =   0
                l(2) =   0
                l(3) =   1
                l(4) =   1
                l(5) =   2
                l(6) =   2
     Q(r) pseudized with  6 coefficients,  rinner =    1.200   1.200   1.200
                                                       1.200   1.200

     PseudoPot. # 2 for Cu read from file:
     /n/holyscratch01/hoffman_lab/ruizhe/YBCO_Project/pseudo/Cu.pbe-n-van_ak.UPF
     MD5 check sum: 34e3282627ffb533726feb647e090d62
     Pseudo is Ultrasoft + core correction, Zval = 11.0
     Generated by new atomic code, or converted to UPF format
     Using radial grid of  867 points,  6 beta functions with:
                l(1) =   0
                l(2) =   0
                l(3) =   1
                l(4) =   1
                l(5) =   2
                l(6) =   2
     Q(r) pseudized with  8 coefficients,  rinner =    1.400   1.400   1.400
                                                       1.400   1.400

     PseudoPot. # 3 for O  read from file:
     /n/holyscratch01/hoffman_lab/ruizhe/YBCO_Project/pseudo/O.pbe-van_ak.UPF
     MD5 check sum: 783ce7fe4c79b6a4916957118fed0856
     Pseudo is Ultrasoft, Zval =  6.0
     Generated by new atomic code, or converted to UPF format
     Using radial grid of  737 points,  4 beta functions with:
                l(1) =   0
                l(2) =   0
                l(3) =   1
                l(4) =   1
     Q(r) pseudized with  8 coefficients,  rinner =    0.800   0.800   0.800

     PseudoPot. # 4 for Y  read from file:
     /n/holyscratch01/hoffman_lab/ruizhe/YBCO_Project/pseudo/Y.pbe-nsp-van.UPF
     MD5 check sum: 4412fed3ab108fed87a1b7d6a69a4a38
     Pseudo is Ultrasoft + core correction, Zval = 11.0
     Generated by new atomic code, or converted to UPF format
     Using radial grid of  885 points,  6 beta functions with:
                l(1) =   0
                l(2) =   0
                l(3) =   1
                l(4) =   1
                l(5) =   2
                l(6) =   2
     Q(r) pseudized with  6 coefficients,  rinner =    1.200   1.200   1.200
                                                       1.200   1.200

     atomic species   valence    mass     pseudopotential
        Ba            10.00   137.32700     Ba( 1.00)
        Cu            11.00    63.54600     Cu( 1.00)
        O              6.00    15.99900     O ( 1.00)
        Y             11.00    88.90584     Y ( 1.00)

      4 Sym. Ops. (no inversion) found

   Cartesian axes

     site n.     atom                  positions (alat units)
         1           O   tau(   1) = (   0.0000000   0.4877884  -0.0257983  )
         2           Cu  tau(   2) = (   0.0000000   0.0000000   0.0215779  )
         3           O   tau(   3) = (   0.0000000   0.0000000   0.5073114  )
         4           Ba  tau(   4) = (   0.4999996   0.4877884   0.5319677  )
         5           Cu  tau(   5) = (   0.0000000   0.0000000   1.0495845  )
         6           O   tau(   6) = (   0.4999996   0.0000000   1.1181579  )
         7           O   tau(   7) = (   0.0000000   0.4877884   1.1273137  )
         8           Y   tau(   8) = (   0.4999996   0.4877884   1.4938777  )
         9           O   tau(   9) = (   0.0000000   0.4877884   1.8497402  )
        10           O   tau(  10) = (   0.4999996   0.0000000   1.8692709  )
        11           Cu  tau(  11) = (   0.0000000   0.0000000   1.9417560  )
        12           Ba  tau(  12) = (   0.4999996   0.4877884   2.4526063  )
        13           O   tau(  13) = (   0.0000000   0.0000000   2.5103470  )
        14           O   tau(  14) = (   0.0000000   0.4877884   2.9968469  )
        15           Cu  tau(  15) = (   0.0000000   0.0000000   2.9968521  )
        16           O   tau(  16) = (   0.0000000   0.0000000   3.4833288  )
        17           Ba  tau(  17) = (   0.4999996   0.4877884   3.5410618  )
        18           Cu  tau(  18) = (   0.0000000   0.0000000   5.3378629  )
        19           O   tau(  19) = (   0.4999996   0.0000000   5.4103353  )
        20           O   tau(  20) = (   0.0000000   0.4877884   5.4298479  )
        21           Y   tau(  21) = (   0.4999996   0.4877884   5.7857130  )
        22           O   tau(  22) = (   0.0000000   0.4877884   6.1522770  )
        23           O   tau(  23) = (   0.4999996   0.0000000   6.1614457  )
        24           Cu  tau(  24) = (   0.0000000   0.0000000   6.2300242  )
        25           Ba  tau(  25) = (   0.4999996   0.4877884   6.7476255  )
        26           O   tau(  26) = (   0.0000000   0.0000000   6.7722819  )
        27           Cu  tau(  27) = (   0.0000000   0.0000000   7.2579871  )
        28           O   tau(  28) = (   0.0000000   0.4877884   7.3053684  )

     number of k points=    25  Gaussian smearing, width (Ry)=  0.0100
                       cart. coord. in units 2pi/alat
        k(    1) = (   0.0000000   0.0000000   0.0000000), wk =   0.0312500
        k(    2) = (   0.0000000   0.1281293   0.0000000), wk =   0.0625000
        k(    3) = (   0.0000000   0.2562585   0.0000000), wk =   0.0625000
        k(    4) = (   0.0000000   0.3843878   0.0000000), wk =   0.0625000
        k(    5) = (   0.0000000  -0.5125170   0.0000000), wk =   0.0312500
        k(    6) = (   0.1250000   0.0000000   0.0000000), wk =   0.0625000
        k(    7) = (   0.1250000   0.1281293   0.0000000), wk =   0.1250000
        k(    8) = (   0.1250000   0.2562585   0.0000000), wk =   0.1250000
        k(    9) = (   0.1250000   0.3843878   0.0000000), wk =   0.1250000
        k(   10) = (   0.1250000  -0.5125170   0.0000000), wk =   0.0625000
        k(   11) = (   0.2500000   0.0000000   0.0000000), wk =   0.0625000
        k(   12) = (   0.2500000   0.1281293   0.0000000), wk =   0.1250000
        k(   13) = (   0.2500000   0.2562585   0.0000000), wk =   0.1250000
        k(   14) = (   0.2500000   0.3843878   0.0000000), wk =   0.1250000
        k(   15) = (   0.2500000  -0.5125170   0.0000000), wk =   0.0625000
        k(   16) = (   0.3750000   0.0000000   0.0000000), wk =   0.0625000
        k(   17) = (   0.3750000   0.1281293   0.0000000), wk =   0.1250000
        k(   18) = (   0.3750000   0.2562585   0.0000000), wk =   0.1250000
        k(   19) = (   0.3750000   0.3843878   0.0000000), wk =   0.1250000
        k(   20) = (   0.3750000  -0.5125170   0.0000000), wk =   0.0625000
        k(   21) = (  -0.5000000   0.0000000   0.0000000), wk =   0.0312500
        k(   22) = (  -0.5000000   0.1281293   0.0000000), wk =   0.0625000
        k(   23) = (  -0.5000000   0.2562585   0.0000000), wk =   0.0625000
        k(   24) = (  -0.5000000   0.3843878   0.0000000), wk =   0.0625000
        k(   25) = (  -0.5000000  -0.5125170   0.0000000), wk =   0.0312500

     Initial potential from superposition of free atoms

     starting charge  228.84827, renormalised to  229.00000

     negative rho (up, down):  8.944E-02 0.000E+00
     Starting wfcs are  201 randomized atomic wfcs

     Self-consistent Calculation

     iteration #  1     ecut=    60.00 Ry     beta= 0.20
     Davidson diagonalization with overlap
     ethr =  1.00E-02,  avg # of iterations =  2.0

     negative rho (up, down):  8.737E-02 0.000E+00

     total energy              =   -1869.58151377 Ry
     Harris-Foulkes estimate   =   -1871.19997281 Ry
     estimated scf accuracy    <      16.00349089 Ry

[...]

     iteration # 16     ecut=    60.00 Ry     beta= 0.20
     Davidson diagonalization with overlap
     c_bands:  1 eigenvalues not converged
     ethr =  4.89E-06,  avg # of iterations =  6.4

[...]

     iteration # 21     ecut=    60.00 Ry     beta= 0.20
     Davidson diagonalization with overlap
     c_bands:  1 eigenvalues not converged
     ethr =  2.92E-06,  avg # of iterations =  6.9

[...]

     total energy              =   -1868.76998566 Ry
     Harris-Foulkes estimate   =   -1868.76998574 Ry
     estimated scf accuracy    <       0.00000175 Ry

     iteration # 37     ecut=    60.00 Ry     beta= 0.20
     Davidson diagonalization with overlap
     ethr =  7.64E-10,  avg # of iterations =  2.0

[...]

     End of self-consistent calculation

          k = 0.0000 0.0000 0.0000 ( 37989 PWs)   bands (ev):

   -38.5056 -38.1512 -24.4551 -23.1590 -23.1298 -23.0667 -19.0405 -18.6569
   -18.5099 -18.5006 -18.1746 -18.1574 -15.8354 -15.5484 -15.1414 -14.8762
   -14.6555 -14.6426 -14.6206 -14.4492 -14.4392 -14.3594 -14.1408 -14.1358
   -14.0951 -13.8883 -13.8735  -9.7704  -9.2856  -9.2625  -8.3840  -8.3448
    -8.3412  -8.1511  -8.1244  -8.1242  -8.0965  -8.0201  -7.9971  -2.4639
    -2.4297  -2.2979  -2.2495  -2.2436  -2.2421  -2.2388  -2.2064  -2.1739
    -2.0990  -2.0631  -1.8449  -1.7135  -1.3435  -1.2659  -0.9702  -0.9383
    -0.9011  -0.8483  -0.8403  -0.8116  -0.4926  -0.4513  -0.4492  -0.4148
    -0.4123  -0.3162  -0.2825  -0.2532  -0.2486  -0.2343  -0.1508  -0.0980
    -0.0924  -0.0801  -0.0443  -0.0085  -0.0001   0.0146   0.0266   0.0590
     0.1213   0.1511   0.1544   0.1630   0.1760   0.2784   0.2798   0.4381
     0.4866   0.5502   0.6901   0.6916   0.8473   0.8525   0.8748   0.9716
     0.9831   0.9960   1.0178   1.0200   1.0940   1.1216   1.1394   1.1822
     1.3601   1.3908   1.5452   1.5736   1.6034   1.6551   1.6912   1.8020
     1.8225   1.8282   1.9532   1.9637   2.0026   2.2865   2.2873   3.8052
     4.8451   4.9012   4.9367   5.4087   5.4833   5.9813   6.2957   6.3323
     6.5429   6.8993   7.2270   7.3100   7.5635   7.7788   7.7934   7.9708
     8.0983   8.2143

[...]

          k = 0.3750-0.5125 0.0000 ( 38222 PWs)   bands (ev):

[...]

          k =-0.5000 0.0000 0.0000 ( 38122 PWs)   bands (ev):

[...]

          k =-0.5000-0.5125 0.0000 ( 38244 PWs)   bands (ev):

   -38.4778 -38.1231 -24.2499 -22.9169 -22.8875 -22.8312 -19.0599 -19.0329
   -18.7205 -18.7053 -18.5594 -18.1654 -14.8910 -14.8782 -14.6662 -14.6360
   -14.6343 -14.6288 -14.6087 -14.3758 -14.3684 -14.3233 -14.0955 -14.0298
   -14.0228 -13.9653 -13.8167 -10.2481  -9.8997  -9.6895  -9.1108  -9.0825
    -8.9666  -8.8216  -8.7953  -8.6645  -8.3655  -8.3311  -8.3229  -4.5747
    -4.3808  -3.9929  -3.6289  -3.5946  -3.1154  -3.1097  -2.9042  -2.7184
    -2.6772  -2.6768  -2.5956  -2.3659  -2.2270  -2.2230  -2.2127  -2.2000
    -1.8822  -1.7831  -1.4476  -1.4102  -1.3296  -1.3082  -1.1972  -1.1245
    -1.1034  -1.0488  -0.9665  -0.8924  -0.8879  -0.7642  -0.6859  -0.6682
    -0.6458  -0.2493  -0.2461   0.0432   0.2145   0.3096   0.5165   0.6951
     0.9161   1.0023   1.0247   1.1255   1.1590   1.1842   1.2034   1.2107
     1.2243   1.2442   1.3303   1.3761   1.3868   1.4596   1.4758   1.6246
     1.6480   1.6581   1.6712   1.6761   1.6987   1.7072   1.7451   1.7544
     1.7560   2.0062   2.0998   2.1116   2.1745   2.1794   2.2824   2.2868
     2.6154   2.6243   3.9767   4.2063   4.3907   4.4781   4.4837   4.6251
     5.4231   5.4349   6.1118   6.2510   6.3838   6.5448   7.2963   7.9358
     8.0266   8.3423   8.5125   8.6057   8.6723   8.7757   8.8054   8.8553
     9.1119   9.1465

     the Fermi energy is     2.5854 ev

!    total energy              =   -1868.76998521 Ry
     Harris-Foulkes estimate   =   -1868.76998572 Ry
     estimated scf accuracy    <       0.00000092 Ry

     The total energy is the sum of the following terms:

     one-electron contribution =  -24916.30299217 Ry
     hartree contribution      =   12608.84250724 Ry
     xc contribution           =    -642.20253166 Ry
     ewald contribution        =   11080.90152882 Ry
     smearing contrib. (-TS)   =      -0.00849743 Ry

     convergence has been achieved in  37 iterations

     negative rho (up, down):  9.045E-02 0.000E+00

     Forces acting on atoms (cartesian axes, Ry/au):

     atom    1 type  3   force =     0.00000000    0.00000000   -0.00014561
     atom    2 type  2   force =     0.00000000    0.00000000    0.00007967
     atom    3 type  3   force =     0.00000000    0.00000000   -0.00017998
     atom    4 type  1   force =     0.00000000    0.00000000   -0.00020414
     atom    5 type  2   force =     0.00000000    0.00000000   -0.00067563
     atom    6 type  3   force =     0.00000000    0.00000000    0.00036374
     atom    7 type  3   force =     0.00000000    0.00000000   -0.00010681
     atom    8 type  4   force =     0.00000000    0.00000000   -0.00093939
     atom    9 type  3   force =     0.00000000    0.00000000    0.00118874
     atom   10 type  3   force =     0.00000000    0.00000000    0.00153692
     atom   11 type  2   force =     0.00000000    0.00000000   -0.00165124
     atom   12 type  1   force =     0.00000000    0.00000000   -0.00542149
     atom   13 type  3   force =     0.00000000    0.00000000    0.00299770
     atom   14 type  3   force =     0.00000000    0.00000000    0.01692262
     atom   15 type  2   force =     0.00000000    0.00000000   -0.01371656
     atom   16 type  3   force =     0.00000000    0.00000000    0.04110442
     atom   17 type  1   force =     0.00000000    0.00000000   -0.03946238
     atom   18 type  2   force =     0.00000000    0.00000000    0.00183953
     atom   19 type  3   force =     0.00000000    0.00000000    0.01838469
     atom   20 type  3   force =     0.00000000    0.00000000    0.00979038
     atom   21 type  4   force =     0.00000000    0.00000000   -0.04243456
     atom   22 type  3   force =     0.00000000    0.00000000    0.00399335
     atom   23 type  3   force =     0.00000000    0.00000000    0.00673876
     atom   24 type  2   force =     0.00000000    0.00000000    0.00233901
     atom   25 type  1   force =     0.00000000    0.00000000   -0.00192409
     atom   26 type  3   force =     0.00000000    0.00000000    0.00134901
     atom   27 type  2   force =     0.00000000    0.00000000   -0.00201415
     atom   28 type  3   force =     0.00000000    0.00000000    0.00024752

     Total force =     0.077989     Total SCF correction =     0.004502

     Computing stress (Cartesian axis) and pressure

     negative rho (up, down):  9.045E-02 0.000E+00
          total   stress  (Ry/bohr**3)                   (kbar)     P=       -7.08
  -0.00008289   0.00000000   0.00000000          -12.19        0.00        0.00
   0.00000000  -0.00004016   0.00000000            0.00       -5.91        0.00
   0.00000000   0.00000000  -0.00002131            0.00        0.00       -3.13

     General routines

     Parallel routines

   This run was terminated on:  17:43:36   5May2021

   JOB DONE.
[1620251016.567153] [holy7c08308:175845:0]          mpool.c:43   UCX  WARN  object 0x3224900 was not returned to mpool ucp_requests
[1620251016.570778] [holy7c08503:125137:0]          mpool.c:43   UCX  WARN  object 0x29af480 was not returned to mpool ucp_requests
[1620251016.570796] [holy7c08503:125137:0]          mpool.c:43   UCX  WARN  object 0x29af9c0 was not returned to mpool ucp_requests
[1620251016.569122] [holy7c08403:111181:0]          mpool.c:43   UCX  WARN  object 0x4059680 was not returned to mpool ucp_requests
[1620251016.569143] [holy7c08403:111181:0]          mpool.c:43   UCX  WARN  object 0x4059a00 was not returned to mpool ucp_requests
[1620251016.574434] [holy7c08306:118349:0]          mpool.c:43   UCX  WARN  object 0x456db80 was not returned to mpool ucp_requests
[1620251016.574455] [holy7c08306:118349:0]          mpool.c:43   UCX  WARN  object 0x456e0c0 was not returned to mpool ucp_requests
[1620251016.576495] [holy7c08605:194961:0]          mpool.c:43   UCX  WARN  object 0x29d2f40 was not returned to mpool ucp_requests
[1620251016.568931] [holy7c08503:125138:0]          mpool.c:43   UCX  WARN  object 0x318e600 was not returned to mpool ucp_requests