     Program PWSCF v.6.5 starts on  5May2021 at 17:10:42

     R & G space division:  proc/nbgrp/npool/nimage =      20
     Reading input from YBCO_BaO_cleave_2.5_sep_scf.pwi
Warning: card &IONS ignored
Warning: card     ION_DYNAMICS = 'BFGS' ignored
Warning: card / ignored
Warning: card &CELL ignored
Warning: card     CELL_DYNAMICS = 'BFGS' ignored
Warning: card / ignored

     Current dimensions of program PWSCF are:
     Max number of different atomic species (ntypx) = 10
     Max number of k-points (npk) =  40000
     Max angular momentum in pseudopotentials (lmaxx) =  3

     Message from routine setup:
     using ibrav=0 with symmetry is DISCOURAGED, use correct ibrav instead

     bravais-lattice index     =            0
     lattice parameter (alat)  =       7.3477  a.u.
     unit-cell volume          =    4605.5967 (a.u.)^3
     number of atoms/cell      =           28
     number of atomic types    =            4
     number of electrons       =       229.00
     number of Kohn-Sham states=          138
     kinetic-energy cutoff     =      60.0000  Ry
     charge density cutoff     =     720.0000  Ry
     convergence threshold     =      1.0E-06
     mixing beta               =       0.2000
     number of iterations used =           10  local-TF  mixing
     Exchange-correlation= SLA PW PBE PBE
                           (   1   4   3   4   0   0   0)

     celldm(1)=   7.347715  celldm(2)=   0.000000  celldm(3)=   0.000000
     celldm(4)=   0.000000  celldm(5)=   0.000000  celldm(6)=   0.000000

     crystal axes: (cart. coord. in units of alat)
               a(1) = (   1.000000   0.000000   0.000000 )
               a(2) = (   0.000000   0.975577   0.000000 )
               a(3) = (   0.000000   0.000000  11.900557 )

     reciprocal axes: (cart. coord. in units 2 pi/alat)
               b(1) = (  1.000000  0.000000  0.000000 )
               b(2) = (  0.000000  1.025034  0.000000 )
               b(3) = (  0.000000  0.000000  0.084030 )

     PseudoPot. # 1 for Ba read from file:
     /n/holyscratch01/hoffman_lab/ruizhe/YBCO_Project/pseudo/Ba.pbe-nsp-van.UPF
     MD5 check sum: 2b9c31dd849566dd297d80989662b7a0
     Pseudo is Ultrasoft + core correction, Zval = 10.0
     Generated by new atomic code, or converted to UPF format
     Using radial grid of  907 points,  6 beta functions with:
                l(1) =   0
                l(2) =   0
                l(3) =   1
                l(4) =   1
                l(5) =   2
                l(6) =   2
     Q(r) pseudized with  6 coefficients,  rinner =    1.200   1.200   1.200
                                                       1.200   1.200

     PseudoPot. # 2 for Cu read from file:
     /n/holyscratch01/hoffman_lab/ruizhe/YBCO_Project/pseudo/Cu.pbe-n-van_ak.UPF
     MD5 check sum: 34e3282627ffb533726feb647e090d62
     Pseudo is Ultrasoft + core correction, Zval = 11.0
     Generated by new atomic code, or converted to UPF format
     Using radial grid of  867 points,  6 beta functions with:
                l(1) =   0
                l(2) =   0
                l(3) =   1
                l(4) =   1
                l(5) =   2
                l(6) =   2
     Q(r) pseudized with  8 coefficients,  rinner =    1.400   1.400   1.400
                                                       1.400   1.400

     PseudoPot. # 3 for O  read from file:
     /n/holyscratch01/hoffman_lab/ruizhe/YBCO_Project/pseudo/O.pbe-van_ak.UPF
     MD5 check sum: 783ce7fe4c79b6a4916957118fed0856
     Pseudo is Ultrasoft, Zval =  6.0
     Generated by new atomic code, or converted to UPF format
     Using radial grid of  737 points,  4 beta functions with:
                l(1) =   0
                l(2) =   0
                l(3) =   1
                l(4) =   1
     Q(r) pseudized with  8 coefficients,  rinner =    0.800   0.800   0.800

     PseudoPot. # 4 for Y  read from file:
     /n/holyscratch01/hoffman_lab/ruizhe/YBCO_Project/pseudo/Y.pbe-nsp-van.UPF
     MD5 check sum: 4412fed3ab108fed87a1b7d6a69a4a38
     Pseudo is Ultrasoft + core correction, Zval = 11.0
     Generated by new atomic code, or converted to UPF format
     Using radial grid of  885 points,  6 beta functions with:
                l(1) =   0
                l(2) =   0
                l(3) =   1
                l(4) =   1
                l(5) =   2
                l(6) =   2
     Q(r) pseudized with  6 coefficients,  rinner =    1.200   1.200   1.200
                                                       1.200   1.200

     atomic species   valence    mass     pseudopotential
        Ba            10.00   137.32700     Ba( 1.00)
        Cu            11.00    63.54600     Cu( 1.00)
        O              6.00    15.99900     O ( 1.00)
        Y             11.00    88.90584     Y ( 1.00)

      4 Sym. Ops. (no inversion) found

   Cartesian axes

     site n.     atom                  positions (alat units)
         1           O   tau(   1) = (   0.0000000   0.4877884  -0.0257983  )
         2           Cu  tau(   2) = (   0.0000000   0.0000000   0.0215779  )
         3           O   tau(   3) = (   0.0000000   0.0000000   0.5073114  )
         4           Ba  tau(   4) = (   0.4999996   0.4877884   0.5319677  )
         5           Cu  tau(   5) = (   0.0000000   0.0000000   1.0495845  )
         6           O   tau(   6) = (   0.4999996   0.0000000   1.1181579  )
         7           O   tau(   7) = (   0.0000000   0.4877884   1.1273137  )
         8           Y   tau(   8) = (   0.4999996   0.4877884   1.4938777  )
         9           O   tau(   9) = (   0.0000000   0.4877884   1.8497402  )
        10           O   tau(  10) = (   0.4999996   0.0000000   1.8692709  )
        11           Cu  tau(  11) = (   0.0000000   0.0000000   1.9417560  )
        12           Ba  tau(  12) = (   0.4999996   0.4877884   2.4526063  )
        13           O   tau(  13) = (   0.0000000   0.0000000   2.5103470  )
        14           O   tau(  14) = (   0.0000000   0.4877884   2.9968469  )
        15           Cu  tau(  15) = (   0.0000000   0.0000000   2.9968521  )
        16           O   tau(  16) = (   0.0000000   0.0000000   3.4833288  )
        17           Ba  tau(  17) = (   0.4999996   0.4877884   3.5410618  )
        18           Cu  tau(  18) = (   0.0000000   0.0000000   4.6948991  )
        19           O   tau(  19) = (   0.4999996   0.0000000   4.7673714  )
        20           O   tau(  20) = (   0.0000000   0.4877884   4.7868841  )
        21           Y   tau(  21) = (   0.4999996   0.4877884   5.1427491  )
        22           O   tau(  22) = (   0.0000000   0.4877884   5.5093131  )
        23           O   tau(  23) = (   0.4999996   0.0000000   5.5184818  )
        24           Cu  tau(  24) = (   0.0000000   0.0000000   5.5870603  )
        25           Ba  tau(  25) = (   0.4999996   0.4877884   6.1046617  )
        26           O   tau(  26) = (   0.0000000   0.0000000   6.1293180  )
        27           Cu  tau(  27) = (   0.0000000   0.0000000   6.6150232  )
        28           O   tau(  28) = (   0.0000000   0.4877884   6.6624045  )

     number of k points=    25  Gaussian smearing, width (Ry)=  0.0100
                       cart. coord. in units 2pi/alat
        k(    1) = (   0.0000000   0.0000000   0.0000000), wk =   0.0312500
        k(    2) = (   0.0000000   0.1281293   0.0000000), wk =   0.0625000
        k(    3) = (   0.0000000   0.2562585   0.0000000), wk =   0.0625000
        k(    4) = (   0.0000000   0.3843878   0.0000000), wk =   0.0625000
        k(    5) = (   0.0000000  -0.5125170   0.0000000), wk =   0.0312500
        k(    6) = (   0.1250000   0.0000000   0.0000000), wk =   0.0625000
        k(    7) = (   0.1250000   0.1281293   0.0000000), wk =   0.1250000
        k(    8) = (   0.1250000   0.2562585   0.0000000), wk =   0.1250000
        k(    9) = (   0.1250000   0.3843878   0.0000000), wk =   0.1250000
        k(   10) = (   0.1250000  -0.5125170   0.0000000), wk =   0.0625000
        k(   11) = (   0.2500000   0.0000000   0.0000000), wk =   0.0625000
        k(   12) = (   0.2500000   0.1281293   0.0000000), wk =   0.1250000
        k(   13) = (   0.2500000   0.2562585   0.0000000), wk =   0.1250000
        k(   14) = (   0.2500000   0.3843878   0.0000000), wk =   0.1250000
        k(   15) = (   0.2500000  -0.5125170   0.0000000), wk =   0.0625000
        k(   16) = (   0.3750000   0.0000000   0.0000000), wk =   0.0625000
        k(   17) = (   0.3750000   0.1281293   0.0000000), wk =   0.1250000
        k(   18) = (   0.3750000   0.2562585   0.0000000), wk =   0.1250000
        k(   19) = (   0.3750000   0.3843878   0.0000000), wk =   0.1250000
        k(   20) = (   0.3750000  -0.5125170   0.0000000), wk =   0.0625000
        k(   21) = (  -0.5000000   0.0000000   0.0000000), wk =   0.0312500
        k(   22) = (  -0.5000000   0.1281293   0.0000000), wk =   0.0625000
        k(   23) = (  -0.5000000   0.2562585   0.0000000), wk =   0.0625000
        k(   24) = (  -0.5000000   0.3843878   0.0000000), wk =   0.0625000
        k(   25) = (  -0.5000000  -0.5125170   0.0000000), wk =   0.0312500

     Initial potential from superposition of free atoms

     starting charge  228.84827, renormalised to  229.00000

     negative rho (up, down):  8.953E-02 0.000E+00
     Starting wfcs are  201 randomized atomic wfcs

     Self-consistent Calculation

     iteration #  1     ecut=    60.00 Ry     beta= 0.20
     Davidson diagonalization with overlap
     ethr =  1.00E-02,  avg # of iterations =  2.0

     negative rho (up, down):  8.741E-02 0.000E+00

     total energy              =   -1869.57458043 Ry
     Harris-Foulkes estimate   =   -1871.17969710 Ry
     estimated scf accuracy    <      14.58091351 Ry

[...]

     iteration # 12     ecut=    60.00 Ry     beta= 0.20
     Davidson diagonalization with overlap
     c_bands:  1 eigenvalues not converged
     ethr =  1.86E-05,  avg # of iterations =  9.3

[...]

     iteration # 22     ecut=    60.00 Ry     beta= 0.20
     Davidson diagonalization with overlap
     c_bands:  1 eigenvalues not converged
     ethr =  3.95E-06,  avg # of iterations =  7.2

[...]

     total energy              =   -1868.78404120 Ry
     Harris-Foulkes estimate   =   -1868.78404130 Ry
     estimated scf accuracy    <       0.00000159 Ry

     iteration # 35     ecut=    60.00 Ry     beta= 0.20
     Davidson diagonalization with overlap
     ethr =  6.93E-10,  avg # of iterations =  1.2

[...]

     End of self-consistent calculation

          k = 0.0000 0.0000 0.0000 ( 36065 PWs)   bands (ev):

   -38.2061 -37.9096 -23.8363 -22.8614 -22.8368 -22.7440 -18.7413 -18.4143
   -18.2107 -18.2010 -17.9317 -17.9154 -15.5372 -15.2875 -14.7647 -14.5773
   -14.3625 -14.3461 -14.3225 -14.2095 -14.1637 -14.0611 -13.8442 -13.8414
   -13.6545 -13.6208 -13.5432  -9.1256  -8.6734  -8.6547  -8.0839  -8.0526
    -8.0198  -7.8539  -7.8311  -7.8271  -7.8033  -7.6975  -7.6757  -2.1658
    -2.1320  -1.9957  -1.9751  -1.9615  -1.9474  -1.9452  -1.8770  -1.8586
    -1.8176  -1.8006  -1.6071  -1.4788  -0.9805  -0.9675  -0.7113  -0.6205
    -0.5521  -0.5441  -0.4787  -0.4631  -0.1889  -0.1551  -0.1533  -0.1185
    -0.1162  -0.0387   0.0024   0.0467   0.0491   0.0608   0.1442   0.1944
     0.1989   0.2051   0.2781   0.2947   0.3086   0.3109   0.3406   0.3509
     0.3864   0.4488   0.4510   0.4591   0.4844   0.5719   0.5762   0.6805
     0.7262   0.8534   0.9145   1.0060   1.1392   1.1459   1.1931   1.2603
     1.2708   1.3027   1.3030   1.3403   1.3996   1.4179   1.4681   1.5146
     1.7463   1.7883   1.8698   1.8830   1.9001   1.9202   1.9324   2.0985
     2.1175   2.1683   2.1927   2.2815   2.3111   2.5787   2.5845   4.6881
     5.1860   5.2222   5.5144   5.7691   6.1244   6.4744   6.6028   6.6449
     7.1118   7.5126   7.7980   7.8746   8.0712   8.0922   8.2743   8.3447
     8.5397   8.6017

[...]

          k = 0.3750-0.5125 0.0000 ( 36266 PWs)   bands (ev):

[...]

          k =-0.5000 0.0000 0.0000 ( 36146 PWs)   bands (ev):

[...]

          k =-0.5000-0.5125 0.0000 ( 36252 PWs)   bands (ev):

   -38.1783 -37.8816 -23.6300 -22.6193 -22.5945 -22.5084 -18.7603 -18.7340
   -18.4774 -18.4610 -18.2600 -17.9247 -14.5942 -14.5786 -14.3970 -14.3407
   -14.3378 -14.3319 -14.2726 -14.0785 -14.0236 -13.9099 -13.7452 -13.7263
   -13.7240 -13.7220 -13.5958  -9.6361  -9.2998  -9.0501  -8.8135  -8.7895
    -8.6455  -8.5245  -8.5022  -8.3371  -8.0632  -8.0308  -8.0069  -4.2769
    -4.1077  -3.6940  -3.3579  -3.2976  -2.8193  -2.8136  -2.6053  -2.4224
    -2.4107  -2.3867  -2.2986  -2.1123  -1.9304  -1.9263  -1.9002  -1.8613
    -1.6418  -1.4416  -1.1125  -1.1080  -1.0456  -1.0103  -0.9141  -0.8281
    -0.8109  -0.7487  -0.6691  -0.5963  -0.5916  -0.4450  -0.4309  -0.4202
    -0.2735   0.0470   0.0502   0.3044   0.5288   0.6319   0.7995   0.9968
     1.2863   1.3212   1.3230   1.4288   1.4682   1.4803   1.4843   1.4978
     1.5245   1.5312   1.6461   1.6900   1.7246   1.7589   1.8753   1.8975
     1.9374   1.9468   1.9567   1.9661   1.9728   2.0060   2.0069   2.0375
     2.1020   2.3370   2.3691   2.4620   2.4703   2.4758   2.5785   2.5833
     2.9090   2.9212   4.3288   4.6880   4.6928   4.7687   4.7744   4.8830
     5.7196   5.7293   6.2965   6.5519   7.2145   7.2293   8.1916   8.3504
     8.3507   8.6500   8.7788   8.8840   9.1033   9.1563   9.1664   9.1820
     9.4192   9.5394

     the Fermi energy is     2.8815 ev

!    total energy              =   -1868.78404091 Ry
     Harris-Foulkes estimate   =   -1868.78404126 Ry
     estimated scf accuracy    <       0.00000061 Ry

     The total energy is the sum of the following terms:

     one-electron contribution =  -28001.72019022 Ry
     hartree contribution      =   14154.16693203 Ry
     xc contribution           =    -642.20579364 Ry
     ewald contribution        =   12620.98356634 Ry
     smearing contrib. (-TS)   =      -0.00855542 Ry

     convergence has been achieved in  35 iterations

     negative rho (up, down):  9.047E-02 0.000E+00

     Forces acting on atoms (cartesian axes, Ry/au):

     atom    1 type  3   force =     0.00000000    0.00000000    0.00002501
     atom    2 type  2   force =     0.00000000    0.00000000    0.00132064
     atom    3 type  3   force =     0.00000000    0.00000000   -0.00011064
     atom    4 type  1   force =     0.00000000    0.00000000   -0.00015697
     atom    5 type  2   force =     0.00000000    0.00000000   -0.00117243
     atom    6 type  3   force =     0.00000000    0.00000000    0.00027108
     atom    7 type  3   force =     0.00000000    0.00000000   -0.00003835
     atom    8 type  4   force =     0.00000000    0.00000000   -0.00057784
     atom    9 type  3   force =     0.00000000    0.00000000    0.00078779
     atom   10 type  3   force =     0.00000000    0.00000000    0.00112915
     atom   11 type  2   force =     0.00000000    0.00000000   -0.00113303
     atom   12 type  1   force =     0.00000000    0.00000000   -0.00400596
     atom   13 type  3   force =     0.00000000    0.00000000    0.00251297
     atom   14 type  3   force =     0.00000000    0.00000000    0.01347958
     atom   15 type  2   force =     0.00000000    0.00000000   -0.00960789
     atom   16 type  3   force =     0.00000000    0.00000000    0.02558964
     atom   17 type  1   force =     0.00000000    0.00000000   -0.02198913
     atom   18 type  2   force =     0.00000000    0.00000000    0.00581142
     atom   19 type  3   force =     0.00000000    0.00000000    0.01200370
     atom   20 type  3   force =     0.00000000    0.00000000    0.00505222
     atom   21 type  4   force =     0.00000000    0.00000000   -0.03797508
     atom   22 type  3   force =     0.00000000    0.00000000    0.00325841
     atom   23 type  3   force =     0.00000000    0.00000000    0.00524826
     atom   24 type  2   force =     0.00000000    0.00000000    0.00287727
     atom   25 type  1   force =     0.00000000    0.00000000   -0.00151890
     atom   26 type  3   force =     0.00000000    0.00000000    0.00130168
     atom   27 type  2   force =     0.00000000    0.00000000   -0.00281544
     atom   28 type  3   force =     0.00000000    0.00000000    0.00043288

     Total force =     0.056085     Total SCF correction =     0.004064

     Computing stress (Cartesian axis) and pressure

     negative rho (up, down):  9.047E-02 0.000E+00
          total   stress  (Ry/bohr**3)                   (kbar)     P=       -6.72
  -0.00007327   0.00000000   0.00000000          -10.78        0.00        0.00
   0.00000000  -0.00003716   0.00000000            0.00       -5.47        0.00
   0.00000000   0.00000000  -0.00002661            0.00        0.00       -3.91

     General routines

     Parallel routines

   This run was terminated on:  17:23:51   5May2021

   JOB DONE.
[1620249831.210766] [holy7c08308:174304:0]          mpool.c:43   UCX  WARN  object 0x37bf680 was not returned to mpool ucp_requests
[1620249831.210795] [holy7c08308:174304:0]          mpool.c:43   UCX  WARN  object 0x37bfa00 was not returned to mpool ucp_requests
[1620249831.212708] [holy7c08207:230388:0]          mpool.c:43   UCX  WARN  object 0x46bf040 was not returned to mpool ucp_requests
[1620249831.212726] [holy7c08207:230388:0]          mpool.c:43   UCX  WARN  object 0x46bf740 was not returned to mpool ucp_requests
[1620249831.219708] [holy7c08309:94084:0]          mpool.c:43   UCX  WARN  object 0x3c4c940 was not returned to mpool ucp_requests
[1620249831.216976] [holy7c08303:37780:0]          mpool.c:43   UCX  WARN  object 0x42a7340 was not returned to mpool ucp_requests
[1620249831.217005] [holy7c08303:37780:0]          mpool.c:43   UCX  WARN  object 0x42a7a40 was not returned to mpool ucp_requests
[1620249831.220124] [holy7c08208:215983:0]          mpool.c:43   UCX  WARN  object 0x3715cc0 was not returned to mpool ucp_requests
[1620249831.219380] [holy7c08309:94085:0]          mpool.c:43   UCX  WARN  object 0x34a8140 was not returned to mpool ucp_requests