     Program PWSCF v.6.5 starts on  5May2021 at 18: 6:26

     R & G space division:  proc/nbgrp/npool/nimage =      20
     Reading input from YBCO_Y_cleave_4.0_sep_scf.pwi
Warning: card &IONS ignored
Warning: card     ION_DYNAMICS = 'BFGS' ignored
Warning: card / ignored
Warning: card &CELL ignored
Warning: card     CELL_DYNAMICS = 'BFGS' ignored
Warning: card / ignored

     Current dimensions of program PWSCF are:
     Max number of different atomic species (ntypx) = 10
     Max number of k-points (npk) =  40000
     Max angular momentum in pseudopotentials (lmaxx) =  3

     Message from routine setup:
     using ibrav=0 with symmetry is DISCOURAGED, use correct ibrav instead

     bravais-lattice index     =            0
     lattice parameter (alat)  =       7.3477  a.u.
     unit-cell volume          =    4754.8956 (a.u.)^3
     number of atoms/cell      =           28
     number of atomic types    =            4
     number of electrons       =       229.00
     number of Kohn-Sham states=          138
     kinetic-energy cutoff     =      60.0000  Ry
     charge density cutoff     =     720.0000  Ry
     convergence threshold     =      1.0E-06
     mixing beta               =       0.2000
     number of iterations used =           10  local-TF  mixing
     Exchange-correlation= SLA PW PBE PBE
                           (   1   4   3   4   0   0   0)

     celldm(1)=   7.347715  celldm(2)=   0.000000  celldm(3)=   0.000000
     celldm(4)=   0.000000  celldm(5)=   0.000000  celldm(6)=   0.000000

     crystal axes: (cart. coord. in units of alat)
               a(1) = (   1.000000   0.000000   0.000000 )
               a(2) = (   0.000000   0.975577   0.000000 )
               a(3) = (   0.000000   0.000000  12.286335 )

     reciprocal axes: (cart. coord. in units 2 pi/alat)
               b(1) = (  1.000000  0.000000  0.000000 )
               b(2) = (  0.000000  1.025034  0.000000 )
               b(3) = (  0.000000  0.000000  0.081391 )

     PseudoPot. # 1 for Ba read from file:
     /n/holyscratch01/hoffman_lab/ruizhe/YBCO_Project/pseudo/Ba.pbe-nsp-van.UPF
     MD5 check sum: 2b9c31dd849566dd297d80989662b7a0
     Pseudo is Ultrasoft + core correction, Zval = 10.0
     Generated by new atomic code, or converted to UPF format
     Using radial grid of  907 points,  6 beta functions with:
                l(1) =   0
                l(2) =   0
                l(3) =   1
                l(4) =   1
                l(5) =   2
                l(6) =   2
     Q(r) pseudized with  6 coefficients,  rinner =    1.200   1.200   1.200
                                                       1.200   1.200

     PseudoPot. # 2 for Cu read from file:
     /n/holyscratch01/hoffman_lab/ruizhe/YBCO_Project/pseudo/Cu.pbe-n-van_ak.UPF
     MD5 check sum: 34e3282627ffb533726feb647e090d62
     Pseudo is Ultrasoft + core correction, Zval = 11.0
     Generated by new atomic code, or converted to UPF format
     Using radial grid of  867 points,  6 beta functions with:
                l(1) =   0
                l(2) =   0
                l(3) =   1
                l(4) =   1
                l(5) =   2
                l(6) =   2
     Q(r) pseudized with  8 coefficients,  rinner =    1.400   1.400   1.400
                                                       1.400   1.400

     PseudoPot. # 3 for O  read from file:
     /n/holyscratch01/hoffman_lab/ruizhe/YBCO_Project/pseudo/O.pbe-van_ak.UPF
     MD5 check sum: 783ce7fe4c79b6a4916957118fed0856
     Pseudo is Ultrasoft, Zval =  6.0
     Generated by new atomic code, or converted to UPF format
     Using radial grid of  737 points,  4 beta functions with:
                l(1) =   0
                l(2) =   0
                l(3) =   1
                l(4) =   1
     Q(r) pseudized with  8 coefficients,  rinner =    0.800   0.800   0.800

     PseudoPot. # 4 for Y  read from file:
     /n/holyscratch01/hoffman_lab/ruizhe/YBCO_Project/pseudo/Y.pbe-nsp-van.UPF
     MD5 check sum: 4412fed3ab108fed87a1b7d6a69a4a38
     Pseudo is Ultrasoft + core correction, Zval = 11.0
     Generated by new atomic code, or converted to UPF format
     Using radial grid of  885 points,  6 beta functions with:
                l(1) =   0
                l(2) =   0
                l(3) =   1
                l(4) =   1
                l(5) =   2
                l(6) =   2
     Q(r) pseudized with  6 coefficients,  rinner =    1.200   1.200   1.200
                                                       1.200   1.200

     atomic species   valence    mass     pseudopotential
        Ba            10.00   137.32700     Ba( 1.00)
        Cu            11.00    63.54600     Cu( 1.00)
        O              6.00    15.99900     O ( 1.00)
        Y             11.00    88.90584     Y ( 1.00)

      4 Sym. Ops. (no inversion) found

   Cartesian axes

     site n.     atom                  positions (alat units)
         1           O   tau(   1) = (   0.0000000   0.4877884  -0.0257983  )
         2           Cu  tau(   2) = (   0.0000000   0.0000000   0.0215779  )
         3           O   tau(   3) = (   0.0000000   0.0000000   0.5073114  )
         4           Ba  tau(   4) = (   0.4999996   0.4877884   0.5319677  )
         5           Cu  tau(   5) = (   0.0000000   0.0000000   1.0495845  )
         6           O   tau(   6) = (   0.4999996   0.0000000   1.1181579  )
         7           O   tau(   7) = (   0.0000000   0.4877884   1.1273137  )
         8           Y   tau(   8) = (   0.4999996   0.4877884   1.4938777  )
         9           O   tau(   9) = (   0.0000000   0.4877884   1.8497402  )
        10           O   tau(  10) = (   0.4999996   0.0000000   1.8692709  )
        11           Cu  tau(  11) = (   0.0000000   0.0000000   1.9417560  )
        12           Ba  tau(  12) = (   0.4999996   0.4877884   2.4526063  )
        13           O   tau(  13) = (   0.0000000   0.0000000   2.5103470  )
        14           O   tau(  14) = (   0.0000000   0.4877884   2.9968469  )
        15           Cu  tau(  15) = (   0.0000000   0.0000000   2.9968521  )
        16           O   tau(  16) = (   0.0000000   0.0000000   3.4833288  )
        17           Ba  tau(  17) = (   0.4999996   0.4877884   3.5410618  )
        18           Cu  tau(  18) = (   0.0000000   0.0000000   4.0519352  )
        19           O   tau(  19) = (   0.4999996   0.0000000   4.1244075  )
        20           O   tau(  20) = (   0.0000000   0.4877884   4.1439202  )
        21           Y   tau(  21) = (   0.4999996   0.4877884   4.4997853  )
        22           O   tau(  22) = (   0.0000000   0.4877884   5.8950914  )
        23           O   tau(  23) = (   0.4999996   0.0000000   5.9042601  )
        24           Cu  tau(  24) = (   0.0000000   0.0000000   5.9728386  )
        25           Ba  tau(  25) = (   0.4999996   0.4877884   6.4904400  )
        26           O   tau(  26) = (   0.0000000   0.0000000   6.5150964  )
        27           Cu  tau(  27) = (   0.0000000   0.0000000   7.0008016  )
        28           O   tau(  28) = (   0.0000000   0.4877884   7.0481829  )

     number of k points=    25  Gaussian smearing, width (Ry)=  0.0100
                       cart. coord. in units 2pi/alat
        k(    1) = (   0.0000000   0.0000000   0.0000000), wk =   0.0312500
        k(    2) = (   0.0000000   0.1281293   0.0000000), wk =   0.0625000
        k(    3) = (   0.0000000   0.2562585   0.0000000), wk =   0.0625000
        k(    4) = (   0.0000000   0.3843878   0.0000000), wk =   0.0625000
        k(    5) = (   0.0000000  -0.5125170   0.0000000), wk =   0.0312500
        k(    6) = (   0.1250000   0.0000000   0.0000000), wk =   0.0625000
        k(    7) = (   0.1250000   0.1281293   0.0000000), wk =   0.1250000
        k(    8) = (   0.1250000   0.2562585   0.0000000), wk =   0.1250000
        k(    9) = (   0.1250000   0.3843878   0.0000000), wk =   0.1250000
        k(   10) = (   0.1250000  -0.5125170   0.0000000), wk =   0.0625000
        k(   11) = (   0.2500000   0.0000000   0.0000000), wk =   0.0625000
        k(   12) = (   0.2500000   0.1281293   0.0000000), wk =   0.1250000
        k(   13) = (   0.2500000   0.2562585   0.0000000), wk =   0.1250000
        k(   14) = (   0.2500000   0.3843878   0.0000000), wk =   0.1250000
        k(   15) = (   0.2500000  -0.5125170   0.0000000), wk =   0.0625000
        k(   16) = (   0.3750000   0.0000000   0.0000000), wk =   0.0625000
        k(   17) = (   0.3750000   0.1281293   0.0000000), wk =   0.1250000
        k(   18) = (   0.3750000   0.2562585   0.0000000), wk =   0.1250000
        k(   19) = (   0.3750000   0.3843878   0.0000000), wk =   0.1250000
        k(   20) = (   0.3750000  -0.5125170   0.0000000), wk =   0.0625000
        k(   21) = (  -0.5000000   0.0000000   0.0000000), wk =   0.0312500
        k(   22) = (  -0.5000000   0.1281293   0.0000000), wk =   0.0625000
        k(   23) = (  -0.5000000   0.2562585   0.0000000), wk =   0.0625000
        k(   24) = (  -0.5000000   0.3843878   0.0000000), wk =   0.0625000
        k(   25) = (  -0.5000000  -0.5125170   0.0000000), wk =   0.0312500

     Initial potential from superposition of free atoms

     starting charge  228.84827, renormalised to  229.00000

     negative rho (up, down):  8.971E-02 0.000E+00
     Starting wfcs are  201 randomized atomic wfcs

     Self-consistent Calculation

     iteration #  1     ecut=    60.00 Ry     beta= 0.20
     Davidson diagonalization with overlap
     ethr =  1.00E-02,  avg # of iterations =  2.0

     negative rho (up, down):  8.736E-02 0.000E+00

     total energy              =   -1869.45460696 Ry
     Harris-Foulkes estimate   =   -1871.03907959 Ry
     estimated scf accuracy    <      14.60469871 Ry

[...]

     iteration # 16     ecut=    60.00 Ry     beta= 0.20
     Davidson diagonalization with overlap
     c_bands:  1 eigenvalues not converged
     ethr =  1.00E-05,  avg # of iterations =  6.8

[...]

     iteration # 31     ecut=    60.00 Ry     beta= 0.20
     Davidson diagonalization with overlap
     c_bands:  1 eigenvalues not converged
     ethr =  3.64E-07,  avg # of iterations =  4.7

[...]

     total energy              =   -1868.39450595 Ry
     Harris-Foulkes estimate   =   -1868.39450643 Ry
     estimated scf accuracy    <       0.00000190 Ry

     iteration # 40     ecut=    60.00 Ry     beta= 0.20
     Davidson diagonalization with overlap
     ethr =  8.29E-10,  avg # of iterations =  1.0

[...]

     End of self-consistent calculation

          k = 0.0000 0.0000 0.0000 ( 37185 PWs)   bands (ev):

   -41.2982 -38.4242 -23.3559 -23.0787 -22.9369 -22.6887 -21.4392 -21.1704
   -21.1629 -18.9591 -18.4289 -18.4190 -16.4584 -15.7547 -15.5305 -14.8985
   -14.7942 -14.6097 -14.5638 -14.5402 -14.4632 -14.2787 -14.0618 -13.9942
   -13.9549 -13.7700 -13.3043  -8.6684  -8.2999  -8.2905  -8.2805  -8.2087
    -8.0711  -8.0443  -7.8907  -7.8721  -7.8152  -7.7169  -7.6819  -3.2359
    -3.2119  -2.7623  -2.3833  -2.3502  -2.3269  -2.2022  -2.1623  -2.1236
    -2.0957  -2.0182  -1.8169  -1.1893  -1.1583  -1.1168  -1.1148  -0.9734
    -0.8404  -0.7612  -0.7259  -0.7079  -0.6743  -0.5038  -0.4094  -0.3725
    -0.3359  -0.2928  -0.2662  -0.2506  -0.1979  -0.1832  -0.1710  -0.1665
    -0.1544  -0.0768  -0.0197  -0.0128   0.0939   0.0992   0.1278   0.1961
     0.2291   0.2336   0.2422   0.2621   0.2787   0.3192   0.3384   0.3587
     0.3685   0.4739   0.5003   0.6365   0.7789   0.7992   0.9285   0.9854
     1.0164   1.0639   1.0714   1.1442   1.1849   1.2002   1.2596   1.3977
     1.6233   1.6245   1.6825   1.7223   1.7854   1.7977   1.8809   1.9778
     1.9805   2.0513   2.0712   2.1035   2.3682   2.3772   2.4259   2.4722
     3.8442   4.8735   4.9708   5.1365   5.3808   5.6073   5.7258   6.3280
     6.3638   6.3776   6.5903   6.6844   6.7360   7.0734   7.4486   7.8601
     7.8740   7.9124

[...]

          k = 0.3750-0.5125 0.0000 ( 37434 PWs)   bands (ev):

[...]

          k =-0.5000 0.0000 0.0000 ( 37306 PWs)   bands (ev):

[...]

          k =-0.5000-0.5125 0.0000 ( 37436 PWs)   bands (ev):

   -41.2775 -38.3963 -23.1212 -22.8366 -22.7011 -22.4416 -21.4429 -21.4200
   -21.2687 -18.9782 -18.9523 -18.4779 -15.7453 -15.7170 -14.8126 -14.7954
   -14.5557 -14.5109 -14.3777 -14.2954 -14.2454 -14.2404 -13.9994 -13.9438
   -13.8943 -13.7601 -13.6127  -9.2538  -9.0307  -8.9804  -8.8431  -8.7417
    -8.7170  -8.6680  -8.5076  -8.3930  -8.2781  -8.1771  -7.7916  -5.0574
    -4.4950  -3.9122  -3.4780  -3.4306  -3.2225  -3.0747  -3.0307  -2.9676
    -2.8200  -2.6402  -2.5185  -2.3269  -2.3111  -2.1478  -2.1132  -2.1021
    -1.9117  -1.8990  -1.6174  -1.5473  -1.3273  -1.2347  -1.2279  -1.0526
    -1.0453  -1.0252  -0.9663  -0.8881  -0.8086  -0.7534  -0.7102  -0.6223
    -0.6127  -0.1669  -0.1119   0.0784   0.1295   0.3634   0.5109   0.5625
     0.7685   0.7806   0.8067   0.9845   1.1056   1.1759   1.1910   1.2110
     1.2615   1.2771   1.2964   1.4799   1.5437   1.5456   1.7088   1.7181
     1.7295   1.7380   1.7454   1.7552   1.8393   1.9147   1.9688   2.1472
     2.1695   2.2290   2.2583   2.2655   2.3647   2.3660   2.4227   2.7006
     2.8346   3.1299   3.2943   3.9148   3.9504   4.0018   4.2222   4.4699
     4.5560   4.7851   4.8861   5.2812   5.5031   5.6965   6.3324   7.1658
     7.8842   8.0766   8.0842   8.1198   8.4690   8.5053   8.8987   9.0023
     9.0043   9.0792

     the Fermi energy is     2.6637 ev

!    total energy              =   -1868.39450530 Ry
     Harris-Foulkes estimate   =   -1868.39450597 Ry
     estimated scf accuracy    <       0.00000095 Ry

     The total energy is the sum of the following terms:

     one-electron contribution =  -29706.60602776 Ry
     hartree contribution      =   15003.49675745 Ry
     xc contribution           =    -641.74673159 Ry
     ewald contribution        =   13476.47018856 Ry
     smearing contrib. (-TS)   =      -0.00869196 Ry

     convergence has been achieved in  40 iterations

     negative rho (up, down):  8.993E-02 0.000E+00

     Forces acting on atoms (cartesian axes, Ry/au):

     atom    1 type  3   force =     0.00000000    0.00000000    0.00013161
     atom    2 type  2   force =     0.00000000    0.00000000    0.00087285
     atom    3 type  3   force =     0.00000000    0.00000000   -0.00005573
     atom    4 type  1   force =     0.00000000    0.00000000   -0.00005160
     atom    5 type  2   force =     0.00000000    0.00000000   -0.00008039
     atom    6 type  3   force =     0.00000000    0.00000000    0.00041662
     atom    7 type  3   force =     0.00000000    0.00000000    0.00017608
     atom    8 type  4   force =     0.00000000    0.00000000   -0.00044422
     atom    9 type  3   force =     0.00000000    0.00000000    0.00081860
     atom   10 type  3   force =     0.00000000    0.00000000    0.00105263
     atom   11 type  2   force =     0.00000000    0.00000000   -0.00223392
     atom   12 type  1   force =     0.00000000    0.00000000   -0.00155705
     atom   13 type  3   force =     0.00000000    0.00000000    0.00238810
     atom   14 type  3   force =     0.00000000    0.00000000    0.00574158
     atom   15 type  2   force =     0.00000000    0.00000000   -0.01181400
     atom   16 type  3   force =     0.00000000    0.00000000    0.01958709
     atom   17 type  1   force =     0.00000000    0.00000000   -0.02275947
     atom   18 type  2   force =     0.00000000    0.00000000    0.00294515
     atom   19 type  3   force =     0.00000000    0.00000000    0.06082447
     atom   20 type  3   force =     0.00000000    0.00000000    0.06244351
     atom   21 type  4   force =     0.00000000    0.00000000   -0.11345336
     atom   22 type  3   force =     0.00000000    0.00000000    0.02161007
     atom   23 type  3   force =     0.00000000    0.00000000    0.02771515
     atom   24 type  2   force =     0.00000000    0.00000000   -0.01954729
     atom   25 type  1   force =     0.00000000    0.00000000   -0.03297361
     atom   26 type  3   force =     0.00000000    0.00000000   -0.00387582
     atom   27 type  2   force =     0.00000000    0.00000000   -0.00334042
     atom   28 type  3   force =     0.00000000    0.00000000    0.00546338

     Total force =     0.155981     Total SCF correction =     0.003188

     Computing stress (Cartesian axis) and pressure

     negative rho (up, down):  8.993E-02 0.000E+00
          total   stress  (Ry/bohr**3)                   (kbar)     P=      -11.85
  -0.00007234   0.00000000   0.00000000          -10.64        0.00        0.00
   0.00000000  -0.00005915   0.00000000            0.00       -8.70        0.00
   0.00000000   0.00000000  -0.00011014            0.00        0.00      -16.20

     General routines

     Parallel routines

   This run was terminated on:  18:19:49   5May2021

   JOB DONE.
[1620253189.437722] [holy7c16201:188611:0]          mpool.c:43   UCX  WARN  object 0x41f1000 was not returned to mpool ucp_requests
[1620253189.439185] [holy7c12611:88255:0]          mpool.c:43   UCX  WARN  object 0x288aa80 was not returned to mpool ucp_requests
[1620253189.439655] [holy7c12512:193692:0]          mpool.c:43   UCX  WARN  object 0x418d040 was not returned to mpool ucp_requests
[1620253189.440118] [holy7c16111:258416:0]          mpool.c:43   UCX  WARN  object 0x2be6c80 was not returned to mpool ucp_requests
[1620253189.440143] [holy7c16104:188492:0]          mpool.c:43   UCX  WARN  object 0x3627c80 was not returned to mpool ucp_requests
[1620253189.440160] [holy7c16104:188492:0]          mpool.c:43   UCX  WARN  object 0x3627e40 was not returned to mpool ucp_requests
[1620253189.440783] [holy7c16110:217345:0]          mpool.c:43   UCX  WARN  object 0x35b1c40 was not returned to mpool ucp_requests
[1620253189.440800] [holy7c16110:217345:0]          mpool.c:43   UCX  WARN  object 0x35b1fc0 was not returned to mpool ucp_requests
[1620253189.441309] [holy7c16106:64445:0]          mpool.c:43   UCX  WARN  object 0x348da40 was not returned to mpool ucp_requests
[1620253189.445210] [holy7c12605:244883:0]          mpool.c:43   UCX  WARN  object 0x32bb000 was not returned to mpool ucp_requests