     Program PWSCF v.6.5 starts on  5May2021 at 17:59:43

     R & G space division:  proc/nbgrp/npool/nimage =      20
     Reading input from YBCO_CuO_cleave_5.0_sep_scf.pwi
Warning: card &IONS ignored
Warning: card     ION_DYNAMICS = 'BFGS' ignored
Warning: card / ignored
Warning: card &CELL ignored
Warning: card     CELL_DYNAMICS = 'BFGS' ignored
Warning: card / ignored

     Current dimensions of program PWSCF are:
     Max number of different atomic species (ntypx) = 10
     Max number of k-points (npk) =  40000
     Max angular momentum in pseudopotentials (lmaxx) =  3

     Message from routine setup:
     using ibrav=0 with symmetry is DISCOURAGED, use correct ibrav instead

     bravais-lattice index     =            0
     lattice parameter (alat)  =       7.3477  a.u.
     unit-cell volume          =    4854.4281 (a.u.)^3
     number of atoms/cell      =           28
     number of atomic types    =            4
     number of electrons       =       229.00
     number of Kohn-Sham states=          138
     kinetic-energy cutoff     =      60.0000  Ry
     charge density cutoff     =     720.0000  Ry
     convergence threshold     =      1.0E-06
     mixing beta               =       0.2000
     number of iterations used =           10  local-TF  mixing
     Exchange-correlation= SLA PW PBE PBE
                           (   1   4   3   4   0   0   0)

     celldm(1)=   7.347715  celldm(2)=   0.000000  celldm(3)=   0.000000
     celldm(4)=   0.000000  celldm(5)=   0.000000  celldm(6)=   0.000000

     crystal axes: (cart. coord. in units of alat)
               a(1) = (   1.000000   0.000000   0.000000 )
               a(2) = (   0.000000   0.975577   0.000000 )
               a(3) = (   0.000000   0.000000  12.543521 )

     reciprocal axes: (cart. coord. in units 2 pi/alat)
               b(1) = (  1.000000  0.000000  0.000000 )
               b(2) = (  0.000000  1.025034  0.000000 )
               b(3) = (  0.000000  0.000000  0.079722 )

     PseudoPot. # 1 for Ba read from file:
     /n/holyscratch01/hoffman_lab/ruizhe/YBCO_Project/pseudo/Ba.pbe-nsp-van.UPF
     MD5 check sum: 2b9c31dd849566dd297d80989662b7a0
     Pseudo is Ultrasoft + core correction, Zval = 10.0
     Generated by new atomic code, or converted to UPF format
     Using radial grid of  907 points,  6 beta functions with:
                l(1) =   0
                l(2) =   0
                l(3) =   1
                l(4) =   1
                l(5) =   2
                l(6) =   2
     Q(r) pseudized with  6 coefficients,  rinner =    1.200   1.200   1.200
                                                       1.200   1.200

     PseudoPot. # 2 for Cu read from file:
     /n/holyscratch01/hoffman_lab/ruizhe/YBCO_Project/pseudo/Cu.pbe-n-van_ak.UPF
     MD5 check sum: 34e3282627ffb533726feb647e090d62
     Pseudo is Ultrasoft + core correction, Zval = 11.0
     Generated by new atomic code, or converted to UPF format
     Using radial grid of  867 points,  6 beta functions with:
                l(1) =   0
                l(2) =   0
                l(3) =   1
                l(4) =   1
                l(5) =   2
                l(6) =   2
     Q(r) pseudized with  8 coefficients,  rinner =    1.400   1.400   1.400
                                                       1.400   1.400

     PseudoPot. # 3 for O  read from file:
     /n/holyscratch01/hoffman_lab/ruizhe/YBCO_Project/pseudo/O.pbe-van_ak.UPF
     MD5 check sum: 783ce7fe4c79b6a4916957118fed0856
     Pseudo is Ultrasoft, Zval =  6.0
     Generated by new atomic code, or converted to UPF format
     Using radial grid of  737 points,  4 beta functions with:
                l(1) =   0
                l(2) =   0
                l(3) =   1
                l(4) =   1
     Q(r) pseudized with  8 coefficients,  rinner =    0.800   0.800   0.800

     PseudoPot. # 4 for Y  read from file:
     /n/holyscratch01/hoffman_lab/ruizhe/YBCO_Project/pseudo/Y.pbe-nsp-van.UPF
     MD5 check sum: 4412fed3ab108fed87a1b7d6a69a4a38
     Pseudo is Ultrasoft + core correction, Zval = 11.0
     Generated by new atomic code, or converted to UPF format
     Using radial grid of  885 points,  6 beta functions with:
                l(1) =   0
                l(2) =   0
                l(3) =   1
                l(4) =   1
                l(5) =   2
                l(6) =   2
     Q(r) pseudized with  6 coefficients,  rinner =    1.200   1.200   1.200
                                                       1.200   1.200

     atomic species   valence    mass     pseudopotential
        Ba            10.00   137.32700     Ba( 1.00)
        Cu            11.00    63.54600     Cu( 1.00)
        O              6.00    15.99900     O ( 1.00)
        Y             11.00    88.90584     Y ( 1.00)

      4 Sym. Ops. (no inversion) found

   Cartesian axes

     site n.     atom                  positions (alat units)
         1           O   tau(   1) = (   0.0000000   0.4877884  -0.0257983  )
         2           Cu  tau(   2) = (   0.0000000   0.0000000   0.0215779  )
         3           O   tau(   3) = (   0.0000000   0.0000000   0.5073114  )
         4           Ba  tau(   4) = (   0.4999996   0.4877884   0.5319677  )
         5           Cu  tau(   5) = (   0.0000000   0.0000000   1.0495845  )
         6           O   tau(   6) = (   0.4999996   0.0000000   1.1181579  )
         7           O   tau(   7) = (   0.0000000   0.4877884   1.1273137  )
         8           Y   tau(   8) = (   0.4999996   0.4877884   1.4938777  )
         9           O   tau(   9) = (   0.0000000   0.4877884   1.8497402  )
        10           O   tau(  10) = (   0.4999996   0.0000000   1.8692709  )
        11           Cu  tau(  11) = (   0.0000000   0.0000000   1.9417560  )
        12           Ba  tau(  12) = (   0.4999996   0.4877884   2.4526063  )
        13           O   tau(  13) = (   0.0000000   0.0000000   2.5103470  )
        14           O   tau(  14) = (   0.0000000   0.4877884   2.9968469  )
        15           Cu  tau(  15) = (   0.0000000   0.0000000   2.9968521  )
        16           O   tau(  16) = (   0.0000000   0.0000000   4.7692566  )
        17           Ba  tau(  17) = (   0.4999996   0.4877884   4.8269896  )
        18           Cu  tau(  18) = (   0.0000000   0.0000000   5.3378629  )
        19           O   tau(  19) = (   0.4999996   0.0000000   5.4103353  )
        20           O   tau(  20) = (   0.0000000   0.4877884   5.4298479  )
        21           Y   tau(  21) = (   0.4999996   0.4877884   5.7857130  )
        22           O   tau(  22) = (   0.0000000   0.4877884   6.1522770  )
        23           O   tau(  23) = (   0.4999996   0.0000000   6.1614457  )
        24           Cu  tau(  24) = (   0.0000000   0.0000000   6.2300242  )
        25           Ba  tau(  25) = (   0.4999996   0.4877884   6.7476255  )
        26           O   tau(  26) = (   0.0000000   0.0000000   6.7722819  )
        27           Cu  tau(  27) = (   0.0000000   0.0000000   7.2579871  )
        28           O   tau(  28) = (   0.0000000   0.4877884   7.3053684  )

     number of k points=    25  Gaussian smearing, width (Ry)=  0.0100
                       cart. coord. in units 2pi/alat
        k(    1) = (   0.0000000   0.0000000   0.0000000), wk =   0.0312500
        k(    2) = (   0.0000000   0.1281293   0.0000000), wk =   0.0625000
        k(    3) = (   0.0000000   0.2562585   0.0000000), wk =   0.0625000
        k(    4) = (   0.0000000   0.3843878   0.0000000), wk =   0.0625000
        k(    5) = (   0.0000000  -0.5125170   0.0000000), wk =   0.0312500
        k(    6) = (   0.1250000   0.0000000   0.0000000), wk =   0.0625000
        k(    7) = (   0.1250000   0.1281293   0.0000000), wk =   0.1250000
        k(    8) = (   0.1250000   0.2562585   0.0000000), wk =   0.1250000
        k(    9) = (   0.1250000   0.3843878   0.0000000), wk =   0.1250000
        k(   10) = (   0.1250000  -0.5125170   0.0000000), wk =   0.0625000
        k(   11) = (   0.2500000   0.0000000   0.0000000), wk =   0.0625000
        k(   12) = (   0.2500000   0.1281293   0.0000000), wk =   0.1250000
        k(   13) = (   0.2500000   0.2562585   0.0000000), wk =   0.1250000
        k(   14) = (   0.2500000   0.3843878   0.0000000), wk =   0.1250000
        k(   15) = (   0.2500000  -0.5125170   0.0000000), wk =   0.0625000
        k(   16) = (   0.3750000   0.0000000   0.0000000), wk =   0.0625000
        k(   17) = (   0.3750000   0.1281293   0.0000000), wk =   0.1250000
        k(   18) = (   0.3750000   0.2562585   0.0000000), wk =   0.1250000
        k(   19) = (   0.3750000   0.3843878   0.0000000), wk =   0.1250000
        k(   20) = (   0.3750000  -0.5125170   0.0000000), wk =   0.0625000
        k(   21) = (  -0.5000000   0.0000000   0.0000000), wk =   0.0312500
        k(   22) = (  -0.5000000   0.1281293   0.0000000), wk =   0.0625000
        k(   23) = (  -0.5000000   0.2562585   0.0000000), wk =   0.0625000
        k(   24) = (  -0.5000000   0.3843878   0.0000000), wk =   0.0625000
        k(   25) = (  -0.5000000  -0.5125170   0.0000000), wk =   0.0312500

     Initial potential from superposition of free atoms

     starting charge  228.84827, renormalised to  229.00000

     negative rho (up, down):  8.942E-02 0.000E+00
     Starting wfcs are  201 randomized atomic wfcs

     Self-consistent Calculation

     iteration #  1     ecut=    60.00 Ry     beta= 0.20
     Davidson diagonalization with overlap
     ethr =  1.00E-02,  avg # of iterations =  2.0

     negative rho (up, down):  8.729E-02 0.000E+00

     total energy              =   -1869.52012836 Ry
     Harris-Foulkes estimate   =   -1871.09998249 Ry
     estimated scf accuracy    <      13.46399222 Ry

[...]

     iteration # 30     ecut=    60.00 Ry     beta= 0.20
     Davidson diagonalization with overlap
     c_bands:  1 eigenvalues not converged
     ethr =  3.79E-08,  avg # of iterations =  5.2

[...]

     total energy              =   -1868.72200198 Ry
     Harris-Foulkes estimate   =   -1868.72200197 Ry
     estimated scf accuracy    <       0.00000142 Ry

     iteration # 34     ecut=    60.00 Ry     beta= 0.20
     Davidson diagonalization with overlap
     ethr =  6.21E-10,  avg # of iterations =  2.0

[...]

     End of self-consistent calculation

          k = 0.0000 0.0000 0.0000 ( 37989 PWs)   bands (ev):

   -38.7229 -38.6472 -23.3527 -23.3403 -23.2493 -23.1933 -19.2560 -19.1892
   -18.7284 -18.7195 -18.6533 -18.6402 -16.0478 -15.9981 -15.0900 -15.0368
   -14.8373 -14.8335 -14.8276 -14.7836 -14.7376 -14.5721 -14.5186 -14.3348
   -14.3225 -14.0766 -12.7916  -8.6228  -8.5734  -8.5543  -8.4072  -8.3450
    -8.3333  -8.3181  -8.3065  -8.1667  -8.1435  -8.1215  -8.0396  -2.6794
    -2.6491  -2.6277  -2.5999  -2.5088  -2.4539  -2.4355  -2.4263  -2.3922
    -2.3526  -2.3159  -2.2618  -2.1408  -1.4846  -1.4226  -1.0333  -1.0166
    -0.9675  -0.7015  -0.6446  -0.6440  -0.6350  -0.6066  -0.5998  -0.4455
    -0.4433  -0.4117  -0.3915  -0.3733  -0.3666  -0.3128  -0.3081  -0.2820
    -0.2727  -0.1823  -0.1790  -0.1672  -0.1657  -0.1427  -0.0817  -0.0661
    -0.0283  -0.0244  -0.0144  -0.0012   0.0492   0.0857   0.0902   0.1070
     0.3851   0.5304   0.5744   0.6397   0.6399   0.6819   0.7123   0.7500
     0.7887   0.7967   0.8064   0.8921   0.8989   0.9121   0.9238   0.9260
     0.9685   1.3474   1.3889   1.4097   1.4172   1.5004   1.6092   1.6160
     1.6972   1.9138   2.0527   2.1001   2.1378   2.1805   2.2096   4.6006
     4.7217   4.7582   5.2860   5.3495   5.8663   6.0942   6.1097   6.3095
     6.3306   6.8200   6.9687   7.5706   7.5936   7.6439   7.7844   8.0113
     8.0646   8.0856

[...]

          k = 0.3750-0.5125 0.0000 ( 38222 PWs)   bands (ev):

[...]

          k =-0.5000 0.0000 0.0000 ( 38122 PWs)   bands (ev):

[...]

          k =-0.5000-0.5125 0.0000 ( 38244 PWs)   bands (ev):

   -38.6950 -38.6193 -23.1107 -23.0981 -23.0396 -22.9548 -19.2789 -19.2514
   -19.2012 -19.1807 -18.7752 -18.7052 -15.1021 -15.0924 -15.0662 -15.0277
   -14.8255 -14.8245 -14.5901 -14.5475 -14.5372 -14.5215 -14.4679 -14.2188
   -14.2004 -14.1357 -12.9057  -9.3045  -9.2930  -9.1176  -9.0157  -9.0038
    -8.9458  -8.8343  -8.8189  -8.5523  -8.5474  -8.5144  -8.4106  -4.7925
    -4.7293  -4.2089  -4.1293  -3.3033  -3.2963  -3.2878  -3.1061  -3.0628
    -2.9167  -2.9046  -2.8279  -2.7815  -2.4182  -2.4166  -2.3959  -2.3490
    -2.1136  -1.6448  -1.6009  -1.5251  -1.4760  -1.3854  -1.3041  -1.2923
    -1.2825  -1.1835  -1.1590  -1.1549  -1.0809  -1.0663  -1.0260  -0.4372
    -0.4292  -0.4262  -0.3241  -0.1031   0.2000   0.3314   0.6069   0.6720
     0.8122   0.8560   0.9043   0.9212   0.9374   0.9508   0.9596   0.9696
     0.9896   1.0677   1.1671   1.1956   1.2423   1.2552   1.2836   1.4408
     1.4634   1.4695   1.4760   1.4828   1.4879   1.6043   1.6895   1.7976
     1.9850   2.0035   2.0928   2.1084   2.1739   2.2080   2.3773   2.3899
     2.3945   2.4846   2.7166   4.1600   4.1883   4.2737   4.2871   5.2300
     5.2424   5.5063   5.9993   6.1150   7.4568   7.4852   7.8039   7.8246
     8.1423   8.3319   8.5791   8.6557   8.6867   8.6900   8.8695   8.9347
     8.9447   9.0251

     the Fermi energy is     2.3891 ev

!    total energy              =   -1868.72200139 Ry
     Harris-Foulkes estimate   =   -1868.72200207 Ry
     estimated scf accuracy    <       0.00000082 Ry

     The total energy is the sum of the following terms:

     one-electron contribution =  -24149.75869041 Ry
     hartree contribution      =   12224.57959763 Ry
     xc contribution           =    -642.19841531 Ry
     ewald contribution        =   10698.66622660 Ry
     smearing contrib. (-TS)   =      -0.01071989 Ry

     convergence has been achieved in  34 iterations

     negative rho (up, down):  9.039E-02 0.000E+00

     Forces acting on atoms (cartesian axes, Ry/au):

     atom    1 type  3   force =     0.00000000    0.00000000   -0.00044017
     atom    2 type  2   force =     0.00000000    0.00000000    0.00177767
     atom    3 type  3   force =     0.00000000    0.00000000    0.00036210
     atom    4 type  1   force =     0.00000000    0.00000000   -0.00025231
     atom    5 type  2   force =     0.00000000    0.00000000   -0.00000864
     atom    6 type  3   force =     0.00000000    0.00000000    0.00137691
     atom    7 type  3   force =     0.00000000    0.00000000    0.00106583
     atom    8 type  4   force =     0.00000000    0.00000000   -0.00279939
     atom    9 type  3   force =     0.00000000    0.00000000    0.00496339
     atom   10 type  3   force =     0.00000000    0.00000000    0.00335703
     atom   11 type  2   force =     0.00000000    0.00000000   -0.00254676
     atom   12 type  1   force =     0.00000000    0.00000000    0.01658583
     atom   13 type  3   force =     0.00000000    0.00000000   -0.01932769
     atom   14 type  3   force =     0.00000000    0.00000000    0.02153798
     atom   15 type  2   force =     0.00000000    0.00000000   -0.02464525
     atom   16 type  3   force =     0.00000000    0.00000000    0.01812372
     atom   17 type  1   force =     0.00000000    0.00000000   -0.00190319
     atom   18 type  2   force =     0.00000000    0.00000000   -0.02225424
     atom   19 type  3   force =     0.00000000    0.00000000    0.00421380
     atom   20 type  3   force =     0.00000000    0.00000000    0.00304770
     atom   21 type  4   force =     0.00000000    0.00000000   -0.00095553
     atom   22 type  3   force =     0.00000000    0.00000000   -0.00056715
     atom   23 type  3   force =     0.00000000    0.00000000    0.00080475
     atom   24 type  2   force =     0.00000000    0.00000000   -0.00000353
     atom   25 type  1   force =     0.00000000    0.00000000    0.00005995
     atom   26 type  3   force =     0.00000000    0.00000000   -0.00203499
     atom   27 type  2   force =     0.00000000    0.00000000    0.00015280
     atom   28 type  3   force =     0.00000000    0.00000000    0.00030938

     Total force =     0.051354     Total SCF correction =     0.004433

     Computing stress (Cartesian axis) and pressure

     negative rho (up, down):  9.039E-02 0.000E+00
          total   stress  (Ry/bohr**3)                   (kbar)     P=       -7.55
  -0.00000844   0.00000000   0.00000000           -1.24        0.00        0.00
   0.00000000  -0.00011316   0.00000000            0.00      -16.65        0.00
   0.00000000   0.00000000  -0.00003246            0.00        0.00       -4.78

     General routines

     Parallel routines

   This run was terminated on:  18:10:24   5May2021

   JOB DONE.
[1620252624.644050] [holy7c10201:145021:0]          mpool.c:43   UCX  WARN  object 0x453b040 was not returned to mpool ucp_requests
[1620252624.647066] [holy7c08604:22297:0]          mpool.c:43   UCX  WARN  object 0x2be26c0 was not returned to mpool ucp_requests
[1620252624.647085] [holy7c08604:22297:0]          mpool.c:43   UCX  WARN  object 0x2be2c00 was not returned to mpool ucp_requests
[1620252624.645671] [holy7c08509:29389:0]          mpool.c:43   UCX  WARN  object 0x4497440 was not returned to mpool ucp_requests
[1620252624.647220] [holy7c08602:42334:0]          mpool.c:43   UCX  WARN  object 0x29a0fc0 was not returned to mpool ucp_requests
[1620252624.645277] [holy7c08605:197111:0]          mpool.c:43   UCX  WARN  object 0x2b44dc0 was not returned to mpool ucp_requests
[1620252624.651583] [holy7c10101:161175:0]          mpool.c:43   UCX  WARN  object 0x365a640 was not returned to mpool ucp_requests
[1620252624.651611] [holy7c10101:161175:0]          mpool.c:43   UCX  WARN  object 0x365a9c0 was not returned to mpool ucp_requests
[1620252624.645610] [holy7c08509:29390:0]          mpool.c:43   UCX  WARN  object 0x36bc340 was not returned to mpool ucp_requests
[1620252624.645628] [holy7c08509:29390:0]          mpool.c:43   UCX  WARN  object 0x36bca40 was not returned to mpool ucp_requests