     Program PWSCF v.6.5 starts on  5May2021 at 17:29:57

     R & G space division:  proc/nbgrp/npool/nimage =      20
     Reading input from YBCO_BaO_cleave_5.5_sep_scf.pwi
Warning: card &IONS ignored
Warning: card     ION_DYNAMICS = 'BFGS' ignored
Warning: card / ignored
Warning: card &CELL ignored
Warning: card     CELL_DYNAMICS = 'BFGS' ignored
Warning: card / ignored

     Current dimensions of program PWSCF are:
     Max number of different atomic species (ntypx) = 10
     Max number of k-points (npk) =  40000
     Max angular momentum in pseudopotentials (lmaxx) =  3

     Message from routine setup:
     using ibrav=0 with symmetry is DISCOURAGED, use correct ibrav instead

     bravais-lattice index     =            0
     lattice parameter (alat)  =       7.3477  a.u.
     unit-cell volume          =    4904.1944 (a.u.)^3
     number of atoms/cell      =           28
     number of atomic types    =            4
     number of electrons       =       229.00
     number of Kohn-Sham states=          138
     kinetic-energy cutoff     =      60.0000  Ry
     charge density cutoff     =     720.0000  Ry
     convergence threshold     =      1.0E-06
     mixing beta               =       0.2000
     number of iterations used =           10  local-TF  mixing
     Exchange-correlation= SLA PW PBE PBE
                           (   1   4   3   4   0   0   0)

     celldm(1)=   7.347715  celldm(2)=   0.000000  celldm(3)=   0.000000
     celldm(4)=   0.000000  celldm(5)=   0.000000  celldm(6)=   0.000000

     crystal axes: (cart. coord. in units of alat)
               a(1) = (   1.000000   0.000000   0.000000 )
               a(2) = (   0.000000   0.975577   0.000000 )
               a(3) = (   0.000000   0.000000  12.672114 )

     reciprocal axes: (cart. coord. in units 2 pi/alat)
               b(1) = (  1.000000  0.000000  0.000000 )
               b(2) = (  0.000000  1.025034  0.000000 )
               b(3) = (  0.000000  0.000000  0.078913 )

     PseudoPot. # 1 for Ba read from file:
     /n/holyscratch01/hoffman_lab/ruizhe/YBCO_Project/pseudo/Ba.pbe-nsp-van.UPF
     MD5 check sum: 2b9c31dd849566dd297d80989662b7a0
     Pseudo is Ultrasoft + core correction, Zval = 10.0
     Generated by new atomic code, or converted to UPF format
     Using radial grid of  907 points,  6 beta functions with:
                l(1) =   0
                l(2) =   0
                l(3) =   1
                l(4) =   1
                l(5) =   2
                l(6) =   2
     Q(r) pseudized with  6 coefficients,  rinner =    1.200   1.200   1.200
                                                       1.200   1.200

     PseudoPot. # 2 for Cu read from file:
     /n/holyscratch01/hoffman_lab/ruizhe/YBCO_Project/pseudo/Cu.pbe-n-van_ak.UPF
     MD5 check sum: 34e3282627ffb533726feb647e090d62
     Pseudo is Ultrasoft + core correction, Zval = 11.0
     Generated by new atomic code, or converted to UPF format
     Using radial grid of  867 points,  6 beta functions with:
                l(1) =   0
                l(2) =   0
                l(3) =   1
                l(4) =   1
                l(5) =   2
                l(6) =   2
     Q(r) pseudized with  8 coefficients,  rinner =    1.400   1.400   1.400
                                                       1.400   1.400

     PseudoPot. # 3 for O  read from file:
     /n/holyscratch01/hoffman_lab/ruizhe/YBCO_Project/pseudo/O.pbe-van_ak.UPF
     MD5 check sum: 783ce7fe4c79b6a4916957118fed0856
     Pseudo is Ultrasoft, Zval =  6.0
     Generated by new atomic code, or converted to UPF format
     Using radial grid of  737 points,  4 beta functions with:
                l(1) =   0
                l(2) =   0
                l(3) =   1
                l(4) =   1
     Q(r) pseudized with  8 coefficients,  rinner =    0.800   0.800   0.800

     PseudoPot. # 4 for Y  read from file:
     /n/holyscratch01/hoffman_lab/ruizhe/YBCO_Project/pseudo/Y.pbe-nsp-van.UPF
     MD5 check sum: 4412fed3ab108fed87a1b7d6a69a4a38
     Pseudo is Ultrasoft + core correction, Zval = 11.0
     Generated by new atomic code, or converted to UPF format
     Using radial grid of  885 points,  6 beta functions with:
                l(1) =   0
                l(2) =   0
                l(3) =   1
                l(4) =   1
                l(5) =   2
                l(6) =   2
     Q(r) pseudized with  6 coefficients,  rinner =    1.200   1.200   1.200
                                                       1.200   1.200

     atomic species   valence    mass     pseudopotential
        Ba            10.00   137.32700     Ba( 1.00)
        Cu            11.00    63.54600     Cu( 1.00)
        O              6.00    15.99900     O ( 1.00)
        Y             11.00    88.90584     Y ( 1.00)

      4 Sym. Ops. (no inversion) found

   Cartesian axes

     site n.     atom                  positions (alat units)
         1           O   tau(   1) = (   0.0000000   0.4877884  -0.0257983  )
         2           Cu  tau(   2) = (   0.0000000   0.0000000   0.0215779  )
         3           O   tau(   3) = (   0.0000000   0.0000000   0.5073114  )
         4           Ba  tau(   4) = (   0.4999996   0.4877884   0.5319677  )
         5           Cu  tau(   5) = (   0.0000000   0.0000000   1.0495845  )
         6           O   tau(   6) = (   0.4999996   0.0000000   1.1181579  )
         7           O   tau(   7) = (   0.0000000   0.4877884   1.1273137  )
         8           Y   tau(   8) = (   0.4999996   0.4877884   1.4938777  )
         9           O   tau(   9) = (   0.0000000   0.4877884   1.8497402  )
        10           O   tau(  10) = (   0.4999996   0.0000000   1.8692709  )
        11           Cu  tau(  11) = (   0.0000000   0.0000000   1.9417560  )
        12           Ba  tau(  12) = (   0.4999996   0.4877884   2.4526063  )
        13           O   tau(  13) = (   0.0000000   0.0000000   2.5103470  )
        14           O   tau(  14) = (   0.0000000   0.4877884   2.9968469  )
        15           Cu  tau(  15) = (   0.0000000   0.0000000   2.9968521  )
        16           O   tau(  16) = (   0.0000000   0.0000000   3.4833288  )
        17           Ba  tau(  17) = (   0.4999996   0.4877884   3.5410618  )
        18           Cu  tau(  18) = (   0.0000000   0.0000000   5.4664557  )
        19           O   tau(  19) = (   0.4999996   0.0000000   5.5389280  )
        20           O   tau(  20) = (   0.0000000   0.4877884   5.5584407  )
        21           Y   tau(  21) = (   0.4999996   0.4877884   5.9143058  )
        22           O   tau(  22) = (   0.0000000   0.4877884   6.2808698  )
        23           O   tau(  23) = (   0.4999996   0.0000000   6.2900384  )
        24           Cu  tau(  24) = (   0.0000000   0.0000000   6.3586170  )
        25           Ba  tau(  25) = (   0.4999996   0.4877884   6.8762183  )
        26           O   tau(  26) = (   0.0000000   0.0000000   6.9008747  )
        27           Cu  tau(  27) = (   0.0000000   0.0000000   7.3865799  )
        28           O   tau(  28) = (   0.0000000   0.4877884   7.4339612  )

     number of k points=    25  Gaussian smearing, width (Ry)=  0.0100
                       cart. coord. in units 2pi/alat
        k(    1) = (   0.0000000   0.0000000   0.0000000), wk =   0.0312500
        k(    2) = (   0.0000000   0.1281293   0.0000000), wk =   0.0625000
        k(    3) = (   0.0000000   0.2562585   0.0000000), wk =   0.0625000
        k(    4) = (   0.0000000   0.3843878   0.0000000), wk =   0.0625000
        k(    5) = (   0.0000000  -0.5125170   0.0000000), wk =   0.0312500
        k(    6) = (   0.1250000   0.0000000   0.0000000), wk =   0.0625000
        k(    7) = (   0.1250000   0.1281293   0.0000000), wk =   0.1250000
        k(    8) = (   0.1250000   0.2562585   0.0000000), wk =   0.1250000
        k(    9) = (   0.1250000   0.3843878   0.0000000), wk =   0.1250000
        k(   10) = (   0.1250000  -0.5125170   0.0000000), wk =   0.0625000
        k(   11) = (   0.2500000   0.0000000   0.0000000), wk =   0.0625000
        k(   12) = (   0.2500000   0.1281293   0.0000000), wk =   0.1250000
        k(   13) = (   0.2500000   0.2562585   0.0000000), wk =   0.1250000
        k(   14) = (   0.2500000   0.3843878   0.0000000), wk =   0.1250000
        k(   15) = (   0.2500000  -0.5125170   0.0000000), wk =   0.0625000
        k(   16) = (   0.3750000   0.0000000   0.0000000), wk =   0.0625000
        k(   17) = (   0.3750000   0.1281293   0.0000000), wk =   0.1250000
        k(   18) = (   0.3750000   0.2562585   0.0000000), wk =   0.1250000
        k(   19) = (   0.3750000   0.3843878   0.0000000), wk =   0.1250000
        k(   20) = (   0.3750000  -0.5125170   0.0000000), wk =   0.0625000
        k(   21) = (  -0.5000000   0.0000000   0.0000000), wk =   0.0312500
        k(   22) = (  -0.5000000   0.1281293   0.0000000), wk =   0.0625000
        k(   23) = (  -0.5000000   0.2562585   0.0000000), wk =   0.0625000
        k(   24) = (  -0.5000000   0.3843878   0.0000000), wk =   0.0625000
        k(   25) = (  -0.5000000  -0.5125170   0.0000000), wk =   0.0312500

     Initial potential from superposition of free atoms

     starting charge  228.84827, renormalised to  229.00000

     negative rho (up, down):  8.947E-02 0.000E+00
     Starting wfcs are  201 randomized atomic wfcs

     Self-consistent Calculation

     iteration #  1     ecut=    60.00 Ry     beta= 0.20
     Davidson diagonalization with overlap
     ethr =  1.00E-02,  avg # of iterations =  2.0

     negative rho (up, down):  8.737E-02 0.000E+00

     total energy              =   -1869.57919167 Ry
     Harris-Foulkes estimate   =   -1871.20135106 Ry
     estimated scf accuracy    <      16.34794865 Ry

[...]

     iteration # 14     ecut=    60.00 Ry     beta= 0.20
     Davidson diagonalization with overlap
     c_bands:  1 eigenvalues not converged
     ethr =  2.53E-05,  avg # of iterations =  5.5

[...]

     iteration # 26     ecut=    60.00 Ry     beta= 0.20
     Davidson diagonalization with overlap
     c_bands:  1 eigenvalues not converged
     ethr =  5.03E-07,  avg # of iterations =  8.5

[...]

     total energy              =   -1868.76873622 Ry
     Harris-Foulkes estimate   =   -1868.76873545 Ry
     estimated scf accuracy    <       0.00000118 Ry

     iteration # 35     ecut=    60.00 Ry     beta= 0.20
     Davidson diagonalization with overlap
     ethr =  5.15E-10,  avg # of iterations =  2.5

[...]

     End of self-consistent calculation

          k = 0.0000 0.0000 0.0000 ( 38411 PWs)   bands (ev):

   -38.5651 -38.2048 -24.5458 -23.2180 -23.1885 -23.1271 -19.0999 -18.7107
   -18.5693 -18.5601 -18.2283 -18.2110 -15.8946 -15.6043 -15.2096 -14.9355
   -14.7147 -14.7019 -14.6799 -14.5037 -14.4955 -14.4187 -14.2000 -14.1948
   -14.1755 -13.9501 -13.9254  -9.8632  -9.3758  -9.3524  -8.4433  -8.4033
    -8.4017  -8.2102  -8.1835  -8.1831  -8.1553  -8.0807  -8.0574  -2.5232
    -2.4889  -2.3579  -2.3066  -2.3030  -2.3015  -2.2962  -2.2711  -2.2330
    -2.1582  -2.1174  -1.8982  -1.7667  -1.4102  -1.3252  -1.0259  -1.0003
    -0.9737  -0.9075  -0.8995  -0.8771  -0.5524  -0.5105  -0.5085  -0.4738
    -0.4714  -0.3778  -0.3365  -0.3135  -0.3079  -0.2938  -0.2100  -0.1571
    -0.1517  -0.1369  -0.1112  -0.0667  -0.0589  -0.0443  -0.0328   0.0002
     0.0652   0.0919   0.0956   0.1041   0.1160   0.2198   0.2209   0.3849
     0.4335   0.4849   0.6298   0.6434   0.7879   0.7943   0.8119   0.9122
     0.9258   0.9307   0.9600   0.9627   1.0337   1.0623   1.0753   1.1238
     1.2914   1.3123   1.4903   1.5135   1.5442   1.5985   1.6382   1.7427
     1.7592   1.7698   1.8995   1.9030   1.9422   2.2277   2.2281   3.6726
     4.7699   4.8417   4.8606   5.3363   5.4068   5.8987   6.2332   6.2686
     6.4200   6.7931   7.1184   7.2255   7.4858   7.7233   7.7340   7.9158
     8.0443   8.1325

[...]

          k = 0.3750-0.5125 0.0000 ( 38630 PWs)   bands (ev):

[...]

          k =-0.5000 0.0000 0.0000 ( 38486 PWs)   bands (ev):

[...]

          k =-0.5000-0.5125 0.0000 ( 38612 PWs)   bands (ev):

   -38.5372 -38.1767 -24.3406 -22.9759 -22.9462 -22.8917 -19.1193 -19.0923
   -18.7743 -18.7591 -18.6188 -18.2189 -14.9501 -14.9377 -14.7228 -14.7026
   -14.6938 -14.6885 -14.6652 -14.4488 -14.4349 -14.3828 -14.1590 -14.0886
   -14.0819 -14.0182 -13.8688 -10.3383  -9.9890  -9.7818  -9.1699  -9.1414
    -9.0269  -8.8808  -8.8542  -8.7256  -8.4250  -8.3915  -8.3815  -4.6339
    -4.4378  -4.0522  -3.6922  -3.6478  -3.1744  -3.1689  -2.9637  -2.7776
    -2.7355  -2.7337  -2.6548  -2.4208  -2.2866  -2.2824  -2.2779  -2.2596
    -1.9360  -1.8476  -1.5116  -1.4694  -1.3876  -1.3674  -1.2551  -1.1837
    -1.1622  -1.1082  -1.0256  -0.9513  -0.9469  -0.8290  -0.7576  -0.7196
    -0.6967  -0.3083  -0.3051  -0.0116   0.1535   0.2479   0.4594   0.6357
     0.8438   0.9449   0.9654   1.0651   1.0990   1.1250   1.1454   1.1524
     1.1644   1.1865   1.2590   1.3194   1.3242   1.3999   1.4106   1.5669
     1.5884   1.5987   1.6133   1.6169   1.6351   1.6516   1.6901   1.6911
     1.7013   1.9411   2.0354   2.0591   2.1155   2.1203   2.2236   2.2278
     2.5564   2.5651   3.9110   4.1265   4.3314   4.4189   4.4254   4.5697
     5.3642   5.3761   6.0650   6.1915   6.2660   6.4439   7.1669   7.8345
     7.9665   8.2821   8.4586   8.5485   8.6357   8.7050   8.7454   8.7932
     9.0522   9.1050

     the Fermi energy is     2.5262 ev

!    total energy              =   -1868.76873688 Ry
     Harris-Foulkes estimate   =   -1868.76873632 Ry
     estimated scf accuracy    <       0.00000056 Ry

     The total energy is the sum of the following terms:

     one-electron contribution =  -24456.73078684 Ry
     hartree contribution      =   12378.55961673 Ry
     xc contribution           =    -642.20332899 Ry
     ewald contribution        =   10851.61424784 Ry
     smearing contrib. (-TS)   =      -0.00848562 Ry

     convergence has been achieved in  35 iterations

     negative rho (up, down):  9.050E-02 0.000E+00

     Forces acting on atoms (cartesian axes, Ry/au):

     atom    1 type  3   force =     0.00000000    0.00000000   -0.00007709
     atom    2 type  2   force =     0.00000000    0.00000000   -0.00063798
     atom    3 type  3   force =     0.00000000    0.00000000   -0.00004613
     atom    4 type  1   force =     0.00000000    0.00000000   -0.00014253
     atom    5 type  2   force =     0.00000000    0.00000000   -0.00018762
     atom    6 type  3   force =     0.00000000    0.00000000    0.00049958
     atom    7 type  3   force =     0.00000000    0.00000000    0.00001237
     atom    8 type  4   force =     0.00000000    0.00000000   -0.00094971
     atom    9 type  3   force =     0.00000000    0.00000000    0.00135192
     atom   10 type  3   force =     0.00000000    0.00000000    0.00167928
     atom   11 type  2   force =     0.00000000    0.00000000   -0.00121642
     atom   12 type  1   force =     0.00000000    0.00000000   -0.00545396
     atom   13 type  3   force =     0.00000000    0.00000000    0.00310490
     atom   14 type  3   force =     0.00000000    0.00000000    0.01724746
     atom   15 type  2   force =     0.00000000    0.00000000   -0.01611215
     atom   16 type  3   force =     0.00000000    0.00000000    0.04283911
     atom   17 type  1   force =     0.00000000    0.00000000   -0.04106828
     atom   18 type  2   force =     0.00000000    0.00000000    0.00077700
     atom   19 type  3   force =     0.00000000    0.00000000    0.01898604
     atom   20 type  3   force =     0.00000000    0.00000000    0.01031733
     atom   21 type  4   force =     0.00000000    0.00000000   -0.04267955
     atom   22 type  3   force =     0.00000000    0.00000000    0.00408575
     atom   23 type  3   force =     0.00000000    0.00000000    0.00692179
     atom   24 type  2   force =     0.00000000    0.00000000    0.00205111
     atom   25 type  1   force =     0.00000000    0.00000000   -0.00187313
     atom   26 type  3   force =     0.00000000    0.00000000    0.00130866
     atom   27 type  2   force =     0.00000000    0.00000000   -0.00119191
     atom   28 type  3   force =     0.00000000    0.00000000    0.00045416

     Total force =     0.080565     Total SCF correction =     0.002877

     Computing stress (Cartesian axis) and pressure

     negative rho (up, down):  9.050E-02 0.000E+00
          total   stress  (Ry/bohr**3)                   (kbar)     P=       -6.44
  -0.00007901   0.00000000   0.00000000          -11.62        0.00        0.00
   0.00000000  -0.00003604   0.00000000            0.00       -5.30        0.00
   0.00000000   0.00000000  -0.00001630            0.00        0.00       -2.40

     General routines

     Parallel routines

   This run was terminated on:  17:41:33   5May2021

   JOB DONE.
[1620250893.349924] [holy7c10404:94419:0]          mpool.c:43   UCX  WARN  object 0x40a8c80 was not returned to mpool ucp_requests
[1620250893.349503] [holy7c10410:212169:0]          mpool.c:43   UCX  WARN  object 0x2bc3a00 was not returned to mpool ucp_requests
[1620250893.350117] [holy7c10204:11150:0]          mpool.c:43   UCX  WARN  object 0x320d740 was not returned to mpool ucp_requests
[1620250893.350137] [holy7c10204:11150:0]          mpool.c:43   UCX  WARN  object 0x320d900 was not returned to mpool ucp_requests
[1620250893.357893] [holy7c10311:238136:0]          mpool.c:43   UCX  WARN  object 0x39d2a40 was not returned to mpool ucp_requests
[1620250893.357553] [holy7c04306:60554:0]          mpool.c:43   UCX  WARN  object 0x32a4fc0 was not returned to mpool ucp_requests
[1620250893.356897] [holy7c04306:60555:0]          mpool.c:43   UCX  WARN  object 0x3e37f80 was not returned to mpool ucp_requests
[1620250893.357152] [holy7c10312:7541 :0]          mpool.c:43   UCX  WARN  object 0x35b0b00 was not returned to mpool ucp_requests
[1620250893.357177] [holy7c10312:7541 :0]          mpool.c:43   UCX  WARN  object 0x35b0cc0 was not returned to mpool ucp_requests