     Program PWSCF v.6.5 starts on  5May2021 at 18:29:33

     R & G space division:  proc/nbgrp/npool/nimage =      20
     Reading input from YBCO_Y_cleave_7.0_sep_scf.pwi
Warning: card &IONS ignored
Warning: card     ION_DYNAMICS = 'BFGS' ignored
Warning: card / ignored
Warning: card &CELL ignored
Warning: card     CELL_DYNAMICS = 'BFGS' ignored
Warning: card / ignored

     Current dimensions of program PWSCF are:
     Max number of different atomic species (ntypx) = 10
     Max number of k-points (npk) =  40000
     Max angular momentum in pseudopotentials (lmaxx) =  3

     Message from routine setup:
     using ibrav=0 with symmetry is DISCOURAGED, use correct ibrav instead

     bravais-lattice index     =            0
     lattice parameter (alat)  =       7.3477  a.u.
     unit-cell volume          =    5053.4933 (a.u.)^3
     number of atoms/cell      =           28
     number of atomic types    =            4
     number of electrons       =       229.00
     number of Kohn-Sham states=          138
     kinetic-energy cutoff     =      60.0000  Ry
     charge density cutoff     =     720.0000  Ry
     convergence threshold     =      1.0E-06
     mixing beta               =       0.2000
     number of iterations used =           10  local-TF  mixing
     Exchange-correlation= SLA PW PBE PBE
                           (   1   4   3   4   0   0   0)

     celldm(1)=   7.347715  celldm(2)=   0.000000  celldm(3)=   0.000000
     celldm(4)=   0.000000  celldm(5)=   0.000000  celldm(6)=   0.000000

     crystal axes: (cart. coord. in units of alat)
               a(1) = (   1.000000   0.000000   0.000000 )
               a(2) = (   0.000000   0.975577   0.000000 )
               a(3) = (   0.000000   0.000000  13.057892 )

     reciprocal axes: (cart. coord. in units 2 pi/alat)
               b(1) = (  1.000000  0.000000  0.000000 )
               b(2) = (  0.000000  1.025034  0.000000 )
               b(3) = (  0.000000  0.000000  0.076582 )

     PseudoPot. # 1 for Ba read from file:
     /n/holyscratch01/hoffman_lab/ruizhe/YBCO_Project/pseudo/Ba.pbe-nsp-van.UPF
     MD5 check sum: 2b9c31dd849566dd297d80989662b7a0
     Pseudo is Ultrasoft + core correction, Zval = 10.0
     Generated by new atomic code, or converted to UPF format
     Using radial grid of  907 points,  6 beta functions with:
                l(1) =   0
                l(2) =   0
                l(3) =   1
                l(4) =   1
                l(5) =   2
                l(6) =   2
     Q(r) pseudized with  6 coefficients,  rinner =    1.200   1.200   1.200
                                                       1.200   1.200

     PseudoPot. # 2 for Cu read from file:
     /n/holyscratch01/hoffman_lab/ruizhe/YBCO_Project/pseudo/Cu.pbe-n-van_ak.UPF
     MD5 check sum: 34e3282627ffb533726feb647e090d62
     Pseudo is Ultrasoft + core correction, Zval = 11.0
     Generated by new atomic code, or converted to UPF format
     Using radial grid of  867 points,  6 beta functions with:
                l(1) =   0
                l(2) =   0
                l(3) =   1
                l(4) =   1
                l(5) =   2
                l(6) =   2
     Q(r) pseudized with  8 coefficients,  rinner =    1.400   1.400   1.400
                                                       1.400   1.400

     PseudoPot. # 3 for O  read from file:
     /n/holyscratch01/hoffman_lab/ruizhe/YBCO_Project/pseudo/O.pbe-van_ak.UPF
     MD5 check sum: 783ce7fe4c79b6a4916957118fed0856
     Pseudo is Ultrasoft, Zval =  6.0
     Generated by new atomic code, or converted to UPF format
     Using radial grid of  737 points,  4 beta functions with:
                l(1) =   0
                l(2) =   0
                l(3) =   1
                l(4) =   1
     Q(r) pseudized with  8 coefficients,  rinner =    0.800   0.800   0.800

     PseudoPot. # 4 for Y  read from file:
     /n/holyscratch01/hoffman_lab/ruizhe/YBCO_Project/pseudo/Y.pbe-nsp-van.UPF
     MD5 check sum: 4412fed3ab108fed87a1b7d6a69a4a38
     Pseudo is Ultrasoft + core correction, Zval = 11.0
     Generated by new atomic code, or converted to UPF format
     Using radial grid of  885 points,  6 beta functions with:
                l(1) =   0
                l(2) =   0
                l(3) =   1
                l(4) =   1
                l(5) =   2
                l(6) =   2
     Q(r) pseudized with  6 coefficients,  rinner =    1.200   1.200   1.200
                                                       1.200   1.200

     atomic species   valence    mass     pseudopotential
        Ba            10.00   137.32700     Ba( 1.00)
        Cu            11.00    63.54600     Cu( 1.00)
        O              6.00    15.99900     O ( 1.00)
        Y             11.00    88.90584     Y ( 1.00)

      4 Sym. Ops. (no inversion) found

   Cartesian axes

     site n.     atom                  positions (alat units)
         1           O   tau(   1) = (   0.0000000   0.4877884  -0.0257983  )
         2           Cu  tau(   2) = (   0.0000000   0.0000000   0.0215779  )
         3           O   tau(   3) = (   0.0000000   0.0000000   0.5073114  )
         4           Ba  tau(   4) = (   0.4999996   0.4877884   0.5319677  )
         5           Cu  tau(   5) = (   0.0000000   0.0000000   1.0495845  )
         6           O   tau(   6) = (   0.4999996   0.0000000   1.1181579  )
         7           O   tau(   7) = (   0.0000000   0.4877884   1.1273137  )
         8           Y   tau(   8) = (   0.4999996   0.4877884   1.4938777  )
         9           O   tau(   9) = (   0.0000000   0.4877884   1.8497402  )
        10           O   tau(  10) = (   0.4999996   0.0000000   1.8692709  )
        11           Cu  tau(  11) = (   0.0000000   0.0000000   1.9417560  )
        12           Ba  tau(  12) = (   0.4999996   0.4877884   2.4526063  )
        13           O   tau(  13) = (   0.0000000   0.0000000   2.5103470  )
        14           O   tau(  14) = (   0.0000000   0.4877884   2.9968469  )
        15           Cu  tau(  15) = (   0.0000000   0.0000000   2.9968521  )
        16           O   tau(  16) = (   0.0000000   0.0000000   3.4833288  )
        17           Ba  tau(  17) = (   0.4999996   0.4877884   3.5410618  )
        18           Cu  tau(  18) = (   0.0000000   0.0000000   4.0519352  )
        19           O   tau(  19) = (   0.4999996   0.0000000   4.1244075  )
        20           O   tau(  20) = (   0.0000000   0.4877884   4.1439202  )
        21           Y   tau(  21) = (   0.4999996   0.4877884   4.4997853  )
        22           O   tau(  22) = (   0.0000000   0.4877884   6.6666481  )
        23           O   tau(  23) = (   0.4999996   0.0000000   6.6758168  )
        24           Cu  tau(  24) = (   0.0000000   0.0000000   6.7443953  )
        25           Ba  tau(  25) = (   0.4999996   0.4877884   7.2619966  )
        26           O   tau(  26) = (   0.0000000   0.0000000   7.2866530  )
        27           Cu  tau(  27) = (   0.0000000   0.0000000   7.7723582  )
        28           O   tau(  28) = (   0.0000000   0.4877884   7.8197395  )

     number of k points=    25  Gaussian smearing, width (Ry)=  0.0100
                       cart. coord. in units 2pi/alat
        k(    1) = (   0.0000000   0.0000000   0.0000000), wk =   0.0312500
        k(    2) = (   0.0000000   0.1281293   0.0000000), wk =   0.0625000
        k(    3) = (   0.0000000   0.2562585   0.0000000), wk =   0.0625000
        k(    4) = (   0.0000000   0.3843878   0.0000000), wk =   0.0625000
        k(    5) = (   0.0000000  -0.5125170   0.0000000), wk =   0.0312500
        k(    6) = (   0.1250000   0.0000000   0.0000000), wk =   0.0625000
        k(    7) = (   0.1250000   0.1281293   0.0000000), wk =   0.1250000
        k(    8) = (   0.1250000   0.2562585   0.0000000), wk =   0.1250000
        k(    9) = (   0.1250000   0.3843878   0.0000000), wk =   0.1250000
        k(   10) = (   0.1250000  -0.5125170   0.0000000), wk =   0.0625000
        k(   11) = (   0.2500000   0.0000000   0.0000000), wk =   0.0625000
        k(   12) = (   0.2500000   0.1281293   0.0000000), wk =   0.1250000
        k(   13) = (   0.2500000   0.2562585   0.0000000), wk =   0.1250000
        k(   14) = (   0.2500000   0.3843878   0.0000000), wk =   0.1250000
        k(   15) = (   0.2500000  -0.5125170   0.0000000), wk =   0.0625000
        k(   16) = (   0.3750000   0.0000000   0.0000000), wk =   0.0625000
        k(   17) = (   0.3750000   0.1281293   0.0000000), wk =   0.1250000
        k(   18) = (   0.3750000   0.2562585   0.0000000), wk =   0.1250000
        k(   19) = (   0.3750000   0.3843878   0.0000000), wk =   0.1250000
        k(   20) = (   0.3750000  -0.5125170   0.0000000), wk =   0.0625000
        k(   21) = (  -0.5000000   0.0000000   0.0000000), wk =   0.0312500
        k(   22) = (  -0.5000000   0.1281293   0.0000000), wk =   0.0625000
        k(   23) = (  -0.5000000   0.2562585   0.0000000), wk =   0.0625000
        k(   24) = (  -0.5000000   0.3843878   0.0000000), wk =   0.0625000
        k(   25) = (  -0.5000000  -0.5125170   0.0000000), wk =   0.0312500

     Initial potential from superposition of free atoms

     starting charge  228.84827, renormalised to  229.00000

     negative rho (up, down):  8.967E-02 0.000E+00
     Starting wfcs are  201 randomized atomic wfcs

     Self-consistent Calculation

     iteration #  1     ecut=    60.00 Ry     beta= 0.20
     Davidson diagonalization with overlap
     ethr =  1.00E-02,  avg # of iterations =  2.0

     negative rho (up, down):  8.734E-02 0.000E+00

     total energy              =   -1869.46243583 Ry
     Harris-Foulkes estimate   =   -1871.04213355 Ry
     estimated scf accuracy    <      14.85458632 Ry

[...]

     iteration # 26     ecut=    60.00 Ry     beta= 0.20
     Davidson diagonalization with overlap
     c_bands:  1 eigenvalues not converged
     ethr =  1.46E-06,  avg # of iterations =  7.8

[...]

     total energy              =   -1868.38245558 Ry
     Harris-Foulkes estimate   =   -1868.38245559 Ry
     estimated scf accuracy    <       0.00000208 Ry

     iteration # 38     ecut=    60.00 Ry     beta= 0.20
     Davidson diagonalization with overlap
     ethr =  9.09E-10,  avg # of iterations =  1.0

[...]

     End of self-consistent calculation

          k = 0.0000 0.0000 0.0000 ( 39547 PWs)   bands (ev):

   -41.7305 -38.9324 -23.8493 -23.5860 -23.4429 -23.1769 -21.8728 -21.6047
   -21.5989 -19.4671 -18.9370 -18.9271 -16.9353 -16.2621 -16.0104 -15.4018
   -15.3015 -15.0925 -15.0708 -15.0475 -14.9488 -14.7860 -14.5690 -14.4873
   -14.4548 -14.2744 -13.7833  -9.1612  -8.8073  -8.7844  -8.7742  -8.7148
    -8.5785  -8.5516  -8.3967  -8.3781  -8.3024  -8.2055  -8.1703  -3.7156
    -3.6918  -3.2386  -2.8907  -2.8576  -2.8291  -2.7093  -2.6695  -2.6171
    -2.6031  -2.5256  -2.2941  -1.6960  -1.6608  -1.6206  -1.5803  -1.4394
    -1.3460  -1.2686  -1.2183  -1.1893  -1.1787  -0.9846  -0.9165  -0.8797
    -0.8431  -0.7845  -0.7584  -0.7483  -0.6896  -0.6784  -0.6657  -0.6612
    -0.6272  -0.5840  -0.5271  -0.5201  -0.4134  -0.4080  -0.3638  -0.3062
    -0.2781  -0.2652  -0.2641  -0.2307  -0.2161  -0.1837  -0.1487  -0.1461
    -0.1248  -0.0050   0.0087   0.1376   0.2741   0.2923   0.4213   0.4785
     0.5204   0.5574   0.5753   0.6375   0.6780   0.6930   0.7889   0.8963
     1.1101   1.1306   1.1627   1.1754   1.2862   1.3065   1.3739   1.4352
     1.4741   1.5662   1.5932   1.5972   1.8609   1.8942   1.9418   1.9879
     3.2783   4.4120   4.4649   4.6474   4.8780   5.1669   5.2217   5.8606
     5.8701   5.8992   6.0834   6.1182   6.2458   6.4843   6.8310   7.3295
     7.3662   7.4047

[...]

          k = 0.3750-0.5125 0.0000 ( 39806 PWs)   bands (ev):

[...]

          k =-0.5000 0.0000 0.0000 ( 39626 PWs)   bands (ev):

[...]

          k =-0.5000-0.5125 0.0000 ( 39764 PWs)   bands (ev):

   -41.7097 -38.9045 -23.6145 -23.3440 -23.2072 -22.9296 -21.8807 -21.8562
   -21.6998 -19.4862 -19.4603 -18.9860 -16.2212 -16.1963 -15.3199 -15.3027
   -15.0625 -15.0054 -14.8816 -14.8026 -14.7479 -14.7452 -14.5033 -14.4511
   -14.3884 -14.2351 -14.0896  -9.7476  -9.5380  -9.4755  -9.3491  -9.2491
    -9.2105  -9.1558  -9.0124  -8.8810  -8.7855  -8.6822  -8.2802  -5.5405
    -5.0024  -4.4195  -3.9831  -3.9107  -3.6945  -3.5652  -3.5380  -3.4575
    -3.3273  -3.1476  -3.0258  -2.8177  -2.8142  -2.6550  -2.6205  -2.5955
    -2.3968  -2.3830  -2.0971  -2.0488  -1.8345  -1.7397  -1.7353  -1.5541
    -1.5526  -1.5149  -1.4734  -1.3952  -1.3159  -1.2473  -1.1855  -1.1178
    -1.0986  -0.6742  -0.6031  -0.3958  -0.3711  -0.1414   0.0144   0.0767
     0.2745   0.2756   0.3167   0.4903   0.5982   0.6713   0.7040   0.7171
     0.7542   0.7720   0.7904   0.9736   1.0365   1.0417   1.2063   1.2222
     1.2301   1.2401   1.2481   1.2482   1.3574   1.4099   1.4641   1.6663
     1.6853   1.7510   1.7625   1.7778   1.8587   1.8895   1.9281   2.1936
     2.3510   2.6427   2.8172   3.4074   3.4595   3.4953   3.7232   3.9628
     4.0487   4.2834   4.3955   4.7386   4.9959   5.2069   5.8251   6.7256
     7.3869   7.4583   7.5875   7.6014   7.9623   7.9928   8.3918   8.4932
     8.4947   8.6352

     the Fermi energy is     2.1565 ev

!    total energy              =   -1868.38245571 Ry
     Harris-Foulkes estimate   =   -1868.38245561 Ry
     estimated scf accuracy    <       0.00000092 Ry

     The total energy is the sum of the following terms:

     one-electron contribution =  -29478.94397127 Ry
     hartree contribution      =   14885.49209024 Ry
     xc contribution           =    -641.71374871 Ry
     ewald contribution        =   13366.79201436 Ry
     smearing contrib. (-TS)   =      -0.00884033 Ry

     convergence has been achieved in  38 iterations

     negative rho (up, down):  9.002E-02 0.000E+00

     Forces acting on atoms (cartesian axes, Ry/au):

     atom    1 type  3   force =     0.00000000    0.00000000   -0.00007574
     atom    2 type  2   force =     0.00000000    0.00000000    0.00017040
     atom    3 type  3   force =     0.00000000    0.00000000   -0.00000795
     atom    4 type  1   force =     0.00000000    0.00000000   -0.00015618
     atom    5 type  2   force =     0.00000000    0.00000000   -0.00032137
     atom    6 type  3   force =     0.00000000    0.00000000    0.00032233
     atom    7 type  3   force =     0.00000000    0.00000000    0.00012276
     atom    8 type  4   force =     0.00000000    0.00000000   -0.00066844
     atom    9 type  3   force =     0.00000000    0.00000000    0.00087244
     atom   10 type  3   force =     0.00000000    0.00000000    0.00111208
     atom   11 type  2   force =     0.00000000    0.00000000   -0.00039548
     atom   12 type  1   force =     0.00000000    0.00000000   -0.00165827
     atom   13 type  3   force =     0.00000000    0.00000000    0.00238068
     atom   14 type  3   force =     0.00000000    0.00000000    0.00565851
     atom   15 type  2   force =     0.00000000    0.00000000   -0.00961959
     atom   16 type  3   force =     0.00000000    0.00000000    0.01888181
     atom   17 type  1   force =     0.00000000    0.00000000   -0.02232921
     atom   18 type  2   force =     0.00000000    0.00000000    0.00172276
     atom   19 type  3   force =     0.00000000    0.00000000    0.06063169
     atom   20 type  3   force =     0.00000000    0.00000000    0.06179307
     atom   21 type  4   force =     0.00000000    0.00000000   -0.11693638
     atom   22 type  3   force =     0.00000000    0.00000000    0.02549355
     atom   23 type  3   force =     0.00000000    0.00000000    0.03144344
     atom   24 type  2   force =     0.00000000    0.00000000   -0.02242754
     atom   25 type  1   force =     0.00000000    0.00000000   -0.03302293
     atom   26 type  3   force =     0.00000000    0.00000000   -0.00509271
     atom   27 type  2   force =     0.00000000    0.00000000   -0.00336506
     atom   28 type  3   force =     0.00000000    0.00000000    0.00547134

     Total force =     0.159568     Total SCF correction =     0.004859

     Computing stress (Cartesian axis) and pressure

     negative rho (up, down):  9.002E-02 0.000E+00
          total   stress  (Ry/bohr**3)                   (kbar)     P=      -10.68
  -0.00006861   0.00000000   0.00000000          -10.09        0.00        0.00
   0.00000000  -0.00005709   0.00000000            0.00       -8.40        0.00
   0.00000000   0.00000000  -0.00009213            0.00        0.00      -13.55

     General routines

     Parallel routines

   This run was terminated on:  18:44: 7   5May2021

   JOB DONE.
[1620254647.359707] [holy7c06306:46717:0]          mpool.c:43   UCX  WARN  object 0x29f0ec0 was not returned to mpool ucp_requests
[1620254647.361621] [holy7c06302:26899:0]          mpool.c:43   UCX  WARN  object 0x468fe80 was not returned to mpool ucp_requests
[1620254647.361637] [holy7c06302:26899:0]          mpool.c:43   UCX  WARN  object 0x4690740 was not returned to mpool ucp_requests
[1620254647.364453] [holy7c06212:20993:0]          mpool.c:43   UCX  WARN  object 0x3500b00 was not returned to mpool ucp_requests
[1620254647.364335] [holy7c06311:200071:0]          mpool.c:43   UCX  WARN  object 0x39f92c0 was not returned to mpool ucp_requests
[1620254647.362912] [holy7c06310:180182:0]          mpool.c:43   UCX  WARN  object 0x3c0c100 was not returned to mpool ucp_requests
[1620254647.372992] [holy7c06212:20992:0]          mpool.c:43   UCX  WARN  object 0x3ace300 was not returned to mpool ucp_requests
[1620254647.369913] [holy7c06310:180181:0]          mpool.c:43   UCX  WARN  object 0x3014ac0 was not returned to mpool ucp_requests
[1620254647.369928] [holy7c06310:180181:0]          mpool.c:43   UCX  WARN  object 0x3014c80 was not returned to mpool ucp_requests