     Program PWSCF v.6.5 starts on  5May2021 at 18:57: 5

     R & G space division:  proc/nbgrp/npool/nimage =      16
     Reading input from YBCO_BaO_cleave_0.5_sep_scf.pwi
Warning: card &IONS ignored
Warning: card     ION_DYNAMICS = 'BFGS' ignored
Warning: card / ignored
Warning: card &CELL ignored
Warning: card     CELL_DYNAMICS = 'BFGS' ignored
Warning: card / ignored

     Current dimensions of program PWSCF are:
     Max number of different atomic species (ntypx) = 10
     Max number of k-points (npk) =  40000
     Max angular momentum in pseudopotentials (lmaxx) =  3

     Message from routine setup:
     using ibrav=0 with symmetry is DISCOURAGED, use correct ibrav instead

     bravais-lattice index     =            0
     lattice parameter (alat)  =       7.3477  a.u.
     unit-cell volume          =    4406.5316 (a.u.)^3
     number of atoms/cell      =           28
     number of atomic types    =            4
     number of electrons       =       229.00
     number of Kohn-Sham states=          138
     kinetic-energy cutoff     =      60.0000  Ry
     charge density cutoff     =     720.0000  Ry
     convergence threshold     =      1.0E-06
     mixing beta               =       0.2000
     number of iterations used =           10  local-TF  mixing
     Exchange-correlation= SLA PW PBE PBE
                           (   1   4   3   4   0   0   0)

     celldm(1)=   7.347715  celldm(2)=   0.000000  celldm(3)=   0.000000
     celldm(4)=   0.000000  celldm(5)=   0.000000  celldm(6)=   0.000000

     crystal axes: (cart. coord. in units of alat)
               a(1) = (   1.000000   0.000000   0.000000 )
               a(2) = (   0.000000   0.975577   0.000000 )
               a(3) = (   0.000000   0.000000  11.386186 )

     reciprocal axes: (cart. coord. in units 2 pi/alat)
               b(1) = (  1.000000  0.000000  0.000000 )
               b(2) = (  0.000000  1.025034  0.000000 )
               b(3) = (  0.000000  0.000000  0.087826 )

     PseudoPot. # 1 for Ba read from file:
     /n/holyscratch01/hoffman_lab/ruizhe/YBCO_Project/pseudo/Ba.pbe-nsp-van.UPF
     MD5 check sum: 2b9c31dd849566dd297d80989662b7a0
     Pseudo is Ultrasoft + core correction, Zval = 10.0
     Generated by new atomic code, or converted to UPF format
     Using radial grid of  907 points,  6 beta functions with:
                l(1) =   0
                l(2) =   0
                l(3) =   1
                l(4) =   1
                l(5) =   2
                l(6) =   2
     Q(r) pseudized with  6 coefficients,  rinner =    1.200   1.200   1.200
                                                       1.200   1.200

     PseudoPot. # 2 for Cu read from file:
     /n/holyscratch01/hoffman_lab/ruizhe/YBCO_Project/pseudo/Cu.pbe-n-van_ak.UPF
     MD5 check sum: 34e3282627ffb533726feb647e090d62
     Pseudo is Ultrasoft + core correction, Zval = 11.0
     Generated by new atomic code, or converted to UPF format
     Using radial grid of  867 points,  6 beta functions with:
                l(1) =   0
                l(2) =   0
                l(3) =   1
                l(4) =   1
                l(5) =   2
                l(6) =   2
     Q(r) pseudized with  8 coefficients,  rinner =    1.400   1.400   1.400
                                                       1.400   1.400

     PseudoPot. # 3 for O  read from file:
     /n/holyscratch01/hoffman_lab/ruizhe/YBCO_Project/pseudo/O.pbe-van_ak.UPF
     MD5 check sum: 783ce7fe4c79b6a4916957118fed0856
     Pseudo is Ultrasoft, Zval =  6.0
     Generated by new atomic code, or converted to UPF format
     Using radial grid of  737 points,  4 beta functions with:
                l(1) =   0
                l(2) =   0
                l(3) =   1
                l(4) =   1
     Q(r) pseudized with  8 coefficients,  rinner =    0.800   0.800   0.800

     PseudoPot. # 4 for Y  read from file:
     /n/holyscratch01/hoffman_lab/ruizhe/YBCO_Project/pseudo/Y.pbe-nsp-van.UPF
     MD5 check sum: 4412fed3ab108fed87a1b7d6a69a4a38
     Pseudo is Ultrasoft + core correction, Zval = 11.0
     Generated by new atomic code, or converted to UPF format
     Using radial grid of  885 points,  6 beta functions with:
                l(1) =   0
                l(2) =   0
                l(3) =   1
                l(4) =   1
                l(5) =   2
                l(6) =   2
     Q(r) pseudized with  6 coefficients,  rinner =    1.200   1.200   1.200
                                                       1.200   1.200

     atomic species   valence    mass     pseudopotential
        Ba            10.00   137.32700     Ba( 1.00)
        Cu            11.00    63.54600     Cu( 1.00)
        O              6.00    15.99900     O ( 1.00)
        Y             11.00    88.90584     Y ( 1.00)

      4 Sym. Ops. (no inversion) found

   Cartesian axes

     site n.     atom                  positions (alat units)
         1           O   tau(   1) = (   0.0000000   0.4877884  -0.0257983  )
         2           Cu  tau(   2) = (   0.0000000   0.0000000   0.0215779  )
         3           O   tau(   3) = (   0.0000000   0.0000000   0.5073114  )
         4           Ba  tau(   4) = (   0.4999996   0.4877884   0.5319677  )
         5           Cu  tau(   5) = (   0.0000000   0.0000000   1.0495845  )
         6           O   tau(   6) = (   0.4999996   0.0000000   1.1181579  )
         7           O   tau(   7) = (   0.0000000   0.4877884   1.1273137  )
         8           Y   tau(   8) = (   0.4999996   0.4877884   1.4938777  )
         9           O   tau(   9) = (   0.0000000   0.4877884   1.8497402  )
        10           O   tau(  10) = (   0.4999996   0.0000000   1.8692709  )
        11           Cu  tau(  11) = (   0.0000000   0.0000000   1.9417560  )
        12           Ba  tau(  12) = (   0.4999996   0.4877884   2.4526063  )
        13           O   tau(  13) = (   0.0000000   0.0000000   2.5103470  )
        14           O   tau(  14) = (   0.0000000   0.4877884   2.9968469  )
        15           Cu  tau(  15) = (   0.0000000   0.0000000   2.9968521  )
        16           O   tau(  16) = (   0.0000000   0.0000000   3.4833288  )
        17           Ba  tau(  17) = (   0.4999996   0.4877884   3.5410618  )
        18           Cu  tau(  18) = (   0.0000000   0.0000000   4.1805280  )
        19           O   tau(  19) = (   0.4999996   0.0000000   4.2530003  )
        20           O   tau(  20) = (   0.0000000   0.4877884   4.2725130  )
        21           Y   tau(  21) = (   0.4999996   0.4877884   4.6283780  )
        22           O   tau(  22) = (   0.0000000   0.4877884   4.9949420  )
        23           O   tau(  23) = (   0.4999996   0.0000000   5.0041107  )
        24           Cu  tau(  24) = (   0.0000000   0.0000000   5.0726892  )
        25           Ba  tau(  25) = (   0.4999996   0.4877884   5.5902906  )
        26           O   tau(  26) = (   0.0000000   0.0000000   5.6149469  )
        27           Cu  tau(  27) = (   0.0000000   0.0000000   6.1006521  )
        28           O   tau(  28) = (   0.0000000   0.4877884   6.1480334  )

     number of k points=    25  Gaussian smearing, width (Ry)=  0.0100
                       cart. coord. in units 2pi/alat
        k(    1) = (   0.0000000   0.0000000   0.0000000), wk =   0.0312500
        k(    2) = (   0.0000000   0.1281293   0.0000000), wk =   0.0625000
        k(    3) = (   0.0000000   0.2562585   0.0000000), wk =   0.0625000
        k(    4) = (   0.0000000   0.3843878   0.0000000), wk =   0.0625000
        k(    5) = (   0.0000000  -0.5125170   0.0000000), wk =   0.0312500
        k(    6) = (   0.1250000   0.0000000   0.0000000), wk =   0.0625000
        k(    7) = (   0.1250000   0.1281293   0.0000000), wk =   0.1250000
        k(    8) = (   0.1250000   0.2562585   0.0000000), wk =   0.1250000
        k(    9) = (   0.1250000   0.3843878   0.0000000), wk =   0.1250000
        k(   10) = (   0.1250000  -0.5125170   0.0000000), wk =   0.0625000
        k(   11) = (   0.2500000   0.0000000   0.0000000), wk =   0.0625000
        k(   12) = (   0.2500000   0.1281293   0.0000000), wk =   0.1250000
        k(   13) = (   0.2500000   0.2562585   0.0000000), wk =   0.1250000
        k(   14) = (   0.2500000   0.3843878   0.0000000), wk =   0.1250000
        k(   15) = (   0.2500000  -0.5125170   0.0000000), wk =   0.0625000
        k(   16) = (   0.3750000   0.0000000   0.0000000), wk =   0.0625000
        k(   17) = (   0.3750000   0.1281293   0.0000000), wk =   0.1250000
        k(   18) = (   0.3750000   0.2562585   0.0000000), wk =   0.1250000
        k(   19) = (   0.3750000   0.3843878   0.0000000), wk =   0.1250000
        k(   20) = (   0.3750000  -0.5125170   0.0000000), wk =   0.0625000
        k(   21) = (  -0.5000000   0.0000000   0.0000000), wk =   0.0312500
        k(   22) = (  -0.5000000   0.1281293   0.0000000), wk =   0.0625000
        k(   23) = (  -0.5000000   0.2562585   0.0000000), wk =   0.0625000
        k(   24) = (  -0.5000000   0.3843878   0.0000000), wk =   0.0625000
        k(   25) = (  -0.5000000  -0.5125170   0.0000000), wk =   0.0312500

     Initial potential from superposition of free atoms

     starting charge  228.84827, renormalised to  229.00000

     negative rho (up, down):  8.966E-02 0.000E+00
     Starting wfcs are  201 randomized atomic wfcs

     Self-consistent Calculation

     iteration #  1     ecut=    60.00 Ry     beta= 0.20
     Davidson diagonalization with overlap
     ethr =  1.00E-02,  avg # of iterations =  2.0

     negative rho (up, down):  8.749E-02 0.000E+00

     total energy              =   -1869.54686284 Ry
     Harris-Foulkes estimate   =   -1871.10059281 Ry
     estimated scf accuracy    <      12.99819319 Ry

[...]

     iteration # 24     ecut=    60.00 Ry     beta= 0.20
     Davidson diagonalization with overlap
     c_bands:  1 eigenvalues not converged
     ethr =  2.27E-07,  avg # of iterations =  6.1

[...]

     iteration # 29     ecut=    60.00 Ry     beta= 0.20
     Davidson diagonalization with overlap
     c_bands:  1 eigenvalues not converged
     ethr =  5.54E-09,  avg # of iterations =  3.0

[...]

     total energy              =   -1868.83506352 Ry
     Harris-Foulkes estimate   =   -1868.83506353 Ry
     estimated scf accuracy    <       0.00000104 Ry

     iteration # 33     ecut=    60.00 Ry     beta= 0.20
     Davidson diagonalization with overlap
     ethr =  4.55E-10,  avg # of iterations =  2.0

[...]

     End of self-consistent calculation

          k = 0.0000 0.0000 0.0000 ( 34453 PWs)   bands (ev):

   -37.9370 -37.8228 -22.7243 -22.5954 -22.5870 -22.4221 -18.4721 -18.3365
   -17.9419 -17.9315 -17.8360 -17.8240 -15.2684 -15.1557 -14.3561 -14.3037
   -14.1801 -14.0814 -14.0696 -14.0539 -13.9726 -13.7920 -13.6445 -13.5795
   -13.5787 -13.2609 -13.0472  -7.9978  -7.8161  -7.8044  -7.6968  -7.6086
    -7.6034  -7.5881  -7.5802  -7.5612  -7.5530  -7.3742  -7.3565  -1.8969
    -1.8642  -1.7998  -1.7738  -1.7274  -1.7054  -1.6800  -1.6741  -1.6105
    -1.5590  -1.5314  -1.5077  -1.4082  -0.6983  -0.5907  -0.5785  -0.3202
    -0.2839  -0.2792  -0.2009  -0.1223   0.0839   0.1080   0.1097   0.1102
     0.1462   0.1473   0.3113   0.3192   0.3203   0.3290   0.4076   0.4495
     0.4654   0.4731   0.5094   0.5406   0.5760   0.5834   0.5849   0.6016
     0.7020   0.7173   0.7197   0.7241   0.8109   0.8381   0.8413   0.8503
     0.8750   1.1542   1.2863   1.2904   1.3674   1.4143   1.4713   1.4760
     1.5336   1.5397   1.5591   1.6347   1.6762   1.6836   1.7102   1.8204
     1.9429   2.0009   2.1141   2.1654   2.1740   2.2484   2.3628   2.3695
     2.3737   2.4285   2.5607   2.6034   2.6200   2.8413   2.8518   5.4257
     5.4625   5.7516   6.0649   6.3072   6.8613   6.8625   6.9902   7.2930
     7.6554   7.9247   8.3307   8.3612   8.4576   8.4620   8.5455   8.8037
     8.8829   9.0215

[...]

          k = 0.3750-0.5125 0.0000 ( 34698 PWs)   bands (ev):

[...]

          k =-0.5000 0.0000 0.0000 ( 34574 PWs)   bands (ev):

[...]

          k =-0.5000-0.5125 0.0000 ( 34692 PWs)   bands (ev):

   -37.9091 -37.7949 -22.5076 -22.3533 -22.3448 -22.1866 -18.4906 -18.4655
   -18.3829 -18.3607 -17.9908 -17.8525 -14.3278 -14.3076 -14.2326 -14.1903
   -14.0735 -14.0698 -13.8689 -13.8090 -13.7524 -13.6793 -13.5871 -13.5396
   -13.4652 -13.4615 -13.2386  -8.5816  -8.5476  -8.5393  -8.3271  -8.3198
    -8.2588  -8.2511  -7.9765  -7.9708  -7.7936  -7.7832  -7.6268  -4.0088
    -3.9253  -3.4243  -3.2799  -2.9653  -2.5523  -2.5487  -2.3358  -2.2754
    -2.1574  -2.1429  -2.0317  -1.9500  -1.6659  -1.6633  -1.6303  -1.5678
    -1.5604  -1.0998  -0.8454  -0.8217  -0.7419  -0.7410  -0.7019  -0.5626
    -0.5569  -0.4756  -0.4013  -0.3847  -0.3406  -0.3297  -0.3266  -0.0778
    -0.0632   0.3131   0.3150   0.6168   0.8118   0.9217   1.1406   1.2744
     1.5901   1.5919   1.6744   1.6844   1.6981   1.7336   1.7456   1.7519
     1.7838   1.8209   1.8324   1.9753   2.0232   2.0290   2.0738   2.1152
     2.1347   2.2148   2.2175   2.2319   2.2384   2.2455   2.3617   2.3705
     2.4116   2.4688   2.7368   2.7407   2.7857   2.8448   2.8482   2.8962
     3.1727   3.1897   4.5951   4.9535   4.9950   5.0397   5.0758   5.3167
     5.9850   5.9880   6.6383   6.8320   8.3288   8.5334   8.5926   8.7353
     8.9492   9.0536   9.1267   9.3899   9.5280   9.5404   9.5808   9.7137
     9.7494   9.7815

     the Fermi energy is     3.1463 ev

!    total energy              =   -1868.83506338 Ry
     Harris-Foulkes estimate   =   -1868.83506357 Ry
     estimated scf accuracy    <       0.00000050 Ry

     The total energy is the sum of the following terms:

     one-electron contribution =  -31520.59068782 Ry
     hartree contribution      =   15916.04274112 Ry
     xc contribution           =    -642.30069247 Ry
     ewald contribution        =   14378.02197729 Ry
     smearing contrib. (-TS)   =      -0.00840149 Ry

     convergence has been achieved in  33 iterations

     negative rho (up, down):  9.066E-02 0.000E+00

     Forces acting on atoms (cartesian axes, Ry/au):

     atom    1 type  3   force =     0.00000000    0.00000000    0.00002116
     atom    2 type  2   force =     0.00000000    0.00000000    0.00036175
     atom    3 type  3   force =     0.00000000    0.00000000   -0.00002161
     atom    4 type  1   force =     0.00000000    0.00000000   -0.00010360
     atom    5 type  2   force =     0.00000000    0.00000000    0.00025834
     atom    6 type  3   force =     0.00000000    0.00000000    0.00008533
     atom    7 type  3   force =     0.00000000    0.00000000    0.00007469
     atom    8 type  4   force =     0.00000000    0.00000000   -0.00023736
     atom    9 type  3   force =     0.00000000    0.00000000    0.00020340
     atom   10 type  3   force =     0.00000000    0.00000000    0.00035624
     atom   11 type  2   force =     0.00000000    0.00000000    0.00034423
     atom   12 type  1   force =     0.00000000    0.00000000   -0.00109936
     atom   13 type  3   force =     0.00000000    0.00000000    0.00104426
     atom   14 type  3   force =     0.00000000    0.00000000    0.00438252
     atom   15 type  2   force =     0.00000000    0.00000000    0.00009464
     atom   16 type  3   force =     0.00000000    0.00000000    0.00587314
     atom   17 type  1   force =     0.00000000    0.00000000    0.01347319
     atom   18 type  2   force =     0.00000000    0.00000000    0.00177827
     atom   19 type  3   force =     0.00000000    0.00000000   -0.00471842
     atom   20 type  3   force =     0.00000000    0.00000000   -0.00516193
     atom   21 type  4   force =     0.00000000    0.00000000   -0.01920556
     atom   22 type  3   force =     0.00000000    0.00000000    0.00102795
     atom   23 type  3   force =     0.00000000    0.00000000    0.00140279
     atom   24 type  2   force =     0.00000000    0.00000000    0.00035015
     atom   25 type  1   force =     0.00000000    0.00000000   -0.00044659
     atom   26 type  3   force =     0.00000000    0.00000000    0.00080017
     atom   27 type  2   force =     0.00000000    0.00000000   -0.00119591
     atom   28 type  3   force =     0.00000000    0.00000000    0.00025812

     Total force =     0.025778     Total SCF correction =     0.002885
     SCF correction compared to forces is large: reduce conv_thr to get better values

     Computing stress (Cartesian axis) and pressure

     negative rho (up, down):  9.066E-02 0.000E+00
          total   stress  (Ry/bohr**3)                   (kbar)     P=       -5.14
  -0.00003669   0.00000000   0.00000000           -5.40        0.00        0.00
   0.00000000  -0.00002653   0.00000000            0.00       -3.90        0.00
   0.00000000   0.00000000  -0.00004154            0.00        0.00       -6.11

     General routines

     Parallel routines

   This run was terminated on:  19: 7: 1   5May2021

   JOB DONE.
[1620256021.107201] [holy7c06408:9510 :0]          mpool.c:43   UCX  WARN  object 0x300dac0 was not returned to mpool ucp_requests
[1620256021.110267] [holy7c06408:9514 :0]          mpool.c:43   UCX  WARN  object 0x3c00000 was not returned to mpool ucp_requests
[1620256021.110290] [holy7c06408:9514 :0]          mpool.c:43   UCX  WARN  object 0x3c00540 was not returned to mpool ucp_requests
[1620256021.111689] [holy7c06408:9516 :0]          mpool.c:43   UCX  WARN  object 0x47ff000 was not returned to mpool ucp_requests
[1620256021.111845] [holy7c06408:9512 :0]          mpool.c:43   UCX  WARN  object 0x3f69000 was not returned to mpool ucp_requests
[1620256021.112553] [holy7c06408:9505 :0]          mpool.c:43   UCX  WARN  object 0x42e5dc0 was not returned to mpool ucp_requests
[1620256021.112577] [holy7c06408:9505 :0]          mpool.c:43   UCX  WARN  object 0x42e6140 was not returned to mpool ucp_requests
[1620256021.112580] [holy7c06408:9505 :0]          mpool.c:43   UCX  WARN  object 0x42e6300 was not returned to mpool ucp_requests
[1620256021.114020] [holy7c06408:9515 :0]          mpool.c:43   UCX  WARN  object 0x3d95c40 was not returned to mpool ucp_requests
[1620256021.109532] [holy7c06408:9506 :0]          mpool.c:43   UCX  WARN  object 0x39b80c0 was not returned to mpool ucp_requests