     Program PWSCF v.6.5 starts on  5May2021 at 18:27:51

     R & G space division:  proc/nbgrp/npool/nimage =      20
     Reading input from YBCO_CuO_cleave_7.0_sep_scf.pwi
Warning: card &IONS ignored
Warning: card     ION_DYNAMICS = 'BFGS' ignored
Warning: card / ignored
Warning: card &CELL ignored
Warning: card     CELL_DYNAMICS = 'BFGS' ignored
Warning: card / ignored

     Current dimensions of program PWSCF are:
     Max number of different atomic species (ntypx) = 10
     Max number of k-points (npk) =  40000
     Max angular momentum in pseudopotentials (lmaxx) =  3

     Message from routine setup:
     using ibrav=0 with symmetry is DISCOURAGED, use correct ibrav instead

     bravais-lattice index     =            0
     lattice parameter (alat)  =       7.3477  a.u.
     unit-cell volume          =    5053.4933 (a.u.)^3
     number of atoms/cell      =           28
     number of atomic types    =            4
     number of electrons       =       229.00
     number of Kohn-Sham states=          138
     kinetic-energy cutoff     =      60.0000  Ry
     charge density cutoff     =     720.0000  Ry
     convergence threshold     =      1.0E-06
     mixing beta               =       0.2000
     number of iterations used =           10  local-TF  mixing
     Exchange-correlation= SLA PW PBE PBE
                           (   1   4   3   4   0   0   0)

     celldm(1)=   7.347715  celldm(2)=   0.000000  celldm(3)=   0.000000
     celldm(4)=   0.000000  celldm(5)=   0.000000  celldm(6)=   0.000000

     crystal axes: (cart. coord. in units of alat)
               a(1) = (   1.000000   0.000000   0.000000 )
               a(2) = (   0.000000   0.975577   0.000000 )
               a(3) = (   0.000000   0.000000  13.057892 )

     reciprocal axes: (cart. coord. in units 2 pi/alat)
               b(1) = (  1.000000  0.000000  0.000000 )
               b(2) = (  0.000000  1.025034  0.000000 )
               b(3) = (  0.000000  0.000000  0.076582 )

     PseudoPot. # 1 for Ba read from file:
     /n/holyscratch01/hoffman_lab/ruizhe/YBCO_Project/pseudo/Ba.pbe-nsp-van.UPF
     MD5 check sum: 2b9c31dd849566dd297d80989662b7a0
     Pseudo is Ultrasoft + core correction, Zval = 10.0
     Generated by new atomic code, or converted to UPF format
     Using radial grid of  907 points,  6 beta functions with:
                l(1) =   0
                l(2) =   0
                l(3) =   1
                l(4) =   1
                l(5) =   2
                l(6) =   2
     Q(r) pseudized with  6 coefficients,  rinner =    1.200   1.200   1.200
                                                       1.200   1.200

     PseudoPot. # 2 for Cu read from file:
     /n/holyscratch01/hoffman_lab/ruizhe/YBCO_Project/pseudo/Cu.pbe-n-van_ak.UPF
     MD5 check sum: 34e3282627ffb533726feb647e090d62
     Pseudo is Ultrasoft + core correction, Zval = 11.0
     Generated by new atomic code, or converted to UPF format
     Using radial grid of  867 points,  6 beta functions with:
                l(1) =   0
                l(2) =   0
                l(3) =   1
                l(4) =   1
                l(5) =   2
                l(6) =   2
     Q(r) pseudized with  8 coefficients,  rinner =    1.400   1.400   1.400
                                                       1.400   1.400

     PseudoPot. # 3 for O  read from file:
     /n/holyscratch01/hoffman_lab/ruizhe/YBCO_Project/pseudo/O.pbe-van_ak.UPF
     MD5 check sum: 783ce7fe4c79b6a4916957118fed0856
     Pseudo is Ultrasoft, Zval =  6.0
     Generated by new atomic code, or converted to UPF format
     Using radial grid of  737 points,  4 beta functions with:
                l(1) =   0
                l(2) =   0
                l(3) =   1
                l(4) =   1
     Q(r) pseudized with  8 coefficients,  rinner =    0.800   0.800   0.800

     PseudoPot. # 4 for Y  read from file:
     /n/holyscratch01/hoffman_lab/ruizhe/YBCO_Project/pseudo/Y.pbe-nsp-van.UPF
     MD5 check sum: 4412fed3ab108fed87a1b7d6a69a4a38
     Pseudo is Ultrasoft + core correction, Zval = 11.0
     Generated by new atomic code, or converted to UPF format
     Using radial grid of  885 points,  6 beta functions with:
                l(1) =   0
                l(2) =   0
                l(3) =   1
                l(4) =   1
                l(5) =   2
                l(6) =   2
     Q(r) pseudized with  6 coefficients,  rinner =    1.200   1.200   1.200
                                                       1.200   1.200

     atomic species   valence    mass     pseudopotential
        Ba            10.00   137.32700     Ba( 1.00)
        Cu            11.00    63.54600     Cu( 1.00)
        O              6.00    15.99900     O ( 1.00)
        Y             11.00    88.90584     Y ( 1.00)

      4 Sym. Ops. (no inversion) found

   Cartesian axes

     site n.     atom                  positions (alat units)
         1           O   tau(   1) = (   0.0000000   0.4877884  -0.0257983  )
         2           Cu  tau(   2) = (   0.0000000   0.0000000   0.0215779  )
         3           O   tau(   3) = (   0.0000000   0.0000000   0.5073114  )
         4           Ba  tau(   4) = (   0.4999996   0.4877884   0.5319677  )
         5           Cu  tau(   5) = (   0.0000000   0.0000000   1.0495845  )
         6           O   tau(   6) = (   0.4999996   0.0000000   1.1181579  )
         7           O   tau(   7) = (   0.0000000   0.4877884   1.1273137  )
         8           Y   tau(   8) = (   0.4999996   0.4877884   1.4938777  )
         9           O   tau(   9) = (   0.0000000   0.4877884   1.8497402  )
        10           O   tau(  10) = (   0.4999996   0.0000000   1.8692709  )
        11           Cu  tau(  11) = (   0.0000000   0.0000000   1.9417560  )
        12           Ba  tau(  12) = (   0.4999996   0.4877884   2.4526063  )
        13           O   tau(  13) = (   0.0000000   0.0000000   2.5103470  )
        14           O   tau(  14) = (   0.0000000   0.4877884   2.9968469  )
        15           Cu  tau(  15) = (   0.0000000   0.0000000   2.9968521  )
        16           O   tau(  16) = (   0.0000000   0.0000000   5.2836277  )
        17           Ba  tau(  17) = (   0.4999996   0.4877884   5.3413607  )
        18           Cu  tau(  18) = (   0.0000000   0.0000000   5.8522340  )
        19           O   tau(  19) = (   0.4999996   0.0000000   5.9247064  )
        20           O   tau(  20) = (   0.0000000   0.4877884   5.9442190  )
        21           Y   tau(  21) = (   0.4999996   0.4877884   6.3000841  )
        22           O   tau(  22) = (   0.0000000   0.4877884   6.6666481  )
        23           O   tau(  23) = (   0.4999996   0.0000000   6.6758168  )
        24           Cu  tau(  24) = (   0.0000000   0.0000000   6.7443953  )
        25           Ba  tau(  25) = (   0.4999996   0.4877884   7.2619966  )
        26           O   tau(  26) = (   0.0000000   0.0000000   7.2866530  )
        27           Cu  tau(  27) = (   0.0000000   0.0000000   7.7723582  )
        28           O   tau(  28) = (   0.0000000   0.4877884   7.8197395  )

     number of k points=    25  Gaussian smearing, width (Ry)=  0.0100
                       cart. coord. in units 2pi/alat
        k(    1) = (   0.0000000   0.0000000   0.0000000), wk =   0.0312500
        k(    2) = (   0.0000000   0.1281293   0.0000000), wk =   0.0625000
        k(    3) = (   0.0000000   0.2562585   0.0000000), wk =   0.0625000
        k(    4) = (   0.0000000   0.3843878   0.0000000), wk =   0.0625000
        k(    5) = (   0.0000000  -0.5125170   0.0000000), wk =   0.0312500
        k(    6) = (   0.1250000   0.0000000   0.0000000), wk =   0.0625000
        k(    7) = (   0.1250000   0.1281293   0.0000000), wk =   0.1250000
        k(    8) = (   0.1250000   0.2562585   0.0000000), wk =   0.1250000
        k(    9) = (   0.1250000   0.3843878   0.0000000), wk =   0.1250000
        k(   10) = (   0.1250000  -0.5125170   0.0000000), wk =   0.0625000
        k(   11) = (   0.2500000   0.0000000   0.0000000), wk =   0.0625000
        k(   12) = (   0.2500000   0.1281293   0.0000000), wk =   0.1250000
        k(   13) = (   0.2500000   0.2562585   0.0000000), wk =   0.1250000
        k(   14) = (   0.2500000   0.3843878   0.0000000), wk =   0.1250000
        k(   15) = (   0.2500000  -0.5125170   0.0000000), wk =   0.0625000
        k(   16) = (   0.3750000   0.0000000   0.0000000), wk =   0.0625000
        k(   17) = (   0.3750000   0.1281293   0.0000000), wk =   0.1250000
        k(   18) = (   0.3750000   0.2562585   0.0000000), wk =   0.1250000
        k(   19) = (   0.3750000   0.3843878   0.0000000), wk =   0.1250000
        k(   20) = (   0.3750000  -0.5125170   0.0000000), wk =   0.0625000
        k(   21) = (  -0.5000000   0.0000000   0.0000000), wk =   0.0312500
        k(   22) = (  -0.5000000   0.1281293   0.0000000), wk =   0.0625000
        k(   23) = (  -0.5000000   0.2562585   0.0000000), wk =   0.0625000
        k(   24) = (  -0.5000000   0.3843878   0.0000000), wk =   0.0625000
        k(   25) = (  -0.5000000  -0.5125170   0.0000000), wk =   0.0312500

     Initial potential from superposition of free atoms

     starting charge  228.84827, renormalised to  229.00000

     negative rho (up, down):  8.938E-02 0.000E+00
     Starting wfcs are  201 randomized atomic wfcs

     Self-consistent Calculation

     iteration #  1     ecut=    60.00 Ry     beta= 0.20
     Davidson diagonalization with overlap
     ethr =  1.00E-02,  avg # of iterations =  2.0

     negative rho (up, down):  8.721E-02 0.000E+00

     total energy              =   -1869.52073882 Ry
     Harris-Foulkes estimate   =   -1871.09985119 Ry
     estimated scf accuracy    <      13.54025280 Ry

[...]

     iteration # 30     ecut=    60.00 Ry     beta= 0.20
     Davidson diagonalization with overlap
     c_bands:  1 eigenvalues not converged
     ethr =  5.04E-08,  avg # of iterations =  7.4

[...]

     iteration # 33     ecut=    60.00 Ry     beta= 0.20
     Davidson diagonalization with overlap
     c_bands:  1 eigenvalues not converged
     ethr =  6.09E-09,  avg # of iterations =  4.8

[...]

     total energy              =   -1868.72154420 Ry
     Harris-Foulkes estimate   =   -1868.72154413 Ry
     estimated scf accuracy    <       0.00000122 Ry

     iteration # 39     ecut=    60.00 Ry     beta= 0.20
     Davidson diagonalization with overlap
     ethr =  5.31E-10,  avg # of iterations =  1.3

[...]

     End of self-consistent calculation

          k = 0.0000 0.0000 0.0000 ( 39547 PWs)   bands (ev):

   -38.9957 -38.9187 -23.6250 -23.6124 -23.5304 -23.4639 -19.5285 -19.4606
   -19.0010 -18.9922 -18.9247 -18.9116 -16.3197 -16.2694 -15.3620 -15.3082
   -15.1089 -15.1052 -15.0991 -15.0549 -15.0054 -14.8439 -14.7900 -14.6061
   -14.5939 -14.3447 -13.0636  -8.9064  -8.8456  -8.8268  -8.6775  -8.6172
    -8.6052  -8.5903  -8.5785  -8.4371  -8.4142  -8.4016  -8.3198  -2.9512
    -2.9208  -2.8990  -2.8710  -2.7805  -2.7254  -2.7073  -2.6978  -2.6640
    -2.6236  -2.5878  -2.5331  -2.4120  -1.7564  -1.6939  -1.3047  -1.2881
    -1.2357  -0.9731  -0.9156  -0.9155  -0.9066  -0.8782  -0.8714  -0.7170
    -0.7149  -0.6827  -0.6629  -0.6435  -0.6361  -0.5844  -0.5791  -0.5531
    -0.5438  -0.4539  -0.4504  -0.4385  -0.4372  -0.4143  -0.3532  -0.3374
    -0.2997  -0.2949  -0.2859  -0.2708  -0.2200  -0.1856  -0.1818  -0.1645
     0.1219   0.2587   0.3032   0.3682   0.3726   0.4107   0.4414   0.4789
     0.5172   0.5307   0.5353   0.6205   0.6285   0.6405   0.6527   0.6548
     0.6973   1.0758   1.1177   1.1380   1.1456   1.2295   1.3374   1.3444
     1.4261   1.6430   1.7802   1.8286   1.8647   1.9075   1.9350   4.3610
     4.4512   4.5124   5.0276   5.0646   5.5129   5.8184   5.8335   5.9820
     6.0366   6.5389   6.6547   7.2971   7.2984   7.3728   7.3802   7.5065
     7.7403   7.8013

[...]

          k = 0.3750-0.5125 0.0000 ( 39806 PWs)   bands (ev):

[...]

          k =-0.5000 0.0000 0.0000 ( 39626 PWs)   bands (ev):

[...]

          k =-0.5000-0.5125 0.0000 ( 39764 PWs)   bands (ev):

   -38.9678 -38.8907 -23.3830 -23.3702 -23.3208 -23.2255 -19.5515 -19.5239
   -19.4726 -19.4520 -19.0478 -18.9766 -15.3739 -15.3643 -15.3374 -15.2993
   -15.0972 -15.0963 -14.8621 -14.8187 -14.8092 -14.7927 -14.7395 -14.4898
   -14.4715 -14.4003 -13.1776  -9.5766  -9.5649  -9.3882  -9.2878  -9.2757
    -9.2259  -9.1144  -9.0891  -8.8245  -8.8242  -8.7935  -8.6810  -5.0643
    -5.0005  -4.4806  -4.4005  -3.5746  -3.5641  -3.5593  -3.3778  -3.3344
    -3.1885  -3.1762  -3.0994  -3.0523  -2.6899  -2.6883  -2.6675  -2.6205
    -2.3850  -1.9163  -1.8722  -1.7968  -1.7474  -1.6553  -1.5756  -1.5629
    -1.5541  -1.4544  -1.4296  -1.4256  -1.3522  -1.3375  -1.2942  -0.7087
    -0.6989  -0.6978  -0.5949  -0.3744  -0.0717   0.0602   0.3357   0.4003
     0.5403   0.5846   0.6328   0.6496   0.6664   0.6803   0.6883   0.6980
     0.7186   0.7962   0.8968   0.9240   0.9717   0.9836   1.0124   1.1690
     1.1917   1.1979   1.2048   1.2110   1.2162   1.3337   1.4188   1.5245
     1.7136   1.7320   1.8217   1.8372   1.9086   1.9404   2.1034   2.1162
     2.1237   2.2129   2.4503   3.8885   3.9175   4.0019   4.0157   4.9586
     4.9711   5.2456   5.7278   5.8436   7.1614   7.1913   7.5277   7.5525
     7.8707   8.0587   8.3120   8.3876   8.4149   8.4199   8.6126   8.6435
     8.6611   8.7993

     the Fermi energy is     2.1176 ev

!    total energy              =   -1868.72154483 Ry
     Harris-Foulkes estimate   =   -1868.72154422 Ry
     estimated scf accuracy    <       0.00000065 Ry

     The total energy is the sum of the following terms:

     one-electron contribution =  -22335.81285739 Ry
     hartree contribution      =   11315.32316937 Ry
     xc contribution           =    -642.19991560 Ry
     ewald contribution        =    9793.97876172 Ry
     smearing contrib. (-TS)   =      -0.01070294 Ry

     convergence has been achieved in  39 iterations

     negative rho (up, down):  9.042E-02 0.000E+00

     Forces acting on atoms (cartesian axes, Ry/au):

     atom    1 type  3   force =     0.00000000    0.00000000   -0.00055131
     atom    2 type  2   force =     0.00000000    0.00000000    0.00097580
     atom    3 type  3   force =     0.00000000    0.00000000    0.00030195
     atom    4 type  1   force =     0.00000000    0.00000000   -0.00019072
     atom    5 type  2   force =     0.00000000    0.00000000   -0.00041354
     atom    6 type  3   force =     0.00000000    0.00000000    0.00129303
     atom    7 type  3   force =     0.00000000    0.00000000    0.00098626
     atom    8 type  4   force =     0.00000000    0.00000000   -0.00282639
     atom    9 type  3   force =     0.00000000    0.00000000    0.00495668
     atom   10 type  3   force =     0.00000000    0.00000000    0.00339418
     atom   11 type  2   force =     0.00000000    0.00000000   -0.00200859
     atom   12 type  1   force =     0.00000000    0.00000000    0.01662531
     atom   13 type  3   force =     0.00000000    0.00000000   -0.01908803
     atom   14 type  3   force =     0.00000000    0.00000000    0.02115041
     atom   15 type  2   force =     0.00000000    0.00000000   -0.02376781
     atom   16 type  3   force =     0.00000000    0.00000000    0.01689382
     atom   17 type  1   force =     0.00000000    0.00000000   -0.00065108
     atom   18 type  2   force =     0.00000000    0.00000000   -0.02182292
     atom   19 type  3   force =     0.00000000    0.00000000    0.00423044
     atom   20 type  3   force =     0.00000000    0.00000000    0.00305334
     atom   21 type  4   force =     0.00000000    0.00000000   -0.00106710
     atom   22 type  3   force =     0.00000000    0.00000000   -0.00055109
     atom   23 type  3   force =     0.00000000    0.00000000    0.00079703
     atom   24 type  2   force =     0.00000000    0.00000000    0.00022724
     atom   25 type  1   force =     0.00000000    0.00000000   -0.00001111
     atom   26 type  3   force =     0.00000000    0.00000000   -0.00195435
     atom   27 type  2   force =     0.00000000    0.00000000   -0.00019819
     atom   28 type  3   force =     0.00000000    0.00000000    0.00021674

     Total force =     0.050006     Total SCF correction =     0.001500

     Computing stress (Cartesian axis) and pressure

     negative rho (up, down):  9.042E-02 0.000E+00
          total   stress  (Ry/bohr**3)                   (kbar)     P=       -7.12
  -0.00000740   0.00000000   0.00000000           -1.09        0.00        0.00
   0.00000000  -0.00010817   0.00000000            0.00      -15.91        0.00
   0.00000000   0.00000000  -0.00002953            0.00        0.00       -4.34

     General routines

     Parallel routines

   This run was terminated on:  18:41:15   5May2021

   JOB DONE.
[1620254475.961595] [holy7c04510:53781:0]          mpool.c:43   UCX  WARN  object 0x38e3f00 was not returned to mpool ucp_requests
[1620254475.960642] [holy7c04309:103485:0]          mpool.c:43   UCX  WARN  object 0x41d9f80 was not returned to mpool ucp_requests
[1620254475.961709] [holy7c04405:255222:0]          mpool.c:43   UCX  WARN  object 0x40c96c0 was not returned to mpool ucp_requests
[1620254475.961725] [holy7c04405:255222:0]          mpool.c:43   UCX  WARN  object 0x40c9a40 was not returned to mpool ucp_requests
[1620254475.960588] [holy7c04505:265195:0]          mpool.c:43   UCX  WARN  object 0x3217640 was not returned to mpool ucp_requests
[1620254475.960607] [holy7c04505:265195:0]          mpool.c:43   UCX  WARN  object 0x3217b80 was not returned to mpool ucp_requests
[1620254475.968769] [holy7c04507:37878:0]          mpool.c:43   UCX  WARN  object 0x478f980 was not returned to mpool ucp_requests
[1620254475.965303] [holy7c04407:133822:0]          mpool.c:43   UCX  WARN  object 0x3f9e780 was not returned to mpool ucp_requests
[1620254475.962163] [holy7c04309:103484:0]          mpool.c:43   UCX  WARN  object 0x459d380 was not returned to mpool ucp_requests
[1620254475.962178] [holy7c04309:103484:0]          mpool.c:43   UCX  WARN  object 0x459d8c0 was not returned to mpool ucp_requests