     Program PWSCF v.6.5 starts on  5May2021 at 17:56:35

     R & G space division:  proc/nbgrp/npool/nimage =      20
     Reading input from YBCO_BaO_cleave_6.0_sep_scf.pwi
Warning: card &IONS ignored
Warning: card     ION_DYNAMICS = 'BFGS' ignored
Warning: card / ignored
Warning: card &CELL ignored
Warning: card     CELL_DYNAMICS = 'BFGS' ignored
Warning: card / ignored

     Current dimensions of program PWSCF are:
     Max number of different atomic species (ntypx) = 10
     Max number of k-points (npk) =  40000
     Max angular momentum in pseudopotentials (lmaxx) =  3

     Message from routine setup:
     using ibrav=0 with symmetry is DISCOURAGED, use correct ibrav instead

     bravais-lattice index     =            0
     lattice parameter (alat)  =       7.3477  a.u.
     unit-cell volume          =    4953.9607 (a.u.)^3
     number of atoms/cell      =           28
     number of atomic types    =            4
     number of electrons       =       229.00
     number of Kohn-Sham states=          138
     kinetic-energy cutoff     =      60.0000  Ry
     charge density cutoff     =     720.0000  Ry
     convergence threshold     =      1.0E-06
     mixing beta               =       0.2000
     number of iterations used =           10  local-TF  mixing
     Exchange-correlation= SLA PW PBE PBE
                           (   1   4   3   4   0   0   0)

     celldm(1)=   7.347715  celldm(2)=   0.000000  celldm(3)=   0.000000
     celldm(4)=   0.000000  celldm(5)=   0.000000  celldm(6)=   0.000000

     crystal axes: (cart. coord. in units of alat)
               a(1) = (   1.000000   0.000000   0.000000 )
               a(2) = (   0.000000   0.975577   0.000000 )
               a(3) = (   0.000000   0.000000  12.800707 )

     reciprocal axes: (cart. coord. in units 2 pi/alat)
               b(1) = (  1.000000  0.000000  0.000000 )
               b(2) = (  0.000000  1.025034  0.000000 )
               b(3) = (  0.000000  0.000000  0.078121 )

     PseudoPot. # 1 for Ba read from file:
     /n/holyscratch01/hoffman_lab/ruizhe/YBCO_Project/pseudo/Ba.pbe-nsp-van.UPF
     MD5 check sum: 2b9c31dd849566dd297d80989662b7a0
     Pseudo is Ultrasoft + core correction, Zval = 10.0
     Generated by new atomic code, or converted to UPF format
     Using radial grid of  907 points,  6 beta functions with:
                l(1) =   0
                l(2) =   0
                l(3) =   1
                l(4) =   1
                l(5) =   2
                l(6) =   2
     Q(r) pseudized with  6 coefficients,  rinner =    1.200   1.200   1.200
                                                       1.200   1.200

     PseudoPot. # 2 for Cu read from file:
     /n/holyscratch01/hoffman_lab/ruizhe/YBCO_Project/pseudo/Cu.pbe-n-van_ak.UPF
     MD5 check sum: 34e3282627ffb533726feb647e090d62
     Pseudo is Ultrasoft + core correction, Zval = 11.0
     Generated by new atomic code, or converted to UPF format
     Using radial grid of  867 points,  6 beta functions with:
                l(1) =   0
                l(2) =   0
                l(3) =   1
                l(4) =   1
                l(5) =   2
                l(6) =   2
     Q(r) pseudized with  8 coefficients,  rinner =    1.400   1.400   1.400
                                                       1.400   1.400

     PseudoPot. # 3 for O  read from file:
     /n/holyscratch01/hoffman_lab/ruizhe/YBCO_Project/pseudo/O.pbe-van_ak.UPF
     MD5 check sum: 783ce7fe4c79b6a4916957118fed0856
     Pseudo is Ultrasoft, Zval =  6.0
     Generated by new atomic code, or converted to UPF format
     Using radial grid of  737 points,  4 beta functions with:
                l(1) =   0
                l(2) =   0
                l(3) =   1
                l(4) =   1
     Q(r) pseudized with  8 coefficients,  rinner =    0.800   0.800   0.800

     PseudoPot. # 4 for Y  read from file:
     /n/holyscratch01/hoffman_lab/ruizhe/YBCO_Project/pseudo/Y.pbe-nsp-van.UPF
     MD5 check sum: 4412fed3ab108fed87a1b7d6a69a4a38
     Pseudo is Ultrasoft + core correction, Zval = 11.0
     Generated by new atomic code, or converted to UPF format
     Using radial grid of  885 points,  6 beta functions with:
                l(1) =   0
                l(2) =   0
                l(3) =   1
                l(4) =   1
                l(5) =   2
                l(6) =   2
     Q(r) pseudized with  6 coefficients,  rinner =    1.200   1.200   1.200
                                                       1.200   1.200

     atomic species   valence    mass     pseudopotential
        Ba            10.00   137.32700     Ba( 1.00)
        Cu            11.00    63.54600     Cu( 1.00)
        O              6.00    15.99900     O ( 1.00)
        Y             11.00    88.90584     Y ( 1.00)

      4 Sym. Ops. (no inversion) found

   Cartesian axes

     site n.     atom                  positions (alat units)
         1           O   tau(   1) = (   0.0000000   0.4877884  -0.0257983  )
         2           Cu  tau(   2) = (   0.0000000   0.0000000   0.0215779  )
         3           O   tau(   3) = (   0.0000000   0.0000000   0.5073114  )
         4           Ba  tau(   4) = (   0.4999996   0.4877884   0.5319677  )
         5           Cu  tau(   5) = (   0.0000000   0.0000000   1.0495845  )
         6           O   tau(   6) = (   0.4999996   0.0000000   1.1181579  )
         7           O   tau(   7) = (   0.0000000   0.4877884   1.1273137  )
         8           Y   tau(   8) = (   0.4999996   0.4877884   1.4938777  )
         9           O   tau(   9) = (   0.0000000   0.4877884   1.8497402  )
        10           O   tau(  10) = (   0.4999996   0.0000000   1.8692709  )
        11           Cu  tau(  11) = (   0.0000000   0.0000000   1.9417560  )
        12           Ba  tau(  12) = (   0.4999996   0.4877884   2.4526063  )
        13           O   tau(  13) = (   0.0000000   0.0000000   2.5103470  )
        14           O   tau(  14) = (   0.0000000   0.4877884   2.9968469  )
        15           Cu  tau(  15) = (   0.0000000   0.0000000   2.9968521  )
        16           O   tau(  16) = (   0.0000000   0.0000000   3.4833288  )
        17           Ba  tau(  17) = (   0.4999996   0.4877884   3.5410618  )
        18           Cu  tau(  18) = (   0.0000000   0.0000000   5.5950485  )
        19           O   tau(  19) = (   0.4999996   0.0000000   5.6675208  )
        20           O   tau(  20) = (   0.0000000   0.4877884   5.6870335  )
        21           Y   tau(  21) = (   0.4999996   0.4877884   6.0428986  )
        22           O   tau(  22) = (   0.0000000   0.4877884   6.4094625  )
        23           O   tau(  23) = (   0.4999996   0.0000000   6.4186312  )
        24           Cu  tau(  24) = (   0.0000000   0.0000000   6.4872097  )
        25           Ba  tau(  25) = (   0.4999996   0.4877884   7.0048111  )
        26           O   tau(  26) = (   0.0000000   0.0000000   7.0294675  )
        27           Cu  tau(  27) = (   0.0000000   0.0000000   7.5151727  )
        28           O   tau(  28) = (   0.0000000   0.4877884   7.5625540  )

     number of k points=    25  Gaussian smearing, width (Ry)=  0.0100
                       cart. coord. in units 2pi/alat
        k(    1) = (   0.0000000   0.0000000   0.0000000), wk =   0.0312500
        k(    2) = (   0.0000000   0.1281293   0.0000000), wk =   0.0625000
        k(    3) = (   0.0000000   0.2562585   0.0000000), wk =   0.0625000
        k(    4) = (   0.0000000   0.3843878   0.0000000), wk =   0.0625000
        k(    5) = (   0.0000000  -0.5125170   0.0000000), wk =   0.0312500
        k(    6) = (   0.1250000   0.0000000   0.0000000), wk =   0.0625000
        k(    7) = (   0.1250000   0.1281293   0.0000000), wk =   0.1250000
        k(    8) = (   0.1250000   0.2562585   0.0000000), wk =   0.1250000
        k(    9) = (   0.1250000   0.3843878   0.0000000), wk =   0.1250000
        k(   10) = (   0.1250000  -0.5125170   0.0000000), wk =   0.0625000
        k(   11) = (   0.2500000   0.0000000   0.0000000), wk =   0.0625000
        k(   12) = (   0.2500000   0.1281293   0.0000000), wk =   0.1250000
        k(   13) = (   0.2500000   0.2562585   0.0000000), wk =   0.1250000
        k(   14) = (   0.2500000   0.3843878   0.0000000), wk =   0.1250000
        k(   15) = (   0.2500000  -0.5125170   0.0000000), wk =   0.0625000
        k(   16) = (   0.3750000   0.0000000   0.0000000), wk =   0.0625000
        k(   17) = (   0.3750000   0.1281293   0.0000000), wk =   0.1250000
        k(   18) = (   0.3750000   0.2562585   0.0000000), wk =   0.1250000
        k(   19) = (   0.3750000   0.3843878   0.0000000), wk =   0.1250000
        k(   20) = (   0.3750000  -0.5125170   0.0000000), wk =   0.0625000
        k(   21) = (  -0.5000000   0.0000000   0.0000000), wk =   0.0312500
        k(   22) = (  -0.5000000   0.1281293   0.0000000), wk =   0.0625000
        k(   23) = (  -0.5000000   0.2562585   0.0000000), wk =   0.0625000
        k(   24) = (  -0.5000000   0.3843878   0.0000000), wk =   0.0625000
        k(   25) = (  -0.5000000  -0.5125170   0.0000000), wk =   0.0312500

     Initial potential from superposition of free atoms

     starting charge  228.84827, renormalised to  229.00000

     negative rho (up, down):  8.957E-02 0.000E+00
     Starting wfcs are  201 randomized atomic wfcs

     Self-consistent Calculation

     iteration #  1     ecut=    60.00 Ry     beta= 0.20
     Davidson diagonalization with overlap
     ethr =  1.00E-02,  avg # of iterations =  2.0

     negative rho (up, down):  8.748E-02 0.000E+00

     total energy              =   -1869.57589911 Ry
     Harris-Foulkes estimate   =   -1871.20229796 Ry
     estimated scf accuracy    <      16.71809888 Ry

[...]

     iteration # 15     ecut=    60.00 Ry     beta= 0.20
     Davidson diagonalization with overlap
     c_bands:  1 eigenvalues not converged
     ethr =  1.44E-05,  avg # of iterations =  9.1

[...]

     iteration # 34     ecut=    60.00 Ry     beta= 0.20
     Davidson diagonalization with overlap
     c_bands:  1 eigenvalues not converged
     ethr =  2.14E-08,  avg # of iterations =  6.8

[...]

     total energy              =   -1868.76770120 Ry
     Harris-Foulkes estimate   =   -1868.76770041 Ry
     estimated scf accuracy    <       0.00000128 Ry

     iteration # 38     ecut=    60.00 Ry     beta= 0.20
     Davidson diagonalization with overlap
     ethr =  5.60E-10,  avg # of iterations =  1.3

[...]

     End of self-consistent calculation

          k = 0.0000 0.0000 0.0000 ( 38797 PWs)   bands (ev):

   -38.6200 -38.2559 -24.6266 -23.2726 -23.2434 -23.1850 -19.1551 -18.7621
   -18.6243 -18.6151 -18.2795 -18.2621 -15.9503 -15.6573 -15.2732 -14.9912
   -14.7699 -14.7574 -14.7356 -14.5563 -14.5482 -14.4744 -14.2556 -14.2502
   -14.2477 -14.0090 -13.9747  -9.9461  -9.4563  -9.4327  -8.4986  -8.4591
    -8.4582  -8.2650  -8.2382  -8.2381  -8.2102  -8.1387  -8.1153  -2.5789
    -2.5445  -2.4143  -2.3608  -2.3584  -2.3570  -2.3505  -2.3316  -2.2886
    -2.2139  -2.1689  -1.9488  -1.8171  -1.4725  -1.3809  -1.0787  -1.0583
    -1.0405  -0.9634  -0.9553  -0.9380  -0.6086  -0.5661  -0.5641  -0.5293
    -0.5269  -0.4356  -0.3879  -0.3701  -0.3636  -0.3494  -0.2657  -0.2128
    -0.2074  -0.1904  -0.1737  -0.1218  -0.1146  -0.1001  -0.0888  -0.0553
     0.0121   0.0361   0.0398   0.0484   0.0593   0.1644   0.1652   0.3343
     0.3829   0.4236   0.5717   0.5980   0.7321   0.7393   0.7528   0.8561
     0.8702   0.8717   0.9050   0.9085   0.9768   1.0065   1.0161   1.0689
     1.2279   1.2417   1.4383   1.4572   1.4888   1.5454   1.5879   1.6874
     1.6997   1.7152   1.8453   1.8486   1.8852   2.1722   2.1725   3.5621
     4.7017   4.7855   4.7957   5.2765   5.3414   5.8272   6.1739   6.2080
     6.3246   6.7016   7.0239   7.1497   7.4164   7.6626   7.6788   7.8533
     7.9927   8.0442

[...]

          k = 0.3750-0.5125 0.0000 ( 39018 PWs)   bands (ev):

[...]

          k =-0.5000 0.0000 0.0000 ( 38882 PWs)   bands (ev):

[...]

          k =-0.5000-0.5125 0.0000 ( 39028 PWs)   bands (ev):

   -38.5922 -38.2278 -24.4215 -23.0305 -23.0010 -22.9495 -19.1744 -19.1473
   -18.8255 -18.8105 -18.6740 -18.2700 -15.0058 -14.9934 -14.7766 -14.7649
   -14.7488 -14.7437 -14.7190 -14.5212 -14.4905 -14.4384 -14.2189 -14.1443
   -14.1378 -14.0684 -13.9183 -10.4189 -10.0689  -9.8643  -9.2246  -9.1963
    -9.0848  -8.9356  -8.9092  -8.7840  -8.4809  -8.4486  -8.4364  -4.6895
    -4.4917  -4.1080  -3.7516  -3.6983  -3.2303  -3.2247  -3.0194  -2.8332
    -2.7908  -2.7873  -2.7106  -2.4727  -2.3431  -2.3381  -2.3379  -2.3155
    -1.9870  -1.9078  -1.5713  -1.5251  -1.4425  -1.4231  -1.3100  -1.2395
    -1.2177  -1.1641  -1.0814  -1.0070  -1.0026  -0.8893  -0.8237  -0.7687
    -0.7453  -0.3639  -0.3606  -0.0638   0.0961   0.1902   0.4052   0.5797
     0.7774   0.8906   0.9097   1.0081   1.0428   1.0693   1.0908   1.0973
     1.1078   1.1321   1.1931   1.2656   1.2660   1.3440   1.3508   1.5130
     1.5324   1.5433   1.5590   1.5616   1.5757   1.5990   1.6304   1.6382
     1.6509   1.8802   1.9748   2.0092   2.0597   2.0644   2.1678   2.1720
     2.5010   2.5094   3.8499   4.0532   4.2757   4.3633   4.3704   4.5174
     5.3086   5.3205   6.0193   6.1357   6.1606   6.3528   7.0545   7.7413
     7.9104   8.2257   8.4073   8.4944   8.6047   8.6404   8.6891   8.7349
     8.9958   9.0740

     the Fermi energy is     2.4705 ev

!    total energy              =   -1868.76770168 Ry
     Harris-Foulkes estimate   =   -1868.76770122 Ry
     estimated scf accuracy    <       0.00000072 Ry

     The total energy is the sum of the following terms:

     one-electron contribution =  -24045.97602945 Ry
     hartree contribution      =   12172.69338071 Ry
     xc contribution           =    -642.20321551 Ry
     ewald contribution        =   10646.72663524 Ry
     smearing contrib. (-TS)   =      -0.00847266 Ry

     convergence has been achieved in  38 iterations

     negative rho (up, down):  9.066E-02 0.000E+00

     Forces acting on atoms (cartesian axes, Ry/au):

     atom    1 type  3   force =     0.00000000    0.00000000   -0.00008732
     atom    2 type  2   force =     0.00000000    0.00000000   -0.00118419
     atom    3 type  3   force =     0.00000000    0.00000000   -0.00000137
     atom    4 type  1   force =     0.00000000    0.00000000   -0.00013933
     atom    5 type  2   force =     0.00000000    0.00000000    0.00002310
     atom    6 type  3   force =     0.00000000    0.00000000    0.00052660
     atom    7 type  3   force =     0.00000000    0.00000000    0.00002486
     atom    8 type  4   force =     0.00000000    0.00000000   -0.00089089
     atom    9 type  3   force =     0.00000000    0.00000000    0.00136699
     atom   10 type  3   force =     0.00000000    0.00000000    0.00169891
     atom   11 type  2   force =     0.00000000    0.00000000   -0.00198162
     atom   12 type  1   force =     0.00000000    0.00000000   -0.00556541
     atom   13 type  3   force =     0.00000000    0.00000000    0.00314496
     atom   14 type  3   force =     0.00000000    0.00000000    0.01756591
     atom   15 type  2   force =     0.00000000    0.00000000   -0.01563568
     atom   16 type  3   force =     0.00000000    0.00000000    0.04418184
     atom   17 type  1   force =     0.00000000    0.00000000   -0.04218348
     atom   18 type  2   force =     0.00000000    0.00000000    0.00003783
     atom   19 type  3   force =     0.00000000    0.00000000    0.01958077
     atom   20 type  3   force =     0.00000000    0.00000000    0.01077049
     atom   21 type  4   force =     0.00000000    0.00000000   -0.04290868
     atom   22 type  3   force =     0.00000000    0.00000000    0.00411102
     atom   23 type  3   force =     0.00000000    0.00000000    0.00698974
     atom   24 type  2   force =     0.00000000    0.00000000    0.00129535
     atom   25 type  1   force =     0.00000000    0.00000000   -0.00183817
     atom   26 type  3   force =     0.00000000    0.00000000    0.00133247
     atom   27 type  2   force =     0.00000000    0.00000000   -0.00065084
     atom   28 type  3   force =     0.00000000    0.00000000    0.00041614

     Total force =     0.082160     Total SCF correction =     0.002384

     Computing stress (Cartesian axis) and pressure

     negative rho (up, down):  9.066E-02 0.000E+00
          total   stress  (Ry/bohr**3)                   (kbar)     P=       -6.56
  -0.00007989   0.00000000   0.00000000          -11.75        0.00        0.00
   0.00000000  -0.00003699   0.00000000            0.00       -5.44        0.00
   0.00000000   0.00000000  -0.00001695            0.00        0.00       -2.49

     General routines

     Parallel routines

   This run was terminated on:  18: 9:19   5May2021

   JOB DONE.
[1620252559.322489] [holy7c04302:195043:0]          mpool.c:43   UCX  WARN  object 0x3a3a800 was not returned to mpool ucp_requests
[1620252559.322505] [holy7c04302:195043:0]          mpool.c:43   UCX  WARN  object 0x3a3b0c0 was not returned to mpool ucp_requests
[1620252559.325706] [holy7c04106:200610:0]          mpool.c:43   UCX  WARN  object 0x2835000 was not returned to mpool ucp_requests
[1620252559.325865] [holy7c04211:94079:0]          mpool.c:43   UCX  WARN  object 0x44e3600 was not returned to mpool ucp_requests
[1620252559.325879] [holy7c04211:94079:0]          mpool.c:43   UCX  WARN  object 0x44e4080 was not returned to mpool ucp_requests
[1620252559.332397] [holy7c02602:45322:0]          mpool.c:43   UCX  WARN  object 0x2fae8c0 was not returned to mpool ucp_requests
[1620252559.335622] [holy7c04206:271916:0]          mpool.c:43   UCX  WARN  object 0x3f25cc0 was not returned to mpool ucp_requests
[1620252559.334313] [holy7c04107:271761:0]          mpool.c:43   UCX  WARN  object 0x403ea80 was not returned to mpool ucp_requests
[1620252559.337871] [holy7c04212:197740:0]          mpool.c:43   UCX  WARN  object 0x309ac40 was not returned to mpool ucp_requests
[1620252559.374715] [holy7c04202:18788:0]          mpool.c:43   UCX  WARN  object 0x3bc98c0 was not returned to mpool ucp_requests
[1620252559.374741] [holy7c04202:18788:0]          mpool.c:43   UCX  WARN  object 0x3bc9a80 was not returned to mpool ucp_requests