     Program PWSCF v.6.5 starts on  5May2021 at 17:59:42

     R & G space division:  proc/nbgrp/npool/nimage =      20
     Reading input from YBCO_CuO_cleave_4.5_sep_scf.pwi
Warning: card &IONS ignored
Warning: card     ION_DYNAMICS = 'BFGS' ignored
Warning: card / ignored
Warning: card &CELL ignored
Warning: card     CELL_DYNAMICS = 'BFGS' ignored
Warning: card / ignored

     Current dimensions of program PWSCF are:
     Max number of different atomic species (ntypx) = 10
     Max number of k-points (npk) =  40000
     Max angular momentum in pseudopotentials (lmaxx) =  3

     Message from routine setup:
     using ibrav=0 with symmetry is DISCOURAGED, use correct ibrav instead

     bravais-lattice index     =            0
     lattice parameter (alat)  =       7.3477  a.u.
     unit-cell volume          =    4804.6619 (a.u.)^3
     number of atoms/cell      =           28
     number of atomic types    =            4
     number of electrons       =       229.00
     number of Kohn-Sham states=          138
     kinetic-energy cutoff     =      60.0000  Ry
     charge density cutoff     =     720.0000  Ry
     convergence threshold     =      1.0E-06
     mixing beta               =       0.2000
     number of iterations used =           10  local-TF  mixing
     Exchange-correlation= SLA PW PBE PBE
                           (   1   4   3   4   0   0   0)

     celldm(1)=   7.347715  celldm(2)=   0.000000  celldm(3)=   0.000000
     celldm(4)=   0.000000  celldm(5)=   0.000000  celldm(6)=   0.000000

     crystal axes: (cart. coord. in units of alat)
               a(1) = (   1.000000   0.000000   0.000000 )
               a(2) = (   0.000000   0.975577   0.000000 )
               a(3) = (   0.000000   0.000000  12.414928 )

     reciprocal axes: (cart. coord. in units 2 pi/alat)
               b(1) = (  1.000000  0.000000  0.000000 )
               b(2) = (  0.000000  1.025034  0.000000 )
               b(3) = (  0.000000  0.000000  0.080548 )

     PseudoPot. # 1 for Ba read from file:
     /n/holyscratch01/hoffman_lab/ruizhe/YBCO_Project/pseudo/Ba.pbe-nsp-van.UPF
     MD5 check sum: 2b9c31dd849566dd297d80989662b7a0
     Pseudo is Ultrasoft + core correction, Zval = 10.0
     Generated by new atomic code, or converted to UPF format
     Using radial grid of  907 points,  6 beta functions with:
                l(1) =   0
                l(2) =   0
                l(3) =   1
                l(4) =   1
                l(5) =   2
                l(6) =   2
     Q(r) pseudized with  6 coefficients,  rinner =    1.200   1.200   1.200
                                                       1.200   1.200

     PseudoPot. # 2 for Cu read from file:
     /n/holyscratch01/hoffman_lab/ruizhe/YBCO_Project/pseudo/Cu.pbe-n-van_ak.UPF
     MD5 check sum: 34e3282627ffb533726feb647e090d62
     Pseudo is Ultrasoft + core correction, Zval = 11.0
     Generated by new atomic code, or converted to UPF format
     Using radial grid of  867 points,  6 beta functions with:
                l(1) =   0
                l(2) =   0
                l(3) =   1
                l(4) =   1
                l(5) =   2
                l(6) =   2
     Q(r) pseudized with  8 coefficients,  rinner =    1.400   1.400   1.400
                                                       1.400   1.400

     PseudoPot. # 3 for O  read from file:
     /n/holyscratch01/hoffman_lab/ruizhe/YBCO_Project/pseudo/O.pbe-van_ak.UPF
     MD5 check sum: 783ce7fe4c79b6a4916957118fed0856
     Pseudo is Ultrasoft, Zval =  6.0
     Generated by new atomic code, or converted to UPF format
     Using radial grid of  737 points,  4 beta functions with:
                l(1) =   0
                l(2) =   0
                l(3) =   1
                l(4) =   1
     Q(r) pseudized with  8 coefficients,  rinner =    0.800   0.800   0.800

     PseudoPot. # 4 for Y  read from file:
     /n/holyscratch01/hoffman_lab/ruizhe/YBCO_Project/pseudo/Y.pbe-nsp-van.UPF
     MD5 check sum: 4412fed3ab108fed87a1b7d6a69a4a38
     Pseudo is Ultrasoft + core correction, Zval = 11.0
     Generated by new atomic code, or converted to UPF format
     Using radial grid of  885 points,  6 beta functions with:
                l(1) =   0
                l(2) =   0
                l(3) =   1
                l(4) =   1
                l(5) =   2
                l(6) =   2
     Q(r) pseudized with  6 coefficients,  rinner =    1.200   1.200   1.200
                                                       1.200   1.200

     atomic species   valence    mass     pseudopotential
        Ba            10.00   137.32700     Ba( 1.00)
        Cu            11.00    63.54600     Cu( 1.00)
        O              6.00    15.99900     O ( 1.00)
        Y             11.00    88.90584     Y ( 1.00)

      4 Sym. Ops. (no inversion) found

   Cartesian axes

     site n.     atom                  positions (alat units)
         1           O   tau(   1) = (   0.0000000   0.4877884  -0.0257983  )
         2           Cu  tau(   2) = (   0.0000000   0.0000000   0.0215779  )
         3           O   tau(   3) = (   0.0000000   0.0000000   0.5073114  )
         4           Ba  tau(   4) = (   0.4999996   0.4877884   0.5319677  )
         5           Cu  tau(   5) = (   0.0000000   0.0000000   1.0495845  )
         6           O   tau(   6) = (   0.4999996   0.0000000   1.1181579  )
         7           O   tau(   7) = (   0.0000000   0.4877884   1.1273137  )
         8           Y   tau(   8) = (   0.4999996   0.4877884   1.4938777  )
         9           O   tau(   9) = (   0.0000000   0.4877884   1.8497402  )
        10           O   tau(  10) = (   0.4999996   0.0000000   1.8692709  )
        11           Cu  tau(  11) = (   0.0000000   0.0000000   1.9417560  )
        12           Ba  tau(  12) = (   0.4999996   0.4877884   2.4526063  )
        13           O   tau(  13) = (   0.0000000   0.0000000   2.5103470  )
        14           O   tau(  14) = (   0.0000000   0.4877884   2.9968469  )
        15           Cu  tau(  15) = (   0.0000000   0.0000000   2.9968521  )
        16           O   tau(  16) = (   0.0000000   0.0000000   4.6406638  )
        17           Ba  tau(  17) = (   0.4999996   0.4877884   4.6983968  )
        18           Cu  tau(  18) = (   0.0000000   0.0000000   5.2092702  )
        19           O   tau(  19) = (   0.4999996   0.0000000   5.2817425  )
        20           O   tau(  20) = (   0.0000000   0.4877884   5.3012552  )
        21           Y   tau(  21) = (   0.4999996   0.4877884   5.6571202  )
        22           O   tau(  22) = (   0.0000000   0.4877884   6.0236842  )
        23           O   tau(  23) = (   0.4999996   0.0000000   6.0328529  )
        24           Cu  tau(  24) = (   0.0000000   0.0000000   6.1014314  )
        25           Ba  tau(  25) = (   0.4999996   0.4877884   6.6190328  )
        26           O   tau(  26) = (   0.0000000   0.0000000   6.6436891  )
        27           Cu  tau(  27) = (   0.0000000   0.0000000   7.1293943  )
        28           O   tau(  28) = (   0.0000000   0.4877884   7.1767756  )

     number of k points=    25  Gaussian smearing, width (Ry)=  0.0100
                       cart. coord. in units 2pi/alat
        k(    1) = (   0.0000000   0.0000000   0.0000000), wk =   0.0312500
        k(    2) = (   0.0000000   0.1281293   0.0000000), wk =   0.0625000
        k(    3) = (   0.0000000   0.2562585   0.0000000), wk =   0.0625000
        k(    4) = (   0.0000000   0.3843878   0.0000000), wk =   0.0625000
        k(    5) = (   0.0000000  -0.5125170   0.0000000), wk =   0.0312500
        k(    6) = (   0.1250000   0.0000000   0.0000000), wk =   0.0625000
        k(    7) = (   0.1250000   0.1281293   0.0000000), wk =   0.1250000
        k(    8) = (   0.1250000   0.2562585   0.0000000), wk =   0.1250000
        k(    9) = (   0.1250000   0.3843878   0.0000000), wk =   0.1250000
        k(   10) = (   0.1250000  -0.5125170   0.0000000), wk =   0.0625000
        k(   11) = (   0.2500000   0.0000000   0.0000000), wk =   0.0625000
        k(   12) = (   0.2500000   0.1281293   0.0000000), wk =   0.1250000
        k(   13) = (   0.2500000   0.2562585   0.0000000), wk =   0.1250000
        k(   14) = (   0.2500000   0.3843878   0.0000000), wk =   0.1250000
        k(   15) = (   0.2500000  -0.5125170   0.0000000), wk =   0.0625000
        k(   16) = (   0.3750000   0.0000000   0.0000000), wk =   0.0625000
        k(   17) = (   0.3750000   0.1281293   0.0000000), wk =   0.1250000
        k(   18) = (   0.3750000   0.2562585   0.0000000), wk =   0.1250000
        k(   19) = (   0.3750000   0.3843878   0.0000000), wk =   0.1250000
        k(   20) = (   0.3750000  -0.5125170   0.0000000), wk =   0.0625000
        k(   21) = (  -0.5000000   0.0000000   0.0000000), wk =   0.0312500
        k(   22) = (  -0.5000000   0.1281293   0.0000000), wk =   0.0625000
        k(   23) = (  -0.5000000   0.2562585   0.0000000), wk =   0.0625000
        k(   24) = (  -0.5000000   0.3843878   0.0000000), wk =   0.0625000
        k(   25) = (  -0.5000000  -0.5125170   0.0000000), wk =   0.0312500

     Initial potential from superposition of free atoms

     starting charge  228.84827, renormalised to  229.00000

     negative rho (up, down):  8.950E-02 0.000E+00
     Starting wfcs are  201 randomized atomic wfcs

     Self-consistent Calculation

     iteration #  1     ecut=    60.00 Ry     beta= 0.20
     Davidson diagonalization with overlap
     ethr =  1.00E-02,  avg # of iterations =  2.0

     negative rho (up, down):  8.732E-02 0.000E+00

     total energy              =   -1869.51971259 Ry
     Harris-Foulkes estimate   =   -1871.09963851 Ry
     estimated scf accuracy    <      13.44039888 Ry

[...]

     iteration # 26     ecut=    60.00 Ry     beta= 0.20
     Davidson diagonalization with overlap
     c_bands:  1 eigenvalues not converged
     ethr =  1.05E-06,  avg # of iterations =  7.4

[...]

     iteration # 30     ecut=    60.00 Ry     beta= 0.20
     Davidson diagonalization with overlap
     c_bands:  1 eigenvalues not converged
     c_bands:  1 eigenvalues not converged
     ethr =  3.27E-08,  avg # of iterations =  5.5

[...]

     total energy              =   -1868.72223597 Ry
     Harris-Foulkes estimate   =   -1868.72223584 Ry
     estimated scf accuracy    <       0.00000129 Ry

     iteration # 35     ecut=    60.00 Ry     beta= 0.20
     Davidson diagonalization with overlap
     ethr =  5.64E-10,  avg # of iterations =  1.0

[...]

     End of self-consistent calculation

          k = 0.0000 0.0000 0.0000 ( 37611 PWs)   bands (ev):

   -38.6537 -38.5771 -23.2828 -23.2704 -23.1737 -23.1228 -19.1868 -19.1191
   -18.6592 -18.6503 -18.5833 -18.5702 -15.9781 -15.9280 -15.0203 -14.9667
   -14.7676 -14.7638 -14.7577 -14.7135 -14.6689 -14.5023 -14.4485 -14.2650
   -14.2525 -14.0079 -12.7215  -8.5464  -8.5035  -8.4840  -8.3370  -8.2751
    -8.2634  -8.2481  -8.2366  -8.0963  -8.0730  -8.0464  -7.9645  -2.6097
    -2.5793  -2.5576  -2.5299  -2.4391  -2.3840  -2.3657  -2.3564  -2.3225
    -2.2827  -2.2462  -2.1918  -2.0709  -1.4149  -1.3527  -0.9632  -0.9464
    -0.8988  -0.6318  -0.5748  -0.5741  -0.5650  -0.5367  -0.5298  -0.3756
    -0.3736  -0.3418  -0.3217  -0.3042  -0.2975  -0.2430  -0.2385  -0.2123
    -0.2029  -0.1125  -0.1088  -0.0973  -0.0955  -0.0726  -0.0119   0.0037
     0.0419   0.0453   0.0558   0.0681   0.1184   0.1558   0.1603   0.1772
     0.4517   0.6002   0.6444   0.7079   0.7097   0.7517   0.7820   0.8201
     0.8587   0.8646   0.8762   0.9619   0.9683   0.9819   0.9934   0.9961
     1.0385   1.4172   1.4587   1.4794   1.4871   1.5702   1.6788   1.6858
     1.7670   1.9834   2.1230   2.1700   2.2086   2.2511   2.2807   4.6559
     4.7914   4.8230   5.3545   5.4252   5.9887   6.1662   6.1837   6.3884
     6.4413   6.8940   7.0644   7.6400   7.6698   7.7138   7.8624   8.0811
     8.1447   8.1904

[...]

          k = 0.3750-0.5125 0.0000 ( 37814 PWs)   bands (ev):

[...]

          k =-0.5000 0.0000 0.0000 ( 37718 PWs)   bands (ev):

[...]

          k =-0.5000-0.5125 0.0000 ( 37836 PWs)   bands (ev):

   -38.6259 -38.5492 -23.0407 -23.0282 -22.9639 -22.8843 -19.2097 -19.1821
   -19.1311 -19.1107 -18.7060 -18.6352 -15.0323 -15.0226 -14.9962 -14.9576
   -14.7558 -14.7551 -14.5205 -14.4775 -14.4676 -14.4515 -14.3977 -14.1488
   -14.1302 -14.0683 -12.8357  -9.2345  -9.2231  -9.0471  -8.9458  -8.9339
    -8.8708  -8.7593  -8.7486  -8.4824  -8.4756  -8.4396  -8.3404  -4.7228
    -4.6594  -4.1391  -4.0593  -3.2333  -3.2277  -3.2177  -3.0364  -2.9926
    -2.8469  -2.8348  -2.7581  -2.7119  -2.3484  -2.3467  -2.3262  -2.2789
    -2.0437  -1.5751  -1.5310  -1.4553  -1.4061  -1.3161  -1.2340  -1.2226
    -1.2127  -1.1136  -1.0895  -1.0852  -1.0108  -0.9961  -0.9573  -0.3671
    -0.3599  -0.3561  -0.2542  -0.0333   0.2701   0.4014   0.6769   0.7422
     0.8819   0.9259   0.9740   0.9909   1.0071   1.0203   1.0293   1.0394
     1.0594   1.1375   1.2367   1.2653   1.3118   1.3250   1.3534   1.5105
     1.5330   1.5393   1.5461   1.5524   1.5577   1.6741   1.7594   1.8682
     2.0551   2.0737   2.1629   2.1786   2.2414   2.2765   2.4484   2.4609
     2.4644   2.5548   2.7846   4.2298   4.2579   4.3435   4.3569   5.3002
     5.3126   5.5723   6.0688   6.1850   7.5361   7.5645   7.8757   7.8939
     8.2119   8.4025   8.6468   8.7241   8.7558   8.7597   8.9318   9.0054
     9.0242   9.0777

     the Fermi energy is     2.4591 ev

!    total energy              =   -1868.72223557 Ry
     Harris-Foulkes estimate   =   -1868.72223601 Ry
     estimated scf accuracy    <       0.00000049 Ry

     The total energy is the sum of the following terms:

     one-electron contribution =  -24728.84354596 Ry
     hartree contribution      =   12514.75956603 Ry
     xc contribution           =    -642.19934016 Ry
     ewald contribution        =   10987.57181323 Ry
     smearing contrib. (-TS)   =      -0.01072871 Ry

     convergence has been achieved in  35 iterations

     negative rho (up, down):  9.052E-02 0.000E+00

     Forces acting on atoms (cartesian axes, Ry/au):

     atom    1 type  3   force =     0.00000000    0.00000000   -0.00059973
     atom    2 type  2   force =     0.00000000    0.00000000    0.00043549
     atom    3 type  3   force =     0.00000000    0.00000000    0.00032795
     atom    4 type  1   force =     0.00000000    0.00000000   -0.00022760
     atom    5 type  2   force =     0.00000000    0.00000000   -0.00029009
     atom    6 type  3   force =     0.00000000    0.00000000    0.00132402
     atom    7 type  3   force =     0.00000000    0.00000000    0.00103468
     atom    8 type  4   force =     0.00000000    0.00000000   -0.00289372
     atom    9 type  3   force =     0.00000000    0.00000000    0.00504947
     atom   10 type  3   force =     0.00000000    0.00000000    0.00347780
     atom   11 type  2   force =     0.00000000    0.00000000   -0.00154502
     atom   12 type  1   force =     0.00000000    0.00000000    0.01649852
     atom   13 type  3   force =     0.00000000    0.00000000   -0.01937247
     atom   14 type  3   force =     0.00000000    0.00000000    0.02174561
     atom   15 type  2   force =     0.00000000    0.00000000   -0.02386093
     atom   16 type  3   force =     0.00000000    0.00000000    0.01868749
     atom   17 type  1   force =     0.00000000    0.00000000   -0.00242068
     atom   18 type  2   force =     0.00000000    0.00000000   -0.02264293
     atom   19 type  3   force =     0.00000000    0.00000000    0.00421848
     atom   20 type  3   force =     0.00000000    0.00000000    0.00304419
     atom   21 type  4   force =     0.00000000    0.00000000   -0.00092382
     atom   22 type  3   force =     0.00000000    0.00000000   -0.00059229
     atom   23 type  3   force =     0.00000000    0.00000000    0.00078418
     atom   24 type  2   force =     0.00000000    0.00000000    0.00008818
     atom   25 type  1   force =     0.00000000    0.00000000    0.00002170
     atom   26 type  3   force =     0.00000000    0.00000000   -0.00196982
     atom   27 type  2   force =     0.00000000    0.00000000    0.00034622
     atom   28 type  3   force =     0.00000000    0.00000000    0.00025511

     Total force =     0.051404     Total SCF correction =     0.002066

     Computing stress (Cartesian axis) and pressure

     negative rho (up, down):  9.052E-02 0.000E+00
          total   stress  (Ry/bohr**3)                   (kbar)     P=       -6.03
   0.00000239   0.00000000   0.00000000            0.35        0.00        0.00
   0.00000000  -0.00010338   0.00000000            0.00      -15.21        0.00
   0.00000000   0.00000000  -0.00002193            0.00        0.00       -3.23

     General routines

     Parallel routines

   This run was terminated on:  18:10:17   5May2021

   JOB DONE.
[1620252617.616109] [holy7c08411:20045:0]          mpool.c:43   UCX  WARN  object 0x3da3940 was not returned to mpool ucp_requests
[1620252617.623481] [holy7c08309:98366:0]          mpool.c:43   UCX  WARN  object 0x2e5f900 was not returned to mpool ucp_requests
[1620252617.621999] [holy7c08409:84563:0]          mpool.c:43   UCX  WARN  object 0x39fec00 was not returned to mpool ucp_requests
[1620252617.622020] [holy7c08409:84563:0]          mpool.c:43   UCX  WARN  object 0x39fef80 was not returned to mpool ucp_requests
[1620252617.622785] [holy7c08405:131906:0]          mpool.c:43   UCX  WARN  object 0x3d34500 was not returned to mpool ucp_requests
[1620252617.622809] [holy7c08405:131906:0]          mpool.c:43   UCX  WARN  object 0x3d34a40 was not returned to mpool ucp_requests
[1620252617.624225] [holy7c08407:246225:0]          mpool.c:43   UCX  WARN  object 0x2b6a100 was not returned to mpool ucp_requests
[1620252617.616957] [holy7c08411:20046:0]          mpool.c:43   UCX  WARN  object 0x343b340 was not returned to mpool ucp_requests
[1620252617.624243] [holy7c08309:98367:0]          mpool.c:43   UCX  WARN  object 0x38c9ec0 was not returned to mpool ucp_requests