     Program PWSCF v.6.5 starts on  5May2021 at 18: 6:31

     R & G space division:  proc/nbgrp/npool/nimage =      20
     Reading input from YBCO_Y_cleave_4.5_sep_scf.pwi
Warning: card &IONS ignored
Warning: card     ION_DYNAMICS = 'BFGS' ignored
Warning: card / ignored
Warning: card &CELL ignored
Warning: card     CELL_DYNAMICS = 'BFGS' ignored
Warning: card / ignored

     Current dimensions of program PWSCF are:
     Max number of different atomic species (ntypx) = 10
     Max number of k-points (npk) =  40000
     Max angular momentum in pseudopotentials (lmaxx) =  3

     Message from routine setup:
     using ibrav=0 with symmetry is DISCOURAGED, use correct ibrav instead

     bravais-lattice index     =            0
     lattice parameter (alat)  =       7.3477  a.u.
     unit-cell volume          =    4804.6619 (a.u.)^3
     number of atoms/cell      =           28
     number of atomic types    =            4
     number of electrons       =       229.00
     number of Kohn-Sham states=          138
     kinetic-energy cutoff     =      60.0000  Ry
     charge density cutoff     =     720.0000  Ry
     convergence threshold     =      1.0E-06
     mixing beta               =       0.2000
     number of iterations used =           10  local-TF  mixing
     Exchange-correlation= SLA PW PBE PBE
                           (   1   4   3   4   0   0   0)

     celldm(1)=   7.347715  celldm(2)=   0.000000  celldm(3)=   0.000000
     celldm(4)=   0.000000  celldm(5)=   0.000000  celldm(6)=   0.000000

     crystal axes: (cart. coord. in units of alat)
               a(1) = (   1.000000   0.000000   0.000000 )
               a(2) = (   0.000000   0.975577   0.000000 )
               a(3) = (   0.000000   0.000000  12.414928 )

     reciprocal axes: (cart. coord. in units 2 pi/alat)
               b(1) = (  1.000000  0.000000  0.000000 )
               b(2) = (  0.000000  1.025034  0.000000 )
               b(3) = (  0.000000  0.000000  0.080548 )

     PseudoPot. # 1 for Ba read from file:
     /n/holyscratch01/hoffman_lab/ruizhe/YBCO_Project/pseudo/Ba.pbe-nsp-van.UPF
     MD5 check sum: 2b9c31dd849566dd297d80989662b7a0
     Pseudo is Ultrasoft + core correction, Zval = 10.0
     Generated by new atomic code, or converted to UPF format
     Using radial grid of  907 points,  6 beta functions with:
                l(1) =   0
                l(2) =   0
                l(3) =   1
                l(4) =   1
                l(5) =   2
                l(6) =   2
     Q(r) pseudized with  6 coefficients,  rinner =    1.200   1.200   1.200
                                                       1.200   1.200

     PseudoPot. # 2 for Cu read from file:
     /n/holyscratch01/hoffman_lab/ruizhe/YBCO_Project/pseudo/Cu.pbe-n-van_ak.UPF
     MD5 check sum: 34e3282627ffb533726feb647e090d62
     Pseudo is Ultrasoft + core correction, Zval = 11.0
     Generated by new atomic code, or converted to UPF format
     Using radial grid of  867 points,  6 beta functions with:
                l(1) =   0
                l(2) =   0
                l(3) =   1
                l(4) =   1
                l(5) =   2
                l(6) =   2
     Q(r) pseudized with  8 coefficients,  rinner =    1.400   1.400   1.400
                                                       1.400   1.400

     PseudoPot. # 3 for O  read from file:
     /n/holyscratch01/hoffman_lab/ruizhe/YBCO_Project/pseudo/O.pbe-van_ak.UPF
     MD5 check sum: 783ce7fe4c79b6a4916957118fed0856
     Pseudo is Ultrasoft, Zval =  6.0
     Generated by new atomic code, or converted to UPF format
     Using radial grid of  737 points,  4 beta functions with:
                l(1) =   0
                l(2) =   0
                l(3) =   1
                l(4) =   1
     Q(r) pseudized with  8 coefficients,  rinner =    0.800   0.800   0.800

     PseudoPot. # 4 for Y  read from file:
     /n/holyscratch01/hoffman_lab/ruizhe/YBCO_Project/pseudo/Y.pbe-nsp-van.UPF
     MD5 check sum: 4412fed3ab108fed87a1b7d6a69a4a38
     Pseudo is Ultrasoft + core correction, Zval = 11.0
     Generated by new atomic code, or converted to UPF format
     Using radial grid of  885 points,  6 beta functions with:
                l(1) =   0
                l(2) =   0
                l(3) =   1
                l(4) =   1
                l(5) =   2
                l(6) =   2
     Q(r) pseudized with  6 coefficients,  rinner =    1.200   1.200   1.200
                                                       1.200   1.200

     atomic species   valence    mass     pseudopotential
        Ba            10.00   137.32700     Ba( 1.00)
        Cu            11.00    63.54600     Cu( 1.00)
        O              6.00    15.99900     O ( 1.00)
        Y             11.00    88.90584     Y ( 1.00)

      4 Sym. Ops. (no inversion) found

   Cartesian axes

     site n.     atom                  positions (alat units)
         1           O   tau(   1) = (   0.0000000   0.4877884  -0.0257983  )
         2           Cu  tau(   2) = (   0.0000000   0.0000000   0.0215779  )
         3           O   tau(   3) = (   0.0000000   0.0000000   0.5073114  )
         4           Ba  tau(   4) = (   0.4999996   0.4877884   0.5319677  )
         5           Cu  tau(   5) = (   0.0000000   0.0000000   1.0495845  )
         6           O   tau(   6) = (   0.4999996   0.0000000   1.1181579  )
         7           O   tau(   7) = (   0.0000000   0.4877884   1.1273137  )
         8           Y   tau(   8) = (   0.4999996   0.4877884   1.4938777  )
         9           O   tau(   9) = (   0.0000000   0.4877884   1.8497402  )
        10           O   tau(  10) = (   0.4999996   0.0000000   1.8692709  )
        11           Cu  tau(  11) = (   0.0000000   0.0000000   1.9417560  )
        12           Ba  tau(  12) = (   0.4999996   0.4877884   2.4526063  )
        13           O   tau(  13) = (   0.0000000   0.0000000   2.5103470  )
        14           O   tau(  14) = (   0.0000000   0.4877884   2.9968469  )
        15           Cu  tau(  15) = (   0.0000000   0.0000000   2.9968521  )
        16           O   tau(  16) = (   0.0000000   0.0000000   3.4833288  )
        17           Ba  tau(  17) = (   0.4999996   0.4877884   3.5410618  )
        18           Cu  tau(  18) = (   0.0000000   0.0000000   4.0519352  )
        19           O   tau(  19) = (   0.4999996   0.0000000   4.1244075  )
        20           O   tau(  20) = (   0.0000000   0.4877884   4.1439202  )
        21           Y   tau(  21) = (   0.4999996   0.4877884   4.4997853  )
        22           O   tau(  22) = (   0.0000000   0.4877884   6.0236842  )
        23           O   tau(  23) = (   0.4999996   0.0000000   6.0328529  )
        24           Cu  tau(  24) = (   0.0000000   0.0000000   6.1014314  )
        25           Ba  tau(  25) = (   0.4999996   0.4877884   6.6190328  )
        26           O   tau(  26) = (   0.0000000   0.0000000   6.6436891  )
        27           Cu  tau(  27) = (   0.0000000   0.0000000   7.1293943  )
        28           O   tau(  28) = (   0.0000000   0.4877884   7.1767756  )

     number of k points=    25  Gaussian smearing, width (Ry)=  0.0100
                       cart. coord. in units 2pi/alat
        k(    1) = (   0.0000000   0.0000000   0.0000000), wk =   0.0312500
        k(    2) = (   0.0000000   0.1281293   0.0000000), wk =   0.0625000
        k(    3) = (   0.0000000   0.2562585   0.0000000), wk =   0.0625000
        k(    4) = (   0.0000000   0.3843878   0.0000000), wk =   0.0625000
        k(    5) = (   0.0000000  -0.5125170   0.0000000), wk =   0.0312500
        k(    6) = (   0.1250000   0.0000000   0.0000000), wk =   0.0625000
        k(    7) = (   0.1250000   0.1281293   0.0000000), wk =   0.1250000
        k(    8) = (   0.1250000   0.2562585   0.0000000), wk =   0.1250000
        k(    9) = (   0.1250000   0.3843878   0.0000000), wk =   0.1250000
        k(   10) = (   0.1250000  -0.5125170   0.0000000), wk =   0.0625000
        k(   11) = (   0.2500000   0.0000000   0.0000000), wk =   0.0625000
        k(   12) = (   0.2500000   0.1281293   0.0000000), wk =   0.1250000
        k(   13) = (   0.2500000   0.2562585   0.0000000), wk =   0.1250000
        k(   14) = (   0.2500000   0.3843878   0.0000000), wk =   0.1250000
        k(   15) = (   0.2500000  -0.5125170   0.0000000), wk =   0.0625000
        k(   16) = (   0.3750000   0.0000000   0.0000000), wk =   0.0625000
        k(   17) = (   0.3750000   0.1281293   0.0000000), wk =   0.1250000
        k(   18) = (   0.3750000   0.2562585   0.0000000), wk =   0.1250000
        k(   19) = (   0.3750000   0.3843878   0.0000000), wk =   0.1250000
        k(   20) = (   0.3750000  -0.5125170   0.0000000), wk =   0.0625000
        k(   21) = (  -0.5000000   0.0000000   0.0000000), wk =   0.0312500
        k(   22) = (  -0.5000000   0.1281293   0.0000000), wk =   0.0625000
        k(   23) = (  -0.5000000   0.2562585   0.0000000), wk =   0.0625000
        k(   24) = (  -0.5000000   0.3843878   0.0000000), wk =   0.0625000
        k(   25) = (  -0.5000000  -0.5125170   0.0000000), wk =   0.0312500

     Initial potential from superposition of free atoms

     starting charge  228.84827, renormalised to  229.00000

     negative rho (up, down):  8.972E-02 0.000E+00
     Starting wfcs are  201 randomized atomic wfcs

     Self-consistent Calculation

     iteration #  1     ecut=    60.00 Ry     beta= 0.20
     Davidson diagonalization with overlap
     ethr =  1.00E-02,  avg # of iterations =  2.0

     negative rho (up, down):  8.735E-02 0.000E+00

     total energy              =   -1869.45657547 Ry
     Harris-Foulkes estimate   =   -1871.04013733 Ry
     estimated scf accuracy    <      14.64190675 Ry

[...]

     iteration # 27     ecut=    60.00 Ry     beta= 0.20
     Davidson diagonalization with overlap
     c_bands:  1 eigenvalues not converged
     c_bands:  1 eigenvalues not converged
     c_bands:  1 eigenvalues not converged
     ethr =  2.65E-07,  avg # of iterations =  6.2

[...]

     iteration # 28     ecut=    60.00 Ry     beta= 0.20
     Davidson diagonalization with overlap
     c_bands:  1 eigenvalues not converged
     ethr =  1.68E-07,  avg # of iterations =  4.1

[...]

     total energy              =   -1868.39062365 Ry
     Harris-Foulkes estimate   =   -1868.39062357 Ry
     estimated scf accuracy    <       0.00000118 Ry

     iteration # 40     ecut=    60.00 Ry     beta= 0.20
     Davidson diagonalization with overlap
     ethr =  5.16E-10,  avg # of iterations =  1.0

[...]

     End of self-consistent calculation

          k = 0.0000 0.0000 0.0000 ( 37611 PWs)   bands (ev):

   -41.3667 -38.5175 -23.4446 -23.1711 -23.0285 -22.7731 -21.5086 -21.2395
   -21.2325 -19.0524 -18.5223 -18.5124 -16.5414 -15.8479 -15.6145 -14.9903
   -14.8874 -14.6944 -14.6567 -14.6334 -14.5493 -14.3718 -14.1548 -14.0826
   -14.0457 -13.8621 -13.3879  -8.7568  -8.3924  -8.3794  -8.3692  -8.3006
    -8.1636  -8.1368  -7.9825  -7.9638  -7.8997  -7.8016  -7.7664  -3.3199
    -3.2960  -2.8451  -2.4766  -2.4435  -2.4186  -2.2954  -2.2555  -2.2124
    -2.1890  -2.1116  -1.8999  -1.2823  -1.2500  -1.2089  -1.1955  -1.0543
    -0.9332  -0.8545  -0.8148  -0.7925  -0.7666  -0.5883  -0.5026  -0.4656
    -0.4289  -0.3808  -0.3544  -0.3410  -0.2764  -0.2659  -0.2644  -0.2576
    -0.2476  -0.1702  -0.1130  -0.1060   0.0006   0.0060   0.0393   0.1046
     0.1358   0.1434   0.1488   0.1731   0.1891   0.2274   0.2520   0.2655
     0.2795   0.3897   0.4121   0.5459   0.6864   0.7062   0.8353   0.8925
     0.9267   0.9708   0.9821   1.0513   1.0919   1.1069   1.1788   1.3065
     1.5303   1.5352   1.5896   1.6137   1.6948   1.7101   1.7880   1.8736
     1.8859   1.9736   1.9789   2.0105   2.2749   2.2919   2.3403   2.3852
     3.7332   4.7951   4.8782   5.0485   5.2891   5.5363   5.6337   6.2468
     6.2835   6.2851   6.4999   6.5811   6.6496   6.9632   7.3240   7.7737
     7.7806   7.8236

[...]

          k = 0.3750-0.5125 0.0000 ( 37814 PWs)   bands (ev):

[...]

          k =-0.5000 0.0000 0.0000 ( 37718 PWs)   bands (ev):

[...]

          k =-0.5000-0.5125 0.0000 ( 37836 PWs)   bands (ev):

   -41.3460 -38.4897 -23.2098 -22.9290 -22.7927 -22.5259 -21.5130 -21.4897
   -21.3373 -19.0715 -19.0457 -18.5712 -15.8280 -15.8008 -14.9057 -14.8886
   -14.6483 -14.5992 -14.4698 -14.3885 -14.3362 -14.3337 -14.0913 -14.0369
   -13.9832 -13.8425 -13.6958  -9.3427  -9.1232  -9.0696  -8.9349  -8.8343
    -8.8056  -8.7525  -8.5991  -8.4777  -8.3707  -8.2687  -7.8765  -5.1425
    -4.5884  -4.0056  -3.5706  -3.5148  -3.3048  -3.1625  -3.1240  -3.0557
    -2.9132  -2.7336  -2.6118  -2.4150  -2.4031  -2.2410  -2.2064  -2.1911
    -1.9974  -1.9844  -1.7023  -1.6387  -1.4206  -1.3272  -1.3212  -1.1441
    -1.1386  -1.1131  -1.0595  -0.9813  -0.9018  -0.8425  -0.7937  -0.7063
    -0.7053  -0.2601  -0.2000  -0.0037   0.0383   0.2709   0.4210   0.4754
     0.6799   0.6876   0.7191   0.8954   1.0124   1.0836   1.1072   1.1179
     1.1683   1.1847   1.2034   1.3871   1.4505   1.4535   1.6173   1.6319
     1.6364   1.6514   1.6530   1.6624   1.7539   1.8224   1.8765   2.0687
     2.0778   2.1535   2.1651   2.1739   2.2729   2.2811   2.3335   2.6074
     2.7484   3.0432   3.2109   3.8202   3.8625   3.9075   4.1316   4.3767
     4.4628   4.6937   4.7986   5.1779   5.4101   5.6096   6.2391   7.0948
     7.7947   7.9545   7.9951   8.0199   8.3763   8.4134   8.8064   8.9095
     8.9114   9.0111

     the Fermi energy is     2.5705 ev

!    total energy              =   -1868.39062319 Ry
     Harris-Foulkes estimate   =   -1868.39062367 Ry
     estimated scf accuracy    <       0.00000064 Ry

     The total energy is the sum of the following terms:

     one-electron contribution =  -29564.73892182 Ry
     hartree contribution      =   14931.86652044 Ry
     xc contribution           =    -641.73700912 Ry
     ewald contribution        =   13406.22750824 Ry
     smearing contrib. (-TS)   =      -0.00872093 Ry

     convergence has been achieved in  40 iterations

     negative rho (up, down):  8.996E-02 0.000E+00

     Forces acting on atoms (cartesian axes, Ry/au):

     atom    1 type  3   force =     0.00000000    0.00000000   -0.00005779
     atom    2 type  2   force =     0.00000000    0.00000000   -0.00056643
     atom    3 type  3   force =     0.00000000    0.00000000   -0.00011608
     atom    4 type  1   force =     0.00000000    0.00000000   -0.00012669
     atom    5 type  2   force =     0.00000000    0.00000000   -0.00062358
     atom    6 type  3   force =     0.00000000    0.00000000    0.00028161
     atom    7 type  3   force =     0.00000000    0.00000000    0.00007856
     atom    8 type  4   force =     0.00000000    0.00000000   -0.00055245
     atom    9 type  3   force =     0.00000000    0.00000000    0.00076190
     atom   10 type  3   force =     0.00000000    0.00000000    0.00102881
     atom   11 type  2   force =     0.00000000    0.00000000   -0.00122681
     atom   12 type  1   force =     0.00000000    0.00000000   -0.00164692
     atom   13 type  3   force =     0.00000000    0.00000000    0.00227468
     atom   14 type  3   force =     0.00000000    0.00000000    0.00567219
     atom   15 type  2   force =     0.00000000    0.00000000   -0.01132030
     atom   16 type  3   force =     0.00000000    0.00000000    0.01937120
     atom   17 type  1   force =     0.00000000    0.00000000   -0.02269155
     atom   18 type  2   force =     0.00000000    0.00000000    0.00349607
     atom   19 type  3   force =     0.00000000    0.00000000    0.06068968
     atom   20 type  3   force =     0.00000000    0.00000000    0.06216735
     atom   21 type  4   force =     0.00000000    0.00000000   -0.11500112
     atom   22 type  3   force =     0.00000000    0.00000000    0.02294170
     atom   23 type  3   force =     0.00000000    0.00000000    0.02902155
     atom   24 type  2   force =     0.00000000    0.00000000   -0.01928403
     atom   25 type  1   force =     0.00000000    0.00000000   -0.03313486
     atom   26 type  3   force =     0.00000000    0.00000000   -0.00410845
     atom   27 type  2   force =     0.00000000    0.00000000   -0.00272994
     atom   28 type  3   force =     0.00000000    0.00000000    0.00540169

     Total force =     0.157290     Total SCF correction =     0.002390

     Computing stress (Cartesian axis) and pressure

     negative rho (up, down):  8.996E-02 0.000E+00
          total   stress  (Ry/bohr**3)                   (kbar)     P=       -9.94
  -0.00006084   0.00000000   0.00000000           -8.95        0.00        0.00
   0.00000000  -0.00004827   0.00000000            0.00       -7.10        0.00
   0.00000000   0.00000000  -0.00009360            0.00        0.00      -13.77

     General routines

     Parallel routines

   This run was terminated on:  18:18:43   5May2021

   JOB DONE.
[1620253123.239972] [holy7c16303:57459:0]          mpool.c:43   UCX  WARN  object 0x2c37ec0 was not returned to mpool ucp_requests
[1620253123.242635] [holy7c16306:260398:0]          mpool.c:43   UCX  WARN  object 0x2a2a780 was not returned to mpool ucp_requests
[1620253123.242654] [holy7c16306:260398:0]          mpool.c:43   UCX  WARN  object 0x2a2acc0 was not returned to mpool ucp_requests
[1620253123.243018] [holy7c16211:176423:0]          mpool.c:43   UCX  WARN  object 0x465bd80 was not returned to mpool ucp_requests
[1620253123.243040] [holy7c16211:176423:0]          mpool.c:43   UCX  WARN  object 0x465bf40 was not returned to mpool ucp_requests
[1620253123.246371] [holy7c16307:229176:0]          mpool.c:43   UCX  WARN  object 0x2f9e600 was not returned to mpool ucp_requests
[1620253123.256779] [holy7c12101:104279:0]          mpool.c:43   UCX  WARN  object 0x3737640 was not returned to mpool ucp_requests
[1620253123.260371] [holy7c12101:104280:0]          mpool.c:43   UCX  WARN  object 0x42076c0 was not returned to mpool ucp_requests
[1620253123.242413] [holy7c16306:260399:0]          mpool.c:43   UCX  WARN  object 0x3d50000 was not returned to mpool ucp_requests