     Program PWSCF v.6.5 starts on  5May2021 at 18:27:45

     R & G space division:  proc/nbgrp/npool/nimage =      20
     Reading input from YBCO_CuO_cleave_6.5_sep_scf.pwi
Warning: card &IONS ignored
Warning: card     ION_DYNAMICS = 'BFGS' ignored
Warning: card / ignored
Warning: card &CELL ignored
Warning: card     CELL_DYNAMICS = 'BFGS' ignored
Warning: card / ignored

     Current dimensions of program PWSCF are:
     Max number of different atomic species (ntypx) = 10
     Max number of k-points (npk) =  40000
     Max angular momentum in pseudopotentials (lmaxx) =  3

     Message from routine setup:
     using ibrav=0 with symmetry is DISCOURAGED, use correct ibrav instead

     bravais-lattice index     =            0
     lattice parameter (alat)  =       7.3477  a.u.
     unit-cell volume          =    5003.7270 (a.u.)^3
     number of atoms/cell      =           28
     number of atomic types    =            4
     number of electrons       =       229.00
     number of Kohn-Sham states=          138
     kinetic-energy cutoff     =      60.0000  Ry
     charge density cutoff     =     720.0000  Ry
     convergence threshold     =      1.0E-06
     mixing beta               =       0.2000
     number of iterations used =           10  local-TF  mixing
     Exchange-correlation= SLA PW PBE PBE
                           (   1   4   3   4   0   0   0)

     celldm(1)=   7.347715  celldm(2)=   0.000000  celldm(3)=   0.000000
     celldm(4)=   0.000000  celldm(5)=   0.000000  celldm(6)=   0.000000

     crystal axes: (cart. coord. in units of alat)
               a(1) = (   1.000000   0.000000   0.000000 )
               a(2) = (   0.000000   0.975577   0.000000 )
               a(3) = (   0.000000   0.000000  12.929299 )

     reciprocal axes: (cart. coord. in units 2 pi/alat)
               b(1) = (  1.000000  0.000000  0.000000 )
               b(2) = (  0.000000  1.025034  0.000000 )
               b(3) = (  0.000000  0.000000  0.077344 )

     PseudoPot. # 1 for Ba read from file:
     /n/holyscratch01/hoffman_lab/ruizhe/YBCO_Project/pseudo/Ba.pbe-nsp-van.UPF
     MD5 check sum: 2b9c31dd849566dd297d80989662b7a0
     Pseudo is Ultrasoft + core correction, Zval = 10.0
     Generated by new atomic code, or converted to UPF format
     Using radial grid of  907 points,  6 beta functions with:
                l(1) =   0
                l(2) =   0
                l(3) =   1
                l(4) =   1
                l(5) =   2
                l(6) =   2
     Q(r) pseudized with  6 coefficients,  rinner =    1.200   1.200   1.200
                                                       1.200   1.200

     PseudoPot. # 2 for Cu read from file:
     /n/holyscratch01/hoffman_lab/ruizhe/YBCO_Project/pseudo/Cu.pbe-n-van_ak.UPF
     MD5 check sum: 34e3282627ffb533726feb647e090d62
     Pseudo is Ultrasoft + core correction, Zval = 11.0
     Generated by new atomic code, or converted to UPF format
     Using radial grid of  867 points,  6 beta functions with:
                l(1) =   0
                l(2) =   0
                l(3) =   1
                l(4) =   1
                l(5) =   2
                l(6) =   2
     Q(r) pseudized with  8 coefficients,  rinner =    1.400   1.400   1.400
                                                       1.400   1.400

     PseudoPot. # 3 for O  read from file:
     /n/holyscratch01/hoffman_lab/ruizhe/YBCO_Project/pseudo/O.pbe-van_ak.UPF
     MD5 check sum: 783ce7fe4c79b6a4916957118fed0856
     Pseudo is Ultrasoft, Zval =  6.0
     Generated by new atomic code, or converted to UPF format
     Using radial grid of  737 points,  4 beta functions with:
                l(1) =   0
                l(2) =   0
                l(3) =   1
                l(4) =   1
     Q(r) pseudized with  8 coefficients,  rinner =    0.800   0.800   0.800

     PseudoPot. # 4 for Y  read from file:
     /n/holyscratch01/hoffman_lab/ruizhe/YBCO_Project/pseudo/Y.pbe-nsp-van.UPF
     MD5 check sum: 4412fed3ab108fed87a1b7d6a69a4a38
     Pseudo is Ultrasoft + core correction, Zval = 11.0
     Generated by new atomic code, or converted to UPF format
     Using radial grid of  885 points,  6 beta functions with:
                l(1) =   0
                l(2) =   0
                l(3) =   1
                l(4) =   1
                l(5) =   2
                l(6) =   2
     Q(r) pseudized with  6 coefficients,  rinner =    1.200   1.200   1.200
                                                       1.200   1.200

     atomic species   valence    mass     pseudopotential
        Ba            10.00   137.32700     Ba( 1.00)
        Cu            11.00    63.54600     Cu( 1.00)
        O              6.00    15.99900     O ( 1.00)
        Y             11.00    88.90584     Y ( 1.00)

      4 Sym. Ops. (no inversion) found

   Cartesian axes

     site n.     atom                  positions (alat units)
         1           O   tau(   1) = (   0.0000000   0.4877884  -0.0257983  )
         2           Cu  tau(   2) = (   0.0000000   0.0000000   0.0215779  )
         3           O   tau(   3) = (   0.0000000   0.0000000   0.5073114  )
         4           Ba  tau(   4) = (   0.4999996   0.4877884   0.5319677  )
         5           Cu  tau(   5) = (   0.0000000   0.0000000   1.0495845  )
         6           O   tau(   6) = (   0.4999996   0.0000000   1.1181579  )
         7           O   tau(   7) = (   0.0000000   0.4877884   1.1273137  )
         8           Y   tau(   8) = (   0.4999996   0.4877884   1.4938777  )
         9           O   tau(   9) = (   0.0000000   0.4877884   1.8497402  )
        10           O   tau(  10) = (   0.4999996   0.0000000   1.8692709  )
        11           Cu  tau(  11) = (   0.0000000   0.0000000   1.9417560  )
        12           Ba  tau(  12) = (   0.4999996   0.4877884   2.4526063  )
        13           O   tau(  13) = (   0.0000000   0.0000000   2.5103470  )
        14           O   tau(  14) = (   0.0000000   0.4877884   2.9968469  )
        15           Cu  tau(  15) = (   0.0000000   0.0000000   2.9968521  )
        16           O   tau(  16) = (   0.0000000   0.0000000   5.1550349  )
        17           Ba  tau(  17) = (   0.4999996   0.4877884   5.2127679  )
        18           Cu  tau(  18) = (   0.0000000   0.0000000   5.7236413  )
        19           O   tau(  19) = (   0.4999996   0.0000000   5.7961136  )
        20           O   tau(  20) = (   0.0000000   0.4877884   5.8156263  )
        21           Y   tau(  21) = (   0.4999996   0.4877884   6.1714913  )
        22           O   tau(  22) = (   0.0000000   0.4877884   6.5380553  )
        23           O   tau(  23) = (   0.4999996   0.0000000   6.5472240  )
        24           Cu  tau(  24) = (   0.0000000   0.0000000   6.6158025  )
        25           Ba  tau(  25) = (   0.4999996   0.4877884   7.1334039  )
        26           O   tau(  26) = (   0.0000000   0.0000000   7.1580602  )
        27           Cu  tau(  27) = (   0.0000000   0.0000000   7.6437654  )
        28           O   tau(  28) = (   0.0000000   0.4877884   7.6911467  )

     number of k points=    25  Gaussian smearing, width (Ry)=  0.0100
                       cart. coord. in units 2pi/alat
        k(    1) = (   0.0000000   0.0000000   0.0000000), wk =   0.0312500
        k(    2) = (   0.0000000   0.1281293   0.0000000), wk =   0.0625000
        k(    3) = (   0.0000000   0.2562585   0.0000000), wk =   0.0625000
        k(    4) = (   0.0000000   0.3843878   0.0000000), wk =   0.0625000
        k(    5) = (   0.0000000  -0.5125170   0.0000000), wk =   0.0312500
        k(    6) = (   0.1250000   0.0000000   0.0000000), wk =   0.0625000
        k(    7) = (   0.1250000   0.1281293   0.0000000), wk =   0.1250000
        k(    8) = (   0.1250000   0.2562585   0.0000000), wk =   0.1250000
        k(    9) = (   0.1250000   0.3843878   0.0000000), wk =   0.1250000
        k(   10) = (   0.1250000  -0.5125170   0.0000000), wk =   0.0625000
        k(   11) = (   0.2500000   0.0000000   0.0000000), wk =   0.0625000
        k(   12) = (   0.2500000   0.1281293   0.0000000), wk =   0.1250000
        k(   13) = (   0.2500000   0.2562585   0.0000000), wk =   0.1250000
        k(   14) = (   0.2500000   0.3843878   0.0000000), wk =   0.1250000
        k(   15) = (   0.2500000  -0.5125170   0.0000000), wk =   0.0625000
        k(   16) = (   0.3750000   0.0000000   0.0000000), wk =   0.0625000
        k(   17) = (   0.3750000   0.1281293   0.0000000), wk =   0.1250000
        k(   18) = (   0.3750000   0.2562585   0.0000000), wk =   0.1250000
        k(   19) = (   0.3750000   0.3843878   0.0000000), wk =   0.1250000
        k(   20) = (   0.3750000  -0.5125170   0.0000000), wk =   0.0625000
        k(   21) = (  -0.5000000   0.0000000   0.0000000), wk =   0.0312500
        k(   22) = (  -0.5000000   0.1281293   0.0000000), wk =   0.0625000
        k(   23) = (  -0.5000000   0.2562585   0.0000000), wk =   0.0625000
        k(   24) = (  -0.5000000   0.3843878   0.0000000), wk =   0.0625000
        k(   25) = (  -0.5000000  -0.5125170   0.0000000), wk =   0.0312500

     Initial potential from superposition of free atoms

     starting charge  228.84827, renormalised to  229.00000

     negative rho (up, down):  8.945E-02 0.000E+00
     Starting wfcs are  201 randomized atomic wfcs

     Self-consistent Calculation

     iteration #  1     ecut=    60.00 Ry     beta= 0.20
     Davidson diagonalization with overlap
     ethr =  1.00E-02,  avg # of iterations =  2.0

     negative rho (up, down):  8.733E-02 0.000E+00

     total energy              =   -1869.52047489 Ry
     Harris-Foulkes estimate   =   -1871.09974303 Ry
     estimated scf accuracy    <      13.52284272 Ry

[...]

     iteration # 30     ecut=    60.00 Ry     beta= 0.20
     Davidson diagonalization with overlap
     c_bands:  1 eigenvalues not converged
     ethr =  3.09E-08,  avg # of iterations =  6.0

[...]

     total energy              =   -1868.72162170 Ry
     Harris-Foulkes estimate   =   -1868.72162165 Ry
     estimated scf accuracy    <       0.00000124 Ry

     iteration # 38     ecut=    60.00 Ry     beta= 0.20
     Davidson diagonalization with overlap
     ethr =  5.41E-10,  avg # of iterations =  1.4

[...]

     End of self-consistent calculation

          k = 0.0000 0.0000 0.0000 ( 39193 PWs)   bands (ev):

   -38.9326 -38.8556 -23.5613 -23.5485 -23.4655 -23.4001 -19.4653 -19.3974
   -18.9379 -18.9291 -18.8616 -18.8486 -16.2558 -16.2056 -15.2981 -15.2445
   -15.0452 -15.0414 -15.0354 -14.9911 -14.9423 -14.7800 -14.7261 -14.5425
   -14.5302 -14.2815 -12.9999  -8.8410  -8.7819  -8.7629  -8.6139  -8.5534
    -8.5413  -8.5266  -8.5146  -8.3734  -8.3504  -8.3368  -8.2550  -2.8874
    -2.8570  -2.8352  -2.8073  -2.7168  -2.6616  -2.6433  -2.6340  -2.6001
    -2.5598  -2.5239  -2.4692  -2.3481  -1.6926  -1.6302  -1.2409  -1.2243
    -1.1725  -0.9092  -0.8518  -0.8517  -0.8428  -0.8143  -0.8075  -0.6532
    -0.6510  -0.6190  -0.5991  -0.5801  -0.5727  -0.5205  -0.5153  -0.4893
    -0.4800  -0.3900  -0.3865  -0.3746  -0.3733  -0.3503  -0.2893  -0.2735
    -0.2357  -0.2311  -0.2219  -0.2072  -0.1567  -0.1217  -0.1179  -0.1006
     0.1842   0.3226   0.3670   0.4321   0.4356   0.4746   0.5050   0.5426
     0.5811   0.5934   0.5990   0.6844   0.6920   0.7044   0.7164   0.7186
     0.7611   1.1397   1.1814   1.2018   1.2095   1.2933   1.4013   1.4082
     1.4900   1.7068   1.8443   1.8925   1.9285   1.9713   1.9996   4.4204
     4.5153   4.5712   5.0891   5.1299   5.5862   5.8828   5.8979   6.0535
     6.1017   6.6036   6.7243   7.3616   7.3780   7.4359   7.5293   7.5812
     7.8039   7.8646

[...]

          k = 0.3750-0.5125 0.0000 ( 39430 PWs)   bands (ev):

[...]

          k =-0.5000 0.0000 0.0000 ( 39274 PWs)   bands (ev):

[...]

          k =-0.5000-0.5125 0.0000 ( 39388 PWs)   bands (ev):

   -38.9047 -38.8277 -23.3193 -23.3064 -23.2558 -23.1617 -19.4883 -19.4607
   -19.4094 -19.3889 -18.9847 -18.9135 -15.3100 -15.3003 -15.2736 -15.2353
   -15.0335 -15.0326 -14.7982 -14.7550 -14.7454 -14.7289 -14.6756 -14.4263
   -14.4079 -14.3379 -13.1139  -9.5129  -9.5011  -9.3245  -9.2240  -9.2118
    -9.1611  -9.0496  -9.0253  -8.7608  -8.7596  -8.7288  -8.6174  -5.0005
    -4.9367  -4.4167  -4.3367  -3.5108  -3.5010  -3.4954  -3.3141  -3.2706
    -3.1246  -3.1122  -3.0355  -2.9886  -2.6260  -2.6244  -2.6037  -2.5568
    -2.3211  -1.8524  -1.8084  -1.7329  -1.6835  -1.5917  -1.5117  -1.4992
    -1.4902  -1.3906  -1.3659  -1.3619  -1.2884  -1.2737  -1.2311  -0.6448
    -0.6352  -0.6338  -0.5312  -0.3106  -0.0077   0.1240   0.3994   0.4643
     0.6042   0.6484   0.6966   0.7135   0.7302   0.7440   0.7522   0.7618
     0.7823   0.8601   0.9606   0.9879   1.0354   1.0474   1.0761   1.2329
     1.2555   1.2617   1.2686   1.2748   1.2800   1.3973   1.4826   1.5887
     1.7774   1.7958   1.8854   1.9010   1.9713   2.0034   2.1674   2.1801
     2.1875   2.2769   2.5131   3.9524   3.9812   4.0659   4.0796   5.0224
     5.0348   5.3073   5.7913   5.9072   7.2295   7.2590   7.5919   7.6157
     7.9342   8.1226   8.3751   8.4504   8.4789   8.4834   8.6744   8.7141
     8.7251   8.8594

     the Fermi energy is     2.1814 ev

!    total energy              =   -1868.72162156 Ry
     Harris-Foulkes estimate   =   -1868.72162173 Ry
     estimated scf accuracy    <       0.00000038 Ry

     The total energy is the sum of the following terms:

     one-electron contribution =  -22717.00075802 Ry
     hartree contribution      =   11506.48044527 Ry
     xc contribution           =    -642.19841726 Ry
     ewald contribution        =    9984.00781233 Ry
     smearing contrib. (-TS)   =      -0.01070387 Ry

     convergence has been achieved in  38 iterations

     negative rho (up, down):  9.052E-02 0.000E+00

     Forces acting on atoms (cartesian axes, Ry/au):

     atom    1 type  3   force =     0.00000000    0.00000000   -0.00052035
     atom    2 type  2   force =     0.00000000    0.00000000    0.00033144
     atom    3 type  3   force =     0.00000000    0.00000000    0.00025322
     atom    4 type  1   force =     0.00000000    0.00000000   -0.00022472
     atom    5 type  2   force =     0.00000000    0.00000000   -0.00105601
     atom    6 type  3   force =     0.00000000    0.00000000    0.00122071
     atom    7 type  3   force =     0.00000000    0.00000000    0.00090971
     atom    8 type  4   force =     0.00000000    0.00000000   -0.00278671
     atom    9 type  3   force =     0.00000000    0.00000000    0.00495254
     atom   10 type  3   force =     0.00000000    0.00000000    0.00337713
     atom   11 type  2   force =     0.00000000    0.00000000   -0.00194488
     atom   12 type  1   force =     0.00000000    0.00000000    0.01661135
     atom   13 type  3   force =     0.00000000    0.00000000   -0.01923401
     atom   14 type  3   force =     0.00000000    0.00000000    0.02115399
     atom   15 type  2   force =     0.00000000    0.00000000   -0.02440562
     atom   16 type  3   force =     0.00000000    0.00000000    0.01711230
     atom   17 type  1   force =     0.00000000    0.00000000   -0.00090011
     atom   18 type  2   force =     0.00000000    0.00000000   -0.02128542
     atom   19 type  3   force =     0.00000000    0.00000000    0.00421778
     atom   20 type  3   force =     0.00000000    0.00000000    0.00305822
     atom   21 type  4   force =     0.00000000    0.00000000   -0.00115934
     atom   22 type  3   force =     0.00000000    0.00000000   -0.00045211
     atom   23 type  3   force =     0.00000000    0.00000000    0.00089519
     atom   24 type  2   force =     0.00000000    0.00000000    0.00102511
     atom   25 type  1   force =     0.00000000    0.00000000   -0.00001065
     atom   26 type  3   force =     0.00000000    0.00000000   -0.00195519
     atom   27 type  2   force =     0.00000000    0.00000000    0.00058136
     atom   28 type  3   force =     0.00000000    0.00000000    0.00023506

     Total force =     0.050218     Total SCF correction =     0.002818

     Computing stress (Cartesian axis) and pressure

     negative rho (up, down):  9.052E-02 0.000E+00
          total   stress  (Ry/bohr**3)                   (kbar)     P=       -6.84
  -0.00000509   0.00000000   0.00000000           -0.75        0.00        0.00
   0.00000000  -0.00010683   0.00000000            0.00      -15.72        0.00
   0.00000000   0.00000000  -0.00002751            0.00        0.00       -4.05

     General routines

     Parallel routines

   This run was terminated on:  18:40:14   5May2021

   JOB DONE.
[1620254415.012629] [holy7c04210:132677:0]          mpool.c:43   UCX  WARN  object 0x461ed80 was not returned to mpool ucp_requests
[1620254415.018831] [holy7c04304:220188:0]          mpool.c:43   UCX  WARN  object 0x391cb40 was not returned to mpool ucp_requests
[1620254415.021380] [holy7c04303:34609:0]          mpool.c:43   UCX  WARN  object 0x2ab4900 was not returned to mpool ucp_requests
[1620254415.021404] [holy7c04303:34609:0]          mpool.c:43   UCX  WARN  object 0x2ab4c80 was not returned to mpool ucp_requests
[1620254415.021671] [holy7c04303:34610:0]          mpool.c:43   UCX  WARN  object 0x2a63500 was not returned to mpool ucp_requests
[1620254415.024241] [holy7c04207:148301:0]          mpool.c:43   UCX  WARN  object 0x4400900 was not returned to mpool ucp_requests
[1620254415.024399] [holy7c04212:199651:0]          mpool.c:43   UCX  WARN  object 0x47afd40 was not returned to mpool ucp_requests
[1620254415.024419] [holy7c04212:199651:0]          mpool.c:43   UCX  WARN  object 0x47aff00 was not returned to mpool ucp_requests