     Program PWSCF v.6.5 starts on  5May2021 at 17: 8:59

     R & G space division:  proc/nbgrp/npool/nimage =      20
     Reading input from YBCO_BaO_cleave_1.0_sep_scf.pwi
Warning: card &IONS ignored
Warning: card     ION_DYNAMICS = 'BFGS' ignored
Warning: card / ignored
Warning: card &CELL ignored
Warning: card     CELL_DYNAMICS = 'BFGS' ignored
Warning: card / ignored

     Current dimensions of program PWSCF are:
     Max number of different atomic species (ntypx) = 10
     Max number of k-points (npk) =  40000
     Max angular momentum in pseudopotentials (lmaxx) =  3

     Message from routine setup:
     using ibrav=0 with symmetry is DISCOURAGED, use correct ibrav instead

     bravais-lattice index     =            0
     lattice parameter (alat)  =       7.3477  a.u.
     unit-cell volume          =    4456.2979 (a.u.)^3
     number of atoms/cell      =           28
     number of atomic types    =            4
     number of electrons       =       229.00
     number of Kohn-Sham states=          138
     kinetic-energy cutoff     =      60.0000  Ry
     charge density cutoff     =     720.0000  Ry
     convergence threshold     =      1.0E-06
     mixing beta               =       0.2000
     number of iterations used =           10  local-TF  mixing
     Exchange-correlation= SLA PW PBE PBE
                           (   1   4   3   4   0   0   0)

     celldm(1)=   7.347715  celldm(2)=   0.000000  celldm(3)=   0.000000
     celldm(4)=   0.000000  celldm(5)=   0.000000  celldm(6)=   0.000000

     crystal axes: (cart. coord. in units of alat)
               a(1) = (   1.000000   0.000000   0.000000 )
               a(2) = (   0.000000   0.975577   0.000000 )
               a(3) = (   0.000000   0.000000  11.514779 )

     reciprocal axes: (cart. coord. in units 2 pi/alat)
               b(1) = (  1.000000  0.000000  0.000000 )
               b(2) = (  0.000000  1.025034  0.000000 )
               b(3) = (  0.000000  0.000000  0.086845 )

     PseudoPot. # 1 for Ba read from file:
     /n/holyscratch01/hoffman_lab/ruizhe/YBCO_Project/pseudo/Ba.pbe-nsp-van.UPF
     MD5 check sum: 2b9c31dd849566dd297d80989662b7a0
     Pseudo is Ultrasoft + core correction, Zval = 10.0
     Generated by new atomic code, or converted to UPF format
     Using radial grid of  907 points,  6 beta functions with:
                l(1) =   0
                l(2) =   0
                l(3) =   1
                l(4) =   1
                l(5) =   2
                l(6) =   2
     Q(r) pseudized with  6 coefficients,  rinner =    1.200   1.200   1.200
                                                       1.200   1.200

     PseudoPot. # 2 for Cu read from file:
     /n/holyscratch01/hoffman_lab/ruizhe/YBCO_Project/pseudo/Cu.pbe-n-van_ak.UPF
     MD5 check sum: 34e3282627ffb533726feb647e090d62
     Pseudo is Ultrasoft + core correction, Zval = 11.0
     Generated by new atomic code, or converted to UPF format
     Using radial grid of  867 points,  6 beta functions with:
                l(1) =   0
                l(2) =   0
                l(3) =   1
                l(4) =   1
                l(5) =   2
                l(6) =   2
     Q(r) pseudized with  8 coefficients,  rinner =    1.400   1.400   1.400
                                                       1.400   1.400

     PseudoPot. # 3 for O  read from file:
     /n/holyscratch01/hoffman_lab/ruizhe/YBCO_Project/pseudo/O.pbe-van_ak.UPF
     MD5 check sum: 783ce7fe4c79b6a4916957118fed0856
     Pseudo is Ultrasoft, Zval =  6.0
     Generated by new atomic code, or converted to UPF format
     Using radial grid of  737 points,  4 beta functions with:
                l(1) =   0
                l(2) =   0
                l(3) =   1
                l(4) =   1
     Q(r) pseudized with  8 coefficients,  rinner =    0.800   0.800   0.800

     PseudoPot. # 4 for Y  read from file:
     /n/holyscratch01/hoffman_lab/ruizhe/YBCO_Project/pseudo/Y.pbe-nsp-van.UPF
     MD5 check sum: 4412fed3ab108fed87a1b7d6a69a4a38
     Pseudo is Ultrasoft + core correction, Zval = 11.0
     Generated by new atomic code, or converted to UPF format
     Using radial grid of  885 points,  6 beta functions with:
                l(1) =   0
                l(2) =   0
                l(3) =   1
                l(4) =   1
                l(5) =   2
                l(6) =   2
     Q(r) pseudized with  6 coefficients,  rinner =    1.200   1.200   1.200
                                                       1.200   1.200

     atomic species   valence    mass     pseudopotential
        Ba            10.00   137.32700     Ba( 1.00)
        Cu            11.00    63.54600     Cu( 1.00)
        O              6.00    15.99900     O ( 1.00)
        Y             11.00    88.90584     Y ( 1.00)

      4 Sym. Ops. (no inversion) found

   Cartesian axes

     site n.     atom                  positions (alat units)
         1           O   tau(   1) = (   0.0000000   0.4877884  -0.0257983  )
         2           Cu  tau(   2) = (   0.0000000   0.0000000   0.0215779  )
         3           O   tau(   3) = (   0.0000000   0.0000000   0.5073114  )
         4           Ba  tau(   4) = (   0.4999996   0.4877884   0.5319677  )
         5           Cu  tau(   5) = (   0.0000000   0.0000000   1.0495845  )
         6           O   tau(   6) = (   0.4999996   0.0000000   1.1181579  )
         7           O   tau(   7) = (   0.0000000   0.4877884   1.1273137  )
         8           Y   tau(   8) = (   0.4999996   0.4877884   1.4938777  )
         9           O   tau(   9) = (   0.0000000   0.4877884   1.8497402  )
        10           O   tau(  10) = (   0.4999996   0.0000000   1.8692709  )
        11           Cu  tau(  11) = (   0.0000000   0.0000000   1.9417560  )
        12           Ba  tau(  12) = (   0.4999996   0.4877884   2.4526063  )
        13           O   tau(  13) = (   0.0000000   0.0000000   2.5103470  )
        14           O   tau(  14) = (   0.0000000   0.4877884   2.9968469  )
        15           Cu  tau(  15) = (   0.0000000   0.0000000   2.9968521  )
        16           O   tau(  16) = (   0.0000000   0.0000000   3.4833288  )
        17           Ba  tau(  17) = (   0.4999996   0.4877884   3.5410618  )
        18           Cu  tau(  18) = (   0.0000000   0.0000000   4.3091207  )
        19           O   tau(  19) = (   0.4999996   0.0000000   4.3815931  )
        20           O   tau(  20) = (   0.0000000   0.4877884   4.4011057  )
        21           Y   tau(  21) = (   0.4999996   0.4877884   4.7569708  )
        22           O   tau(  22) = (   0.0000000   0.4877884   5.1235348  )
        23           O   tau(  23) = (   0.4999996   0.0000000   5.1327035  )
        24           Cu  tau(  24) = (   0.0000000   0.0000000   5.2012820  )
        25           Ba  tau(  25) = (   0.4999996   0.4877884   5.7188833  )
        26           O   tau(  26) = (   0.0000000   0.0000000   5.7435397  )
        27           Cu  tau(  27) = (   0.0000000   0.0000000   6.2292449  )
        28           O   tau(  28) = (   0.0000000   0.4877884   6.2766262  )

     number of k points=    25  Gaussian smearing, width (Ry)=  0.0100
                       cart. coord. in units 2pi/alat
        k(    1) = (   0.0000000   0.0000000   0.0000000), wk =   0.0312500
        k(    2) = (   0.0000000   0.1281293   0.0000000), wk =   0.0625000
        k(    3) = (   0.0000000   0.2562585   0.0000000), wk =   0.0625000
        k(    4) = (   0.0000000   0.3843878   0.0000000), wk =   0.0625000
        k(    5) = (   0.0000000  -0.5125170   0.0000000), wk =   0.0312500
        k(    6) = (   0.1250000   0.0000000   0.0000000), wk =   0.0625000
        k(    7) = (   0.1250000   0.1281293   0.0000000), wk =   0.1250000
        k(    8) = (   0.1250000   0.2562585   0.0000000), wk =   0.1250000
        k(    9) = (   0.1250000   0.3843878   0.0000000), wk =   0.1250000
        k(   10) = (   0.1250000  -0.5125170   0.0000000), wk =   0.0625000
        k(   11) = (   0.2500000   0.0000000   0.0000000), wk =   0.0625000
        k(   12) = (   0.2500000   0.1281293   0.0000000), wk =   0.1250000
        k(   13) = (   0.2500000   0.2562585   0.0000000), wk =   0.1250000
        k(   14) = (   0.2500000   0.3843878   0.0000000), wk =   0.1250000
        k(   15) = (   0.2500000  -0.5125170   0.0000000), wk =   0.0625000
        k(   16) = (   0.3750000   0.0000000   0.0000000), wk =   0.0625000
        k(   17) = (   0.3750000   0.1281293   0.0000000), wk =   0.1250000
        k(   18) = (   0.3750000   0.2562585   0.0000000), wk =   0.1250000
        k(   19) = (   0.3750000   0.3843878   0.0000000), wk =   0.1250000
        k(   20) = (   0.3750000  -0.5125170   0.0000000), wk =   0.0625000
        k(   21) = (  -0.5000000   0.0000000   0.0000000), wk =   0.0312500
        k(   22) = (  -0.5000000   0.1281293   0.0000000), wk =   0.0625000
        k(   23) = (  -0.5000000   0.2562585   0.0000000), wk =   0.0625000
        k(   24) = (  -0.5000000   0.3843878   0.0000000), wk =   0.0625000
        k(   25) = (  -0.5000000  -0.5125170   0.0000000), wk =   0.0312500

     Initial potential from superposition of free atoms

     starting charge  228.84827, renormalised to  229.00000

     negative rho (up, down):  8.960E-02 0.000E+00
     Starting wfcs are  201 randomized atomic wfcs

     Self-consistent Calculation

     iteration #  1     ecut=    60.00 Ry     beta= 0.20
     Davidson diagonalization with overlap
     ethr =  1.00E-02,  avg # of iterations =  2.0

     negative rho (up, down):  8.747E-02 0.000E+00

     total energy              =   -1869.53787017 Ry
     Harris-Foulkes estimate   =   -1871.12307768 Ry
     estimated scf accuracy    <      13.61341357 Ry

[...]

     iteration # 32     ecut=    60.00 Ry     beta= 0.20
     Davidson diagonalization with overlap
     c_bands:  1 eigenvalues not converged
     c_bands:  1 eigenvalues not converged
     ethr =  6.99E-08,  avg # of iterations =  7.8

[...]

     total energy              =   -1868.81501754 Ry
     Harris-Foulkes estimate   =   -1868.81501843 Ry
     estimated scf accuracy    <       0.00000134 Ry

     iteration # 39     ecut=    60.00 Ry     beta= 0.20
     Davidson diagonalization with overlap
     ethr =  5.83E-10,  avg # of iterations =  1.4

[...]

     End of self-consistent calculation

          k = 0.0000 0.0000 0.0000 ( 34859 PWs)   bands (ev):

   -38.0105 -37.8249 -23.0915 -22.6669 -22.6535 -22.5126 -18.5455 -18.3318
   -18.0153 -18.0051 -17.8425 -17.8289 -15.3414 -15.1709 -14.4700 -14.3797
   -14.1957 -14.1528 -14.1267 -14.1138 -14.0126 -13.8650 -13.6520 -13.6510
   -13.6148 -13.3497 -13.1500  -8.3573  -7.9486  -7.9422  -7.8880  -7.8705
    -7.7881  -7.6595  -7.6470  -7.6327  -7.6197  -7.4657  -7.4461  -1.9699
    -1.9369  -1.8315  -1.8111  -1.7984  -1.7597  -1.7516  -1.7211  -1.6828
    -1.6162  -1.6045  -1.5163  -1.4031  -0.7713  -0.7021  -0.5946  -0.4021
    -0.3571  -0.3508  -0.2125  -0.1882   0.0145   0.0383   0.0392   0.0662
     0.0749   0.0765   0.2288   0.2396   0.2497   0.2503   0.3362   0.3769
     0.3932   0.4003   0.4518   0.4826   0.5044   0.5109   0.5331   0.5357
     0.6095   0.6444   0.6465   0.6525   0.7155   0.7652   0.7698   0.8158
     0.8347   0.9921   1.1808   1.2117   1.3121   1.3416   1.3974   1.4228
     1.4673   1.4760   1.4873   1.5586   1.6013   1.6115   1.6462   1.8406
     1.8778   1.9756   2.0278   2.0938   2.1088   2.1562   2.2868   2.2871
     2.2966   2.3033   2.4522   2.5214   2.5221   2.7688   2.7791   5.2989
     5.3878   5.5482   5.9559   6.1214   6.7148   6.7870   6.8249   7.0865
     7.4939   7.8562   8.1723   8.2606   8.2878   8.4431   8.4482   8.5325
     8.8012   8.8669

[...]

          k = 0.3750-0.5125 0.0000 ( 35078 PWs)   bands (ev):

[...]

          k =-0.5000 0.0000 0.0000 ( 34974 PWs)   bands (ev):

[...]

          k =-0.5000-0.5125 0.0000 ( 35092 PWs)   bands (ev):

   -37.9826 -37.7968 -22.8809 -22.4248 -22.4113 -22.2770 -18.5642 -18.5388
   -18.3889 -18.3689 -18.0644 -17.8457 -14.4001 -14.3810 -14.2617 -14.2119
   -14.1446 -14.1396 -13.9868 -13.8833 -13.8260 -13.6708 -13.6262 -13.5571
   -13.5377 -13.5331 -13.3357  -8.9180  -8.6192  -8.6164  -8.6059  -8.4165
    -8.3302  -8.3180  -8.2948  -8.0876  -7.8663  -7.8489  -7.7539  -4.0815
    -3.9623  -3.4973  -3.2755  -3.0598  -2.6250  -2.6203  -2.4083  -2.2917
    -2.2292  -2.2067  -2.1042  -1.9852  -1.7373  -1.7337  -1.7022  -1.6218
    -1.5648  -1.1916  -0.9168  -0.8787  -0.8512  -0.8147  -0.7512  -0.6342
    -0.6246  -0.5500  -0.4738  -0.4023  -0.3982  -0.3777  -0.3623  -0.1713
    -0.0159   0.2411   0.2436   0.5027   0.7386   0.8557   1.0134   1.1983
     1.4838   1.5190   1.5929   1.6257   1.6432   1.6731   1.6736   1.6923
     1.6989   1.7424   1.7860   1.9013   1.9558   1.9931   2.0354   2.0400
     2.0899   2.1422   2.1454   2.1667   2.1699   2.1787   2.2493   2.2981
     2.3612   2.3855   2.6641   2.6691   2.6745   2.7723   2.7766   2.7817
     3.1003   3.1161   4.5457   4.8819   4.9377   4.9678   5.0253   5.1290
     5.9135   5.9185   6.4659   6.7529   7.9323   8.0587   8.5153   8.7069
     8.7130   8.8603   9.0500   9.3128   9.3391   9.4222   9.4236   9.4827
     9.6320   9.6882

     the Fermi energy is     3.0747 ev

!    total energy              =   -1868.81501702 Ry
     Harris-Foulkes estimate   =   -1868.81501757 Ry
     estimated scf accuracy    <       0.00000057 Ry

     The total energy is the sum of the following terms:

     one-electron contribution =  -30545.94217982 Ry
     hartree contribution      =   15428.09299751 Ry
     xc contribution           =    -642.24024730 Ry
     ewald contribution        =   13891.28289608 Ry
     smearing contrib. (-TS)   =      -0.00848350 Ry

     convergence has been achieved in  39 iterations

     negative rho (up, down):  9.057E-02 0.000E+00

     Forces acting on atoms (cartesian axes, Ry/au):

     atom    1 type  3   force =     0.00000000    0.00000000    0.00001886
     atom    2 type  2   force =     0.00000000    0.00000000   -0.00079007
     atom    3 type  3   force =     0.00000000    0.00000000   -0.00010005
     atom    4 type  1   force =     0.00000000    0.00000000   -0.00007752
     atom    5 type  2   force =     0.00000000    0.00000000   -0.00092780
     atom    6 type  3   force =     0.00000000    0.00000000    0.00010741
     atom    7 type  3   force =     0.00000000    0.00000000    0.00001405
     atom    8 type  4   force =     0.00000000    0.00000000   -0.00016730
     atom    9 type  3   force =     0.00000000    0.00000000    0.00029761
     atom   10 type  3   force =     0.00000000    0.00000000    0.00053778
     atom   11 type  2   force =     0.00000000    0.00000000   -0.00078865
     atom   12 type  1   force =     0.00000000    0.00000000   -0.00202551
     atom   13 type  3   force =     0.00000000    0.00000000    0.00145401
     atom   14 type  3   force =     0.00000000    0.00000000    0.00758358
     atom   15 type  2   force =     0.00000000    0.00000000   -0.00274710
     atom   16 type  3   force =     0.00000000    0.00000000    0.00789525
     atom   17 type  1   force =     0.00000000    0.00000000    0.00612955
     atom   18 type  2   force =     0.00000000    0.00000000    0.00717620
     atom   19 type  3   force =     0.00000000    0.00000000   -0.00016034
     atom   20 type  3   force =     0.00000000    0.00000000   -0.00272402
     atom   21 type  4   force =     0.00000000    0.00000000   -0.02811838
     atom   22 type  3   force =     0.00000000    0.00000000    0.00187321
     atom   23 type  3   force =     0.00000000    0.00000000    0.00268941
     atom   24 type  2   force =     0.00000000    0.00000000    0.00175622
     atom   25 type  1   force =     0.00000000    0.00000000   -0.00081245
     atom   26 type  3   force =     0.00000000    0.00000000    0.00121369
     atom   27 type  2   force =     0.00000000    0.00000000    0.00020501
     atom   28 type  3   force =     0.00000000    0.00000000    0.00048734

     Total force =     0.032242     Total SCF correction =     0.003329
     SCF correction compared to forces is large: reduce conv_thr to get better values

     Computing stress (Cartesian axis) and pressure

     negative rho (up, down):  9.057E-02 0.000E+00
          total   stress  (Ry/bohr**3)                   (kbar)     P=       -5.35
  -0.00004694   0.00000000   0.00000000           -6.90        0.00        0.00
   0.00000000  -0.00002693   0.00000000            0.00       -3.96        0.00
   0.00000000   0.00000000  -0.00003524            0.00        0.00       -5.18

     General routines

     Parallel routines

   This run was terminated on:  17:20:49   5May2021

   JOB DONE.
[1620249649.114806] [holy7c06109:270324:0]          mpool.c:43   UCX  WARN  object 0x372db00 was not returned to mpool ucp_requests
[1620249649.122785] [holy7c04404:121434:0]          mpool.c:43   UCX  WARN  object 0x4239b80 was not returned to mpool ucp_requests
[1620249649.122800] [holy7c04404:121434:0]          mpool.c:43   UCX  WARN  object 0x423a0c0 was not returned to mpool ucp_requests
[1620249649.123056] [holy7c04409:151379:0]          mpool.c:43   UCX  WARN  object 0x2900740 was not returned to mpool ucp_requests
[1620249649.123071] [holy7c04409:151379:0]          mpool.c:43   UCX  WARN  object 0x2900ac0 was not returned to mpool ucp_requests
[1620249649.122447] [holy7c06108:84377:0]          mpool.c:43   UCX  WARN  object 0x3556040 was not returned to mpool ucp_requests
[1620249649.123840] [holy7c04505:259684:0]          mpool.c:43   UCX  WARN  object 0x392fb80 was not returned to mpool ucp_requests
[1620249649.123244] [holy7c06102:27041:0]          mpool.c:43   UCX  WARN  object 0x3d4e9c0 was not returned to mpool ucp_requests
[1620249649.123260] [holy7c06102:27041:0]          mpool.c:43   UCX  WARN  object 0x3d4eb80 was not returned to mpool ucp_requests
[1620249649.125744] [holy7c04405:249910:0]          mpool.c:43   UCX  WARN  object 0x40ee5c0 was not returned to mpool ucp_requests