     Program PWSCF v.6.5 starts on  5May2021 at 18:29:26

     R & G space division:  proc/nbgrp/npool/nimage =      20
     Reading input from YBCO_Y_cleave_6.5_sep_scf.pwi
Warning: card &IONS ignored
Warning: card     ION_DYNAMICS = 'BFGS' ignored
Warning: card / ignored
Warning: card &CELL ignored
Warning: card     CELL_DYNAMICS = 'BFGS' ignored
Warning: card / ignored

     Current dimensions of program PWSCF are:
     Max number of different atomic species (ntypx) = 10
     Max number of k-points (npk) =  40000
     Max angular momentum in pseudopotentials (lmaxx) =  3

     Message from routine setup:
     using ibrav=0 with symmetry is DISCOURAGED, use correct ibrav instead

     bravais-lattice index     =            0
     lattice parameter (alat)  =       7.3477  a.u.
     unit-cell volume          =    5003.7270 (a.u.)^3
     number of atoms/cell      =           28
     number of atomic types    =            4
     number of electrons       =       229.00
     number of Kohn-Sham states=          138
     kinetic-energy cutoff     =      60.0000  Ry
     charge density cutoff     =     720.0000  Ry
     convergence threshold     =      1.0E-06
     mixing beta               =       0.2000
     number of iterations used =           10  local-TF  mixing
     Exchange-correlation= SLA PW PBE PBE
                           (   1   4   3   4   0   0   0)

     celldm(1)=   7.347715  celldm(2)=   0.000000  celldm(3)=   0.000000
     celldm(4)=   0.000000  celldm(5)=   0.000000  celldm(6)=   0.000000

     crystal axes: (cart. coord. in units of alat)
               a(1) = (   1.000000   0.000000   0.000000 )
               a(2) = (   0.000000   0.975577   0.000000 )
               a(3) = (   0.000000   0.000000  12.929299 )

     reciprocal axes: (cart. coord. in units 2 pi/alat)
               b(1) = (  1.000000  0.000000  0.000000 )
               b(2) = (  0.000000  1.025034  0.000000 )
               b(3) = (  0.000000  0.000000  0.077344 )

     PseudoPot. # 1 for Ba read from file:
     /n/holyscratch01/hoffman_lab/ruizhe/YBCO_Project/pseudo/Ba.pbe-nsp-van.UPF
     MD5 check sum: 2b9c31dd849566dd297d80989662b7a0
     Pseudo is Ultrasoft + core correction, Zval = 10.0
     Generated by new atomic code, or converted to UPF format
     Using radial grid of  907 points,  6 beta functions with:
                l(1) =   0
                l(2) =   0
                l(3) =   1
                l(4) =   1
                l(5) =   2
                l(6) =   2
     Q(r) pseudized with  6 coefficients,  rinner =    1.200   1.200   1.200
                                                       1.200   1.200

     PseudoPot. # 2 for Cu read from file:
     /n/holyscratch01/hoffman_lab/ruizhe/YBCO_Project/pseudo/Cu.pbe-n-van_ak.UPF
     MD5 check sum: 34e3282627ffb533726feb647e090d62
     Pseudo is Ultrasoft + core correction, Zval = 11.0
     Generated by new atomic code, or converted to UPF format
     Using radial grid of  867 points,  6 beta functions with:
                l(1) =   0
                l(2) =   0
                l(3) =   1
                l(4) =   1
                l(5) =   2
                l(6) =   2
     Q(r) pseudized with  8 coefficients,  rinner =    1.400   1.400   1.400
                                                       1.400   1.400

     PseudoPot. # 3 for O  read from file:
     /n/holyscratch01/hoffman_lab/ruizhe/YBCO_Project/pseudo/O.pbe-van_ak.UPF
     MD5 check sum: 783ce7fe4c79b6a4916957118fed0856
     Pseudo is Ultrasoft, Zval =  6.0
     Generated by new atomic code, or converted to UPF format
     Using radial grid of  737 points,  4 beta functions with:
                l(1) =   0
                l(2) =   0
                l(3) =   1
                l(4) =   1
     Q(r) pseudized with  8 coefficients,  rinner =    0.800   0.800   0.800

     PseudoPot. # 4 for Y  read from file:
     /n/holyscratch01/hoffman_lab/ruizhe/YBCO_Project/pseudo/Y.pbe-nsp-van.UPF
     MD5 check sum: 4412fed3ab108fed87a1b7d6a69a4a38
     Pseudo is Ultrasoft + core correction, Zval = 11.0
     Generated by new atomic code, or converted to UPF format
     Using radial grid of  885 points,  6 beta functions with:
                l(1) =   0
                l(2) =   0
                l(3) =   1
                l(4) =   1
                l(5) =   2
                l(6) =   2
     Q(r) pseudized with  6 coefficients,  rinner =    1.200   1.200   1.200
                                                       1.200   1.200

     atomic species   valence    mass     pseudopotential
        Ba            10.00   137.32700     Ba( 1.00)
        Cu            11.00    63.54600     Cu( 1.00)
        O              6.00    15.99900     O ( 1.00)
        Y             11.00    88.90584     Y ( 1.00)

      4 Sym. Ops. (no inversion) found

   Cartesian axes

     site n.     atom                  positions (alat units)
         1           O   tau(   1) = (   0.0000000   0.4877884  -0.0257983  )
         2           Cu  tau(   2) = (   0.0000000   0.0000000   0.0215779  )
         3           O   tau(   3) = (   0.0000000   0.0000000   0.5073114  )
         4           Ba  tau(   4) = (   0.4999996   0.4877884   0.5319677  )
         5           Cu  tau(   5) = (   0.0000000   0.0000000   1.0495845  )
         6           O   tau(   6) = (   0.4999996   0.0000000   1.1181579  )
         7           O   tau(   7) = (   0.0000000   0.4877884   1.1273137  )
         8           Y   tau(   8) = (   0.4999996   0.4877884   1.4938777  )
         9           O   tau(   9) = (   0.0000000   0.4877884   1.8497402  )
        10           O   tau(  10) = (   0.4999996   0.0000000   1.8692709  )
        11           Cu  tau(  11) = (   0.0000000   0.0000000   1.9417560  )
        12           Ba  tau(  12) = (   0.4999996   0.4877884   2.4526063  )
        13           O   tau(  13) = (   0.0000000   0.0000000   2.5103470  )
        14           O   tau(  14) = (   0.0000000   0.4877884   2.9968469  )
        15           Cu  tau(  15) = (   0.0000000   0.0000000   2.9968521  )
        16           O   tau(  16) = (   0.0000000   0.0000000   3.4833288  )
        17           Ba  tau(  17) = (   0.4999996   0.4877884   3.5410618  )
        18           Cu  tau(  18) = (   0.0000000   0.0000000   4.0519352  )
        19           O   tau(  19) = (   0.4999996   0.0000000   4.1244075  )
        20           O   tau(  20) = (   0.0000000   0.4877884   4.1439202  )
        21           Y   tau(  21) = (   0.4999996   0.4877884   4.4997853  )
        22           O   tau(  22) = (   0.0000000   0.4877884   6.5380553  )
        23           O   tau(  23) = (   0.4999996   0.0000000   6.5472240  )
        24           Cu  tau(  24) = (   0.0000000   0.0000000   6.6158025  )
        25           Ba  tau(  25) = (   0.4999996   0.4877884   7.1334039  )
        26           O   tau(  26) = (   0.0000000   0.0000000   7.1580602  )
        27           Cu  tau(  27) = (   0.0000000   0.0000000   7.6437654  )
        28           O   tau(  28) = (   0.0000000   0.4877884   7.6911467  )

     number of k points=    25  Gaussian smearing, width (Ry)=  0.0100
                       cart. coord. in units 2pi/alat
        k(    1) = (   0.0000000   0.0000000   0.0000000), wk =   0.0312500
        k(    2) = (   0.0000000   0.1281293   0.0000000), wk =   0.0625000
        k(    3) = (   0.0000000   0.2562585   0.0000000), wk =   0.0625000
        k(    4) = (   0.0000000   0.3843878   0.0000000), wk =   0.0625000
        k(    5) = (   0.0000000  -0.5125170   0.0000000), wk =   0.0312500
        k(    6) = (   0.1250000   0.0000000   0.0000000), wk =   0.0625000
        k(    7) = (   0.1250000   0.1281293   0.0000000), wk =   0.1250000
        k(    8) = (   0.1250000   0.2562585   0.0000000), wk =   0.1250000
        k(    9) = (   0.1250000   0.3843878   0.0000000), wk =   0.1250000
        k(   10) = (   0.1250000  -0.5125170   0.0000000), wk =   0.0625000
        k(   11) = (   0.2500000   0.0000000   0.0000000), wk =   0.0625000
        k(   12) = (   0.2500000   0.1281293   0.0000000), wk =   0.1250000
        k(   13) = (   0.2500000   0.2562585   0.0000000), wk =   0.1250000
        k(   14) = (   0.2500000   0.3843878   0.0000000), wk =   0.1250000
        k(   15) = (   0.2500000  -0.5125170   0.0000000), wk =   0.0625000
        k(   16) = (   0.3750000   0.0000000   0.0000000), wk =   0.0625000
        k(   17) = (   0.3750000   0.1281293   0.0000000), wk =   0.1250000
        k(   18) = (   0.3750000   0.2562585   0.0000000), wk =   0.1250000
        k(   19) = (   0.3750000   0.3843878   0.0000000), wk =   0.1250000
        k(   20) = (   0.3750000  -0.5125170   0.0000000), wk =   0.0625000
        k(   21) = (  -0.5000000   0.0000000   0.0000000), wk =   0.0312500
        k(   22) = (  -0.5000000   0.1281293   0.0000000), wk =   0.0625000
        k(   23) = (  -0.5000000   0.2562585   0.0000000), wk =   0.0625000
        k(   24) = (  -0.5000000   0.3843878   0.0000000), wk =   0.0625000
        k(   25) = (  -0.5000000  -0.5125170   0.0000000), wk =   0.0312500

     Initial potential from superposition of free atoms

     starting charge  228.84827, renormalised to  229.00000

     negative rho (up, down):  8.973E-02 0.000E+00
     Starting wfcs are  201 randomized atomic wfcs

     Self-consistent Calculation

     iteration #  1     ecut=    60.00 Ry     beta= 0.20
     Davidson diagonalization with overlap
     ethr =  1.00E-02,  avg # of iterations =  2.0

     negative rho (up, down):  8.740E-02 0.000E+00

     total energy              =   -1869.46128512 Ry
     Harris-Foulkes estimate   =   -1871.04178350 Ry
     estimated scf accuracy    <      14.80855490 Ry

[...]

     iteration # 27     ecut=    60.00 Ry     beta= 0.20
     Davidson diagonalization with overlap
     c_bands:  1 eigenvalues not converged
     ethr =  1.10E-06,  avg # of iterations =  7.9

[...]

     iteration # 28     ecut=    60.00 Ry     beta= 0.20
     Davidson diagonalization with overlap
     c_bands:  1 eigenvalues not converged
     ethr =  5.99E-07,  avg # of iterations =  5.5

[...]

     total energy              =   -1868.38338366 Ry
     Harris-Foulkes estimate   =   -1868.38338357 Ry
     estimated scf accuracy    <       0.00000110 Ry

     iteration # 38     ecut=    60.00 Ry     beta= 0.20
     Davidson diagonalization with overlap
     ethr =  4.80E-10,  avg # of iterations =  1.0

[...]

     End of self-consistent calculation

          k = 0.0000 0.0000 0.0000 ( 39193 PWs)   bands (ev):

   -41.6587 -38.8549 -23.7725 -23.5082 -23.3657 -23.0992 -21.8011 -21.5326
   -21.5267 -19.3895 -18.8595 -18.8496 -16.8599 -16.1843 -15.9347 -15.3243
   -15.2238 -15.0162 -14.9929 -14.9697 -14.8724 -14.7082 -14.4910 -14.4102
   -14.3774 -14.1968 -13.7076  -9.0844  -8.7294  -8.7076  -8.6974  -8.6374
    -8.5006  -8.4738  -8.3193  -8.3008  -8.2250  -8.1278  -8.0926  -3.6400
    -3.6161  -3.1631  -2.8129  -2.7798  -2.7516  -2.6315  -2.5916  -2.5401
    -2.5253  -2.4478  -2.2185  -1.6183  -1.5833  -1.5431  -1.5061  -1.3650
    -1.2682  -1.1906  -1.1416  -1.1135  -1.1011  -0.9090  -0.8387  -0.8018
    -0.7652  -0.7075  -0.6815  -0.6711  -0.6118  -0.6004  -0.5885  -0.5833
    -0.5555  -0.5061  -0.4492  -0.4422  -0.3355  -0.3301  -0.2871  -0.2287
    -0.2003  -0.1875  -0.1870  -0.1541  -0.1392  -0.1063  -0.0708  -0.0701
    -0.0481   0.0707   0.0853   0.2148   0.3517   0.3701   0.4991   0.5563
     0.5975   0.6353   0.6526   0.7153   0.7558   0.7709   0.8641   0.9737
     1.1892   1.2077   1.2449   1.2533   1.3636   1.3835   1.4518   1.5155
     1.5517   1.6440   1.6671   1.6750   1.9388   1.9703   2.0180   2.0638
     3.3609   4.4863   4.5427   4.7241   4.9555   5.2397   5.2992   5.9349
     5.9481   5.9732   6.1629   6.2008   6.3230   6.5671   6.9099   7.4019
     7.4438   7.4821

[...]

          k = 0.3750-0.5125 0.0000 ( 39430 PWs)   bands (ev):

[...]

          k =-0.5000 0.0000 0.0000 ( 39274 PWs)   bands (ev):

[...]

          k =-0.5000-0.5125 0.0000 ( 39388 PWs)   bands (ev):

   -41.6379 -38.8270 -23.5377 -23.2661 -23.1300 -22.8519 -21.8083 -21.7839
   -21.6283 -19.4086 -19.3828 -18.9085 -16.1459 -16.1207 -15.2421 -15.2249
   -14.9845 -14.9279 -14.8042 -14.7249 -14.6701 -14.6678 -14.4257 -14.3731
   -14.3114 -14.1597 -14.0140  -9.6708  -9.4602  -9.3986  -9.2718  -9.1712
    -9.1338  -9.0782  -8.9351  -8.8034  -8.7077  -8.6049  -8.2027  -5.4646
    -4.9246  -4.3417  -3.9055  -3.8351  -3.6195  -3.4887  -3.4601  -3.3810
    -3.2495  -3.0698  -2.9479  -2.7411  -2.7366  -2.5771  -2.5427  -2.5186
    -2.3206  -2.3069  -2.0214  -1.9714  -1.7566  -1.6621  -1.6575  -1.4767
    -1.4747  -1.4383  -1.3957  -1.3174  -1.2381  -1.1704  -1.1103  -1.0401
    -1.0233  -0.5964  -0.5264  -0.3206  -0.2937  -0.0638   0.0914   0.1528
     0.3521   0.3524   0.3932   0.5672   0.6760   0.7489   0.7818   0.7921
     0.8321   0.8497   0.8681   1.0514   1.1143   1.1193   1.2839   1.3000
     1.3070   1.3179   1.3252   1.3261   1.4334   1.4875   1.5417   1.7438
     1.7596   1.8290   1.8401   1.8512   1.9366   1.9647   2.0051   2.2715
     2.4270   2.7192   2.8928   3.4847   3.5361   3.5726   3.8004   4.0407
     4.1266   4.3607   4.4721   4.8193   5.0738   5.2840   5.9028   6.7983
     7.4639   7.5463   7.6647   7.6792   8.0400   8.0722   8.4696   8.5713
     8.5729   8.7101

     the Fermi energy is     2.2344 ev

!    total energy              =   -1868.38338326 Ry
     Harris-Foulkes estimate   =   -1868.38338369 Ry
     estimated scf accuracy    <       0.00000065 Ry

     The total energy is the sum of the following terms:

     one-electron contribution =  -29417.12100087 Ry
     hartree contribution      =   14855.28954463 Ry
     xc contribution           =    -641.71667302 Ry
     ewald contribution        =   13335.17357091 Ry
     smearing contrib. (-TS)   =      -0.00882491 Ry

     convergence has been achieved in  38 iterations

     negative rho (up, down):  9.006E-02 0.000E+00

     Forces acting on atoms (cartesian axes, Ry/au):

     atom    1 type  3   force =     0.00000000    0.00000000   -0.00012032
     atom    2 type  2   force =     0.00000000    0.00000000    0.00002648
     atom    3 type  3   force =     0.00000000    0.00000000   -0.00005327
     atom    4 type  1   force =     0.00000000    0.00000000   -0.00016335
     atom    5 type  2   force =     0.00000000    0.00000000   -0.00057329
     atom    6 type  3   force =     0.00000000    0.00000000    0.00023965
     atom    7 type  3   force =     0.00000000    0.00000000    0.00005081
     atom    8 type  4   force =     0.00000000    0.00000000   -0.00061479
     atom    9 type  3   force =     0.00000000    0.00000000    0.00082356
     atom   10 type  3   force =     0.00000000    0.00000000    0.00108515
     atom   11 type  2   force =     0.00000000    0.00000000   -0.00093653
     atom   12 type  1   force =     0.00000000    0.00000000   -0.00167222
     atom   13 type  3   force =     0.00000000    0.00000000    0.00230796
     atom   14 type  3   force =     0.00000000    0.00000000    0.00568667
     atom   15 type  2   force =     0.00000000    0.00000000   -0.00956454
     atom   16 type  3   force =     0.00000000    0.00000000    0.01901161
     atom   17 type  1   force =     0.00000000    0.00000000   -0.02238489
     atom   18 type  2   force =     0.00000000    0.00000000    0.00255479
     atom   19 type  3   force =     0.00000000    0.00000000    0.06063837
     atom   20 type  3   force =     0.00000000    0.00000000    0.06184478
     atom   21 type  4   force =     0.00000000    0.00000000   -0.11693980
     atom   22 type  3   force =     0.00000000    0.00000000    0.02531685
     atom   23 type  3   force =     0.00000000    0.00000000    0.03126494
     atom   24 type  2   force =     0.00000000    0.00000000   -0.02161892
     atom   25 type  1   force =     0.00000000    0.00000000   -0.03307376
     atom   26 type  3   force =     0.00000000    0.00000000   -0.00481626
     atom   27 type  2   force =     0.00000000    0.00000000   -0.00370667
     atom   28 type  3   force =     0.00000000    0.00000000    0.00538699

     Total force =     0.159458     Total SCF correction =     0.003450

     Computing stress (Cartesian axis) and pressure

     negative rho (up, down):  9.006E-02 0.000E+00
          total   stress  (Ry/bohr**3)                   (kbar)     P=       -9.33
  -0.00005911   0.00000000   0.00000000           -8.70        0.00        0.00
   0.00000000  -0.00004755   0.00000000            0.00       -7.00        0.00
   0.00000000   0.00000000  -0.00008358            0.00        0.00      -12.30

     General routines

     Parallel routines

   This run was terminated on:  18:41:20   5May2021

   JOB DONE.
[1620254480.534088] [holy7c04510:53978:0]          mpool.c:43   UCX  WARN  object 0x2f27b80 was not returned to mpool ucp_requests
[1620254480.537689] [holy7c06109:276573:0]          mpool.c:43   UCX  WARN  object 0x39c4f80 was not returned to mpool ucp_requests
[1620254480.540488] [holy7c06107:232103:0]          mpool.c:43   UCX  WARN  object 0x37140c0 was not returned to mpool ucp_requests
[1620254480.539825] [holy7c04107:273815:0]          mpool.c:43   UCX  WARN  object 0x2ffc900 was not returned to mpool ucp_requests
[1620254480.539842] [holy7c04107:273815:0]          mpool.c:43   UCX  WARN  object 0x2ffce40 was not returned to mpool ucp_requests
[1620254480.539811] [holy7c06202:69799:0]          mpool.c:43   UCX  WARN  object 0x3fb6bc0 was not returned to mpool ucp_requests
[1620254480.540711] [holy7c06108:90727:0]          mpool.c:43   UCX  WARN  object 0x3684a80 was not returned to mpool ucp_requests
[1620254480.540738] [holy7c06108:90727:0]          mpool.c:43   UCX  WARN  object 0x3684fc0 was not returned to mpool ucp_requests