     Program PWSCF v.6.5 starts on  5May2021 at 17:59:48

     R & G space division:  proc/nbgrp/npool/nimage =      20
     Reading input from YBCO_CuO_cleave_5.5_sep_scf.pwi
Warning: card &IONS ignored
Warning: card     ION_DYNAMICS = 'BFGS' ignored
Warning: card / ignored
Warning: card &CELL ignored
Warning: card     CELL_DYNAMICS = 'BFGS' ignored
Warning: card / ignored

     Current dimensions of program PWSCF are:
     Max number of different atomic species (ntypx) = 10
     Max number of k-points (npk) =  40000
     Max angular momentum in pseudopotentials (lmaxx) =  3

     Message from routine setup:
     using ibrav=0 with symmetry is DISCOURAGED, use correct ibrav instead

     bravais-lattice index     =            0
     lattice parameter (alat)  =       7.3477  a.u.
     unit-cell volume          =    4904.1944 (a.u.)^3
     number of atoms/cell      =           28
     number of atomic types    =            4
     number of electrons       =       229.00
     number of Kohn-Sham states=          138
     kinetic-energy cutoff     =      60.0000  Ry
     charge density cutoff     =     720.0000  Ry
     convergence threshold     =      1.0E-06
     mixing beta               =       0.2000
     number of iterations used =           10  local-TF  mixing
     Exchange-correlation= SLA PW PBE PBE
                           (   1   4   3   4   0   0   0)

     celldm(1)=   7.347715  celldm(2)=   0.000000  celldm(3)=   0.000000
     celldm(4)=   0.000000  celldm(5)=   0.000000  celldm(6)=   0.000000

     crystal axes: (cart. coord. in units of alat)
               a(1) = (   1.000000   0.000000   0.000000 )
               a(2) = (   0.000000   0.975577   0.000000 )
               a(3) = (   0.000000   0.000000  12.672114 )

     reciprocal axes: (cart. coord. in units 2 pi/alat)
               b(1) = (  1.000000  0.000000  0.000000 )
               b(2) = (  0.000000  1.025034  0.000000 )
               b(3) = (  0.000000  0.000000  0.078913 )

     PseudoPot. # 1 for Ba read from file:
     /n/holyscratch01/hoffman_lab/ruizhe/YBCO_Project/pseudo/Ba.pbe-nsp-van.UPF
     MD5 check sum: 2b9c31dd849566dd297d80989662b7a0
     Pseudo is Ultrasoft + core correction, Zval = 10.0
     Generated by new atomic code, or converted to UPF format
     Using radial grid of  907 points,  6 beta functions with:
                l(1) =   0
                l(2) =   0
                l(3) =   1
                l(4) =   1
                l(5) =   2
                l(6) =   2
     Q(r) pseudized with  6 coefficients,  rinner =    1.200   1.200   1.200
                                                       1.200   1.200

     PseudoPot. # 2 for Cu read from file:
     /n/holyscratch01/hoffman_lab/ruizhe/YBCO_Project/pseudo/Cu.pbe-n-van_ak.UPF
     MD5 check sum: 34e3282627ffb533726feb647e090d62
     Pseudo is Ultrasoft + core correction, Zval = 11.0
     Generated by new atomic code, or converted to UPF format
     Using radial grid of  867 points,  6 beta functions with:
                l(1) =   0
                l(2) =   0
                l(3) =   1
                l(4) =   1
                l(5) =   2
                l(6) =   2
     Q(r) pseudized with  8 coefficients,  rinner =    1.400   1.400   1.400
                                                       1.400   1.400

     PseudoPot. # 3 for O  read from file:
     /n/holyscratch01/hoffman_lab/ruizhe/YBCO_Project/pseudo/O.pbe-van_ak.UPF
     MD5 check sum: 783ce7fe4c79b6a4916957118fed0856
     Pseudo is Ultrasoft, Zval =  6.0
     Generated by new atomic code, or converted to UPF format
     Using radial grid of  737 points,  4 beta functions with:
                l(1) =   0
                l(2) =   0
                l(3) =   1
                l(4) =   1
     Q(r) pseudized with  8 coefficients,  rinner =    0.800   0.800   0.800

     PseudoPot. # 4 for Y  read from file:
     /n/holyscratch01/hoffman_lab/ruizhe/YBCO_Project/pseudo/Y.pbe-nsp-van.UPF
     MD5 check sum: 4412fed3ab108fed87a1b7d6a69a4a38
     Pseudo is Ultrasoft + core correction, Zval = 11.0
     Generated by new atomic code, or converted to UPF format
     Using radial grid of  885 points,  6 beta functions with:
                l(1) =   0
                l(2) =   0
                l(3) =   1
                l(4) =   1
                l(5) =   2
                l(6) =   2
     Q(r) pseudized with  6 coefficients,  rinner =    1.200   1.200   1.200
                                                       1.200   1.200

     atomic species   valence    mass     pseudopotential
        Ba            10.00   137.32700     Ba( 1.00)
        Cu            11.00    63.54600     Cu( 1.00)
        O              6.00    15.99900     O ( 1.00)
        Y             11.00    88.90584     Y ( 1.00)

      4 Sym. Ops. (no inversion) found

   Cartesian axes

     site n.     atom                  positions (alat units)
         1           O   tau(   1) = (   0.0000000   0.4877884  -0.0257983  )
         2           Cu  tau(   2) = (   0.0000000   0.0000000   0.0215779  )
         3           O   tau(   3) = (   0.0000000   0.0000000   0.5073114  )
         4           Ba  tau(   4) = (   0.4999996   0.4877884   0.5319677  )
         5           Cu  tau(   5) = (   0.0000000   0.0000000   1.0495845  )
         6           O   tau(   6) = (   0.4999996   0.0000000   1.1181579  )
         7           O   tau(   7) = (   0.0000000   0.4877884   1.1273137  )
         8           Y   tau(   8) = (   0.4999996   0.4877884   1.4938777  )
         9           O   tau(   9) = (   0.0000000   0.4877884   1.8497402  )
        10           O   tau(  10) = (   0.4999996   0.0000000   1.8692709  )
        11           Cu  tau(  11) = (   0.0000000   0.0000000   1.9417560  )
        12           Ba  tau(  12) = (   0.4999996   0.4877884   2.4526063  )
        13           O   tau(  13) = (   0.0000000   0.0000000   2.5103470  )
        14           O   tau(  14) = (   0.0000000   0.4877884   2.9968469  )
        15           Cu  tau(  15) = (   0.0000000   0.0000000   2.9968521  )
        16           O   tau(  16) = (   0.0000000   0.0000000   4.8978493  )
        17           Ba  tau(  17) = (   0.4999996   0.4877884   4.9555823  )
        18           Cu  tau(  18) = (   0.0000000   0.0000000   5.4664557  )
        19           O   tau(  19) = (   0.4999996   0.0000000   5.5389280  )
        20           O   tau(  20) = (   0.0000000   0.4877884   5.5584407  )
        21           Y   tau(  21) = (   0.4999996   0.4877884   5.9143058  )
        22           O   tau(  22) = (   0.0000000   0.4877884   6.2808698  )
        23           O   tau(  23) = (   0.4999996   0.0000000   6.2900384  )
        24           Cu  tau(  24) = (   0.0000000   0.0000000   6.3586170  )
        25           Ba  tau(  25) = (   0.4999996   0.4877884   6.8762183  )
        26           O   tau(  26) = (   0.0000000   0.0000000   6.9008747  )
        27           Cu  tau(  27) = (   0.0000000   0.0000000   7.3865799  )
        28           O   tau(  28) = (   0.0000000   0.4877884   7.4339612  )

     number of k points=    25  Gaussian smearing, width (Ry)=  0.0100
                       cart. coord. in units 2pi/alat
        k(    1) = (   0.0000000   0.0000000   0.0000000), wk =   0.0312500
        k(    2) = (   0.0000000   0.1281293   0.0000000), wk =   0.0625000
        k(    3) = (   0.0000000   0.2562585   0.0000000), wk =   0.0625000
        k(    4) = (   0.0000000   0.3843878   0.0000000), wk =   0.0625000
        k(    5) = (   0.0000000  -0.5125170   0.0000000), wk =   0.0312500
        k(    6) = (   0.1250000   0.0000000   0.0000000), wk =   0.0625000
        k(    7) = (   0.1250000   0.1281293   0.0000000), wk =   0.1250000
        k(    8) = (   0.1250000   0.2562585   0.0000000), wk =   0.1250000
        k(    9) = (   0.1250000   0.3843878   0.0000000), wk =   0.1250000
        k(   10) = (   0.1250000  -0.5125170   0.0000000), wk =   0.0625000
        k(   11) = (   0.2500000   0.0000000   0.0000000), wk =   0.0625000
        k(   12) = (   0.2500000   0.1281293   0.0000000), wk =   0.1250000
        k(   13) = (   0.2500000   0.2562585   0.0000000), wk =   0.1250000
        k(   14) = (   0.2500000   0.3843878   0.0000000), wk =   0.1250000
        k(   15) = (   0.2500000  -0.5125170   0.0000000), wk =   0.0625000
        k(   16) = (   0.3750000   0.0000000   0.0000000), wk =   0.0625000
        k(   17) = (   0.3750000   0.1281293   0.0000000), wk =   0.1250000
        k(   18) = (   0.3750000   0.2562585   0.0000000), wk =   0.1250000
        k(   19) = (   0.3750000   0.3843878   0.0000000), wk =   0.1250000
        k(   20) = (   0.3750000  -0.5125170   0.0000000), wk =   0.0625000
        k(   21) = (  -0.5000000   0.0000000   0.0000000), wk =   0.0312500
        k(   22) = (  -0.5000000   0.1281293   0.0000000), wk =   0.0625000
        k(   23) = (  -0.5000000   0.2562585   0.0000000), wk =   0.0625000
        k(   24) = (  -0.5000000   0.3843878   0.0000000), wk =   0.0625000
        k(   25) = (  -0.5000000  -0.5125170   0.0000000), wk =   0.0312500

     Initial potential from superposition of free atoms

     starting charge  228.84827, renormalised to  229.00000

     negative rho (up, down):  8.942E-02 0.000E+00
     Starting wfcs are  201 randomized atomic wfcs

     Self-consistent Calculation

     iteration #  1     ecut=    60.00 Ry     beta= 0.20
     Davidson diagonalization with overlap
     ethr =  1.00E-02,  avg # of iterations =  2.0

     negative rho (up, down):  8.727E-02 0.000E+00

     total energy              =   -1869.52048583 Ry
     Harris-Foulkes estimate   =   -1871.09998919 Ry
     estimated scf accuracy    <      13.48366659 Ry

[...]

     iteration # 28     ecut=    60.00 Ry     beta= 0.20
     Davidson diagonalization with overlap
     c_bands:  1 eigenvalues not converged
     c_bands:  1 eigenvalues not converged
     ethr =  1.05E-07,  avg # of iterations =  8.8

[...]

     iteration # 29     ecut=    60.00 Ry     beta= 0.20
     Davidson diagonalization with overlap
     c_bands:  1 eigenvalues not converged
     ethr =  3.61E-08,  avg # of iterations =  4.1

[...]

     total energy              =   -1868.72182997 Ry
     Harris-Foulkes estimate   =   -1868.72182892 Ry
     estimated scf accuracy    <       0.00000283 Ry

     iteration # 33     ecut=    60.00 Ry     beta= 0.20
     Davidson diagonalization with overlap
     ethr =  1.24E-09,  avg # of iterations =  1.9

[...]

     End of self-consistent calculation

          k = 0.0000 0.0000 0.0000 ( 38411 PWs)   bands (ev):

   -38.7933 -38.7184 -23.4238 -23.4116 -23.3229 -23.2659 -19.3264 -19.2602
   -18.7987 -18.7899 -18.7244 -18.7113 -16.1183 -16.0686 -15.1605 -15.1074
   -14.9078 -14.9040 -14.8980 -14.8541 -14.8071 -14.6426 -14.5891 -14.4051
   -14.3927 -14.1463 -12.8622  -8.6972  -8.6443  -8.6256  -8.4793  -8.4159
    -8.4043  -8.3891  -8.3777  -8.2389  -8.2162  -8.1947  -8.1128  -2.7498
    -2.7194  -2.6981  -2.6702  -2.5791  -2.5244  -2.5059  -2.4966  -2.4625
    -2.4228  -2.3863  -2.3322  -2.2115  -1.5550  -1.4931  -1.1035  -1.0866
    -1.0369  -0.7718  -0.7147  -0.7143  -0.7053  -0.6767  -0.6699  -0.5158
    -0.5137  -0.4821  -0.4618  -0.4436  -0.4362  -0.3831  -0.3781  -0.3522
    -0.3430  -0.2524  -0.2488  -0.2373  -0.2356  -0.2128  -0.1519  -0.1362
    -0.0980  -0.0943  -0.0841  -0.0707  -0.0199   0.0159   0.0200   0.0372
     0.3178   0.4601   0.5041   0.5696   0.5710   0.6115   0.6422   0.6801
     0.7185   0.7283   0.7363   0.8216   0.8290   0.8417   0.8534   0.8557
     0.8982   1.2769   1.3184   1.3393   1.3468   1.4296   1.5387   1.5455
     1.6263   1.8436   1.9822   2.0298   2.0669   2.1095   2.1385   4.5448
     4.6529   4.6972   5.2216   5.2745   5.7723   6.0224   6.0379   6.2199
     6.2464   6.7465   6.8846   7.5004   7.5177   7.5731   7.7199   7.9177
     7.9405   8.0048

[...]

          k = 0.3750-0.5125 0.0000 ( 38630 PWs)   bands (ev):

[...]

          k =-0.5000 0.0000 0.0000 ( 38486 PWs)   bands (ev):

[...]

          k =-0.5000-0.5125 0.0000 ( 38612 PWs)   bands (ev):

   -38.7654 -38.6905 -23.1818 -23.1694 -23.1132 -23.0276 -19.3493 -19.3217
   -19.2722 -19.2516 -18.8456 -18.7764 -15.1724 -15.1630 -15.1366 -15.0983
   -14.8962 -14.8953 -14.6605 -14.6180 -14.6078 -14.5928 -14.5385 -14.2889
   -14.2702 -14.2035 -12.9763  -9.3755  -9.3641  -9.1901  -9.0865  -9.0747
    -9.0190  -8.9075  -8.8909  -8.6232  -8.6196  -8.5877  -8.4828  -4.8628
    -4.7996  -4.2792  -4.1996  -3.3734  -3.3653  -3.3578  -3.1766  -3.1334
    -2.9871  -2.9751  -2.8983  -2.8518  -2.4886  -2.4870  -2.4663  -2.4195
    -2.1843  -1.7149  -1.6712  -1.5955  -1.5464  -1.4551  -1.3742  -1.3622
    -1.3529  -1.2536  -1.2291  -1.2249  -1.1507  -1.1360  -1.0950  -0.5071
    -0.4986  -0.4961  -0.3942  -0.1730   0.1301   0.2617   0.5371   0.6021
     0.7417   0.7854   0.8341   0.8509   0.8676   0.8808   0.8893   0.8992
     0.9192   0.9974   1.0972   1.1253   1.1722   1.1847   1.2131   1.3704
     1.3929   1.3990   1.4056   1.4122   1.4174   1.5334   1.6186   1.7269
     1.9148   1.9334   2.0230   2.0387   2.1058   2.1391   2.3061   2.3188
     2.3246   2.4144   2.6479   4.0896   4.1180   4.2032   4.2166   5.1602
     5.1726   5.4392   5.9291   6.0445   7.3798   7.4083   7.7318   7.7541
     8.0718   8.2607   8.5099   8.5867   8.6165   8.6195   8.8051   8.8638
     8.8702   8.9754

     the Fermi energy is     2.3188 ev

!    total energy              =   -1868.72183115 Ry
     Harris-Foulkes estimate   =   -1868.72183005 Ry
     estimated scf accuracy    <       0.00000100 Ry

     The total energy is the sum of the following terms:

     one-electron contribution =  -23622.59434429 Ry
     hartree contribution      =   11960.46553828 Ry
     xc contribution           =    -642.20033433 Ry
     ewald contribution        =   10435.61802431 Ry
     smearing contrib. (-TS)   =      -0.01071512 Ry

     convergence has been achieved in  33 iterations

     negative rho (up, down):  9.045E-02 0.000E+00

     Forces acting on atoms (cartesian axes, Ry/au):

     atom    1 type  3   force =     0.00000000    0.00000000   -0.00055958
     atom    2 type  2   force =     0.00000000    0.00000000   -0.00018177
     atom    3 type  3   force =     0.00000000    0.00000000    0.00022621
     atom    4 type  1   force =     0.00000000    0.00000000   -0.00024110
     atom    5 type  2   force =     0.00000000    0.00000000   -0.00033928
     atom    6 type  3   force =     0.00000000    0.00000000    0.00125719
     atom    7 type  3   force =     0.00000000    0.00000000    0.00094807
     atom    8 type  4   force =     0.00000000    0.00000000   -0.00270088
     atom    9 type  3   force =     0.00000000    0.00000000    0.00478326
     atom   10 type  3   force =     0.00000000    0.00000000    0.00320558
     atom   11 type  2   force =     0.00000000    0.00000000   -0.00396286
     atom   12 type  1   force =     0.00000000    0.00000000    0.01652121
     atom   13 type  3   force =     0.00000000    0.00000000   -0.01936550
     atom   14 type  3   force =     0.00000000    0.00000000    0.02143717
     atom   15 type  2   force =     0.00000000    0.00000000   -0.02254437
     atom   16 type  3   force =     0.00000000    0.00000000    0.01766998
     atom   17 type  1   force =     0.00000000    0.00000000   -0.00166169
     atom   18 type  2   force =     0.00000000    0.00000000   -0.02097454
     atom   19 type  3   force =     0.00000000    0.00000000    0.00423162
     atom   20 type  3   force =     0.00000000    0.00000000    0.00307158
     atom   21 type  4   force =     0.00000000    0.00000000   -0.00112166
     atom   22 type  3   force =     0.00000000    0.00000000   -0.00055164
     atom   23 type  3   force =     0.00000000    0.00000000    0.00082030
     atom   24 type  2   force =     0.00000000    0.00000000    0.00032625
     atom   25 type  1   force =     0.00000000    0.00000000   -0.00006798
     atom   26 type  3   force =     0.00000000    0.00000000   -0.00191525
     atom   27 type  2   force =     0.00000000    0.00000000    0.00140220
     atom   28 type  3   force =     0.00000000    0.00000000    0.00028750

     Total force =     0.049652     Total SCF correction =     0.004937

     Computing stress (Cartesian axis) and pressure

     negative rho (up, down):  9.045E-02 0.000E+00
          total   stress  (Ry/bohr**3)                   (kbar)     P=       -5.97
   0.00000157   0.00000000   0.00000000            0.23        0.00        0.00
   0.00000000  -0.00010215   0.00000000            0.00      -15.03        0.00
   0.00000000   0.00000000  -0.00002114            0.00        0.00       -3.11

     General routines

     Parallel routines

   This run was terminated on:  18:12:49   5May2021

   JOB DONE.
[1620252769.927138] [holy7c10410:214318:0]          mpool.c:43   UCX  WARN  object 0x3556380 was not returned to mpool ucp_requests
[1620252769.929393] [holy7c12103:122014:0]          mpool.c:43   UCX  WARN  object 0x469ba40 was not returned to mpool ucp_requests
[1620252769.929638] [holy7c10612:128112:0]          mpool.c:43   UCX  WARN  object 0x3035380 was not returned to mpool ucp_requests
[1620252769.931781] [holy7c10503:273613:0]          mpool.c:43   UCX  WARN  object 0x302fe00 was not returned to mpool ucp_requests
[1620252769.932049] [holy7c12102:90546:0]          mpool.c:43   UCX  WARN  object 0x455c9c0 was not returned to mpool ucp_requests
[1620252769.932088] [holy7c12102:90546:0]          mpool.c:43   UCX  WARN  object 0x455cf00 was not returned to mpool ucp_requests
[1620252769.935248] [holy7c10608:82454:0]          mpool.c:43   UCX  WARN  object 0x2a563c0 was not returned to mpool ucp_requests
[1620252769.935270] [holy7c10608:82454:0]          mpool.c:43   UCX  WARN  object 0x2a56ac0 was not returned to mpool ucp_requests
[1620252769.935307] [holy7c12103:122013:0]          mpool.c:43   UCX  WARN  object 0x42c8a40 was not returned to mpool ucp_requests