     Program PWSCF v.6.5 starts on  5May2021 at 17:15:50

     R & G space division:  proc/nbgrp/npool/nimage =      20
     Reading input from YBCO_CuO_cleave_3.0_sep_scf.pwi
Warning: card &IONS ignored
Warning: card     ION_DYNAMICS = 'BFGS' ignored
Warning: card / ignored
Warning: card &CELL ignored
Warning: card     CELL_DYNAMICS = 'BFGS' ignored
Warning: card / ignored

     Current dimensions of program PWSCF are:
     Max number of different atomic species (ntypx) = 10
     Max number of k-points (npk) =  40000
     Max angular momentum in pseudopotentials (lmaxx) =  3

     Message from routine setup:
     using ibrav=0 with symmetry is DISCOURAGED, use correct ibrav instead

     bravais-lattice index     =            0
     lattice parameter (alat)  =       7.3477  a.u.
     unit-cell volume          =    4655.3630 (a.u.)^3
     number of atoms/cell      =           28
     number of atomic types    =            4
     number of electrons       =       229.00
     number of Kohn-Sham states=          138
     kinetic-energy cutoff     =      60.0000  Ry
     charge density cutoff     =     720.0000  Ry
     convergence threshold     =      1.0E-06
     mixing beta               =       0.2000
     number of iterations used =           10  local-TF  mixing
     Exchange-correlation= SLA PW PBE PBE
                           (   1   4   3   4   0   0   0)

     celldm(1)=   7.347715  celldm(2)=   0.000000  celldm(3)=   0.000000
     celldm(4)=   0.000000  celldm(5)=   0.000000  celldm(6)=   0.000000

     crystal axes: (cart. coord. in units of alat)
               a(1) = (   1.000000   0.000000   0.000000 )
               a(2) = (   0.000000   0.975577   0.000000 )
               a(3) = (   0.000000   0.000000  12.029150 )

     reciprocal axes: (cart. coord. in units 2 pi/alat)
               b(1) = (  1.000000  0.000000  0.000000 )
               b(2) = (  0.000000  1.025034  0.000000 )
               b(3) = (  0.000000  0.000000  0.083131 )

     PseudoPot. # 1 for Ba read from file:
     /n/holyscratch01/hoffman_lab/ruizhe/YBCO_Project/pseudo/Ba.pbe-nsp-van.UPF
     MD5 check sum: 2b9c31dd849566dd297d80989662b7a0
     Pseudo is Ultrasoft + core correction, Zval = 10.0
     Generated by new atomic code, or converted to UPF format
     Using radial grid of  907 points,  6 beta functions with:
                l(1) =   0
                l(2) =   0
                l(3) =   1
                l(4) =   1
                l(5) =   2
                l(6) =   2
     Q(r) pseudized with  6 coefficients,  rinner =    1.200   1.200   1.200
                                                       1.200   1.200

     PseudoPot. # 2 for Cu read from file:
     /n/holyscratch01/hoffman_lab/ruizhe/YBCO_Project/pseudo/Cu.pbe-n-van_ak.UPF
     MD5 check sum: 34e3282627ffb533726feb647e090d62
     Pseudo is Ultrasoft + core correction, Zval = 11.0
     Generated by new atomic code, or converted to UPF format
     Using radial grid of  867 points,  6 beta functions with:
                l(1) =   0
                l(2) =   0
                l(3) =   1
                l(4) =   1
                l(5) =   2
                l(6) =   2
     Q(r) pseudized with  8 coefficients,  rinner =    1.400   1.400   1.400
                                                       1.400   1.400

     PseudoPot. # 3 for O  read from file:
     /n/holyscratch01/hoffman_lab/ruizhe/YBCO_Project/pseudo/O.pbe-van_ak.UPF
     MD5 check sum: 783ce7fe4c79b6a4916957118fed0856
     Pseudo is Ultrasoft, Zval =  6.0
     Generated by new atomic code, or converted to UPF format
     Using radial grid of  737 points,  4 beta functions with:
                l(1) =   0
                l(2) =   0
                l(3) =   1
                l(4) =   1
     Q(r) pseudized with  8 coefficients,  rinner =    0.800   0.800   0.800

     PseudoPot. # 4 for Y  read from file:
     /n/holyscratch01/hoffman_lab/ruizhe/YBCO_Project/pseudo/Y.pbe-nsp-van.UPF
     MD5 check sum: 4412fed3ab108fed87a1b7d6a69a4a38
     Pseudo is Ultrasoft + core correction, Zval = 11.0
     Generated by new atomic code, or converted to UPF format
     Using radial grid of  885 points,  6 beta functions with:
                l(1) =   0
                l(2) =   0
                l(3) =   1
                l(4) =   1
                l(5) =   2
                l(6) =   2
     Q(r) pseudized with  6 coefficients,  rinner =    1.200   1.200   1.200
                                                       1.200   1.200

     atomic species   valence    mass     pseudopotential
        Ba            10.00   137.32700     Ba( 1.00)
        Cu            11.00    63.54600     Cu( 1.00)
        O              6.00    15.99900     O ( 1.00)
        Y             11.00    88.90584     Y ( 1.00)

      4 Sym. Ops. (no inversion) found

   Cartesian axes

     site n.     atom                  positions (alat units)
         1           O   tau(   1) = (   0.0000000   0.4877884  -0.0257983  )
         2           Cu  tau(   2) = (   0.0000000   0.0000000   0.0215779  )
         3           O   tau(   3) = (   0.0000000   0.0000000   0.5073114  )
         4           Ba  tau(   4) = (   0.4999996   0.4877884   0.5319677  )
         5           Cu  tau(   5) = (   0.0000000   0.0000000   1.0495845  )
         6           O   tau(   6) = (   0.4999996   0.0000000   1.1181579  )
         7           O   tau(   7) = (   0.0000000   0.4877884   1.1273137  )
         8           Y   tau(   8) = (   0.4999996   0.4877884   1.4938777  )
         9           O   tau(   9) = (   0.0000000   0.4877884   1.8497402  )
        10           O   tau(  10) = (   0.4999996   0.0000000   1.8692709  )
        11           Cu  tau(  11) = (   0.0000000   0.0000000   1.9417560  )
        12           Ba  tau(  12) = (   0.4999996   0.4877884   2.4526063  )
        13           O   tau(  13) = (   0.0000000   0.0000000   2.5103470  )
        14           O   tau(  14) = (   0.0000000   0.4877884   2.9968469  )
        15           Cu  tau(  15) = (   0.0000000   0.0000000   2.9968521  )
        16           O   tau(  16) = (   0.0000000   0.0000000   4.2548855  )
        17           Ba  tau(  17) = (   0.4999996   0.4877884   4.3126185  )
        18           Cu  tau(  18) = (   0.0000000   0.0000000   4.8234918  )
        19           O   tau(  19) = (   0.4999996   0.0000000   4.8959642  )
        20           O   tau(  20) = (   0.0000000   0.4877884   4.9154768  )
        21           Y   tau(  21) = (   0.4999996   0.4877884   5.2713419  )
        22           O   tau(  22) = (   0.0000000   0.4877884   5.6379059  )
        23           O   tau(  23) = (   0.4999996   0.0000000   5.6470746  )
        24           Cu  tau(  24) = (   0.0000000   0.0000000   5.7156531  )
        25           Ba  tau(  25) = (   0.4999996   0.4877884   6.2332544  )
        26           O   tau(  26) = (   0.0000000   0.0000000   6.2579108  )
        27           Cu  tau(  27) = (   0.0000000   0.0000000   6.7436160  )
        28           O   tau(  28) = (   0.0000000   0.4877884   6.7909973  )

     number of k points=    25  Gaussian smearing, width (Ry)=  0.0100
                       cart. coord. in units 2pi/alat
        k(    1) = (   0.0000000   0.0000000   0.0000000), wk =   0.0312500
        k(    2) = (   0.0000000   0.1281293   0.0000000), wk =   0.0625000
        k(    3) = (   0.0000000   0.2562585   0.0000000), wk =   0.0625000
        k(    4) = (   0.0000000   0.3843878   0.0000000), wk =   0.0625000
        k(    5) = (   0.0000000  -0.5125170   0.0000000), wk =   0.0312500
        k(    6) = (   0.1250000   0.0000000   0.0000000), wk =   0.0625000
        k(    7) = (   0.1250000   0.1281293   0.0000000), wk =   0.1250000
        k(    8) = (   0.1250000   0.2562585   0.0000000), wk =   0.1250000
        k(    9) = (   0.1250000   0.3843878   0.0000000), wk =   0.1250000
        k(   10) = (   0.1250000  -0.5125170   0.0000000), wk =   0.0625000
        k(   11) = (   0.2500000   0.0000000   0.0000000), wk =   0.0625000
        k(   12) = (   0.2500000   0.1281293   0.0000000), wk =   0.1250000
        k(   13) = (   0.2500000   0.2562585   0.0000000), wk =   0.1250000
        k(   14) = (   0.2500000   0.3843878   0.0000000), wk =   0.1250000
        k(   15) = (   0.2500000  -0.5125170   0.0000000), wk =   0.0625000
        k(   16) = (   0.3750000   0.0000000   0.0000000), wk =   0.0625000
        k(   17) = (   0.3750000   0.1281293   0.0000000), wk =   0.1250000
        k(   18) = (   0.3750000   0.2562585   0.0000000), wk =   0.1250000
        k(   19) = (   0.3750000   0.3843878   0.0000000), wk =   0.1250000
        k(   20) = (   0.3750000  -0.5125170   0.0000000), wk =   0.0625000
        k(   21) = (  -0.5000000   0.0000000   0.0000000), wk =   0.0312500
        k(   22) = (  -0.5000000   0.1281293   0.0000000), wk =   0.0625000
        k(   23) = (  -0.5000000   0.2562585   0.0000000), wk =   0.0625000
        k(   24) = (  -0.5000000   0.3843878   0.0000000), wk =   0.0625000
        k(   25) = (  -0.5000000  -0.5125170   0.0000000), wk =   0.0312500

     Initial potential from superposition of free atoms

     starting charge  228.84827, renormalised to  229.00000

     negative rho (up, down):  8.959E-02 0.000E+00
     Starting wfcs are  201 randomized atomic wfcs

     Self-consistent Calculation

     iteration #  1     ecut=    60.00 Ry     beta= 0.20
     Davidson diagonalization with overlap
     ethr =  1.00E-02,  avg # of iterations =  2.0

     negative rho (up, down):  8.742E-02 0.000E+00

     total energy              =   -1869.51269777 Ry
     Harris-Foulkes estimate   =   -1871.09402454 Ry
     estimated scf accuracy    <      13.35717610 Ry

[...]

     iteration # 26     ecut=    60.00 Ry     beta= 0.20
     Davidson diagonalization with overlap
     c_bands:  1 eigenvalues not converged
     c_bands:  1 eigenvalues not converged
     ethr =  1.48E-07,  avg # of iterations =  7.1

[...]

     iteration # 27     ecut=    60.00 Ry     beta= 0.20
     Davidson diagonalization with overlap
     c_bands:  1 eigenvalues not converged
     ethr =  7.98E-08,  avg # of iterations =  3.7

[...]

     total energy              =   -1868.72425958 Ry
     Harris-Foulkes estimate   =   -1868.72425920 Ry
     estimated scf accuracy    <       0.00000331 Ry

     iteration # 33     ecut=    60.00 Ry     beta= 0.20
     Davidson diagonalization with overlap
     ethr =  1.45E-09,  avg # of iterations =  1.7

[...]

     End of self-consistent calculation

          k = 0.0000 0.0000 0.0000 ( 36431 PWs)   bands (ev):

   -38.4263 -38.3499 -23.0555 -23.0434 -22.9216 -22.8979 -18.9594 -18.8918
   -18.4316 -18.4228 -18.3561 -18.3429 -15.7508 -15.7006 -14.7930 -14.7392
   -14.5399 -14.5361 -14.5299 -14.4862 -14.4472 -14.2750 -14.2211 -14.0370
   -14.0247 -13.7855 -12.4947  -8.2910  -8.2762  -8.2531  -8.1127  -8.0478
    -8.0363  -8.0208  -8.0095  -7.8714  -7.8479  -7.7964  -7.7151  -2.3823
    -2.3520  -2.3303  -2.3028  -2.2117  -2.1564  -2.1378  -2.1286  -2.0950
    -2.0559  -2.0187  -1.9646  -1.8428  -1.1874  -1.1254  -0.7353  -0.7186
    -0.6766  -0.4044  -0.3481  -0.3463  -0.3373  -0.3088  -0.3020  -0.1478
    -0.1459  -0.1146  -0.0940  -0.0792  -0.0730  -0.0154  -0.0116   0.0145
     0.0240   0.1152   0.1191   0.1300   0.1320   0.1532   0.2157   0.2312
     0.2698   0.2711   0.2836   0.2923   0.3410   0.3834   0.3882   0.4051
     0.6653   0.8277   0.8716   0.9288   0.9372   0.9786   1.0089   1.0477
     1.0820   1.0866   1.1034   1.1892   1.1939   1.2096   1.2202   1.2235
     1.2656   1.6447   1.6857   1.7072   1.7148   1.7969   1.9067   1.9136
     1.9940   2.2093   2.3522   2.3975   2.4384   2.4811   2.5142   4.8457
     5.0167   5.0472   5.5877   5.6740   6.3582   6.4003   6.4562   6.6397
     6.9464   7.1417   7.5478   7.8676   7.8968   7.9409   8.0994   8.3072
     8.3802   8.4437

[...]

          k = 0.3750-0.5125 0.0000 ( 36666 PWs)   bands (ev):

[...]

          k =-0.5000 0.0000 0.0000 ( 36502 PWs)   bands (ev):

[...]

          k =-0.5000-0.5125 0.0000 ( 36660 PWs)   bands (ev):

   -38.3984 -38.3220 -22.8134 -22.8012 -22.7115 -22.6595 -18.9822 -18.9546
   -18.9038 -18.8835 -18.4786 -18.4079 -14.8051 -14.7953 -14.7690 -14.7300
   -14.5279 -14.5270 -14.2933 -14.2502 -14.2402 -14.2238 -14.1700 -13.9209
   -13.9024 -13.8518 -12.6092  -9.0072  -8.9960  -8.8219  -8.7184  -8.7068
    -8.6221  -8.5240  -8.5095  -8.2551  -8.2442  -8.1850  -8.1160  -4.4952
    -4.4322  -3.9116  -3.8323  -3.0072  -3.0044  -2.9898  -2.8092  -2.7645
    -2.6192  -2.6072  -2.5305  -2.4859  -2.1204  -2.1187  -2.0989  -2.0509
    -1.8154  -1.3479  -1.3038  -1.2277  -1.1787  -1.0913  -1.0064  -0.9963
    -0.9852  -0.8871  -0.8635  -0.8586  -0.7830  -0.7683  -0.7365  -0.1392
    -0.1362  -0.1282  -0.0273   0.1945   0.4980   0.6293   0.9043   0.9703
     1.1092   1.1533   1.2015   1.2185   1.2343   1.2462   1.2564   1.2668
     1.2862   1.3649   1.4620   1.4928   1.5378   1.5525   1.5804   1.7377
     1.7610   1.7669   1.7734   1.7803   1.7854   1.9004   1.9858   2.0961
     2.2829   2.3015   2.3908   2.4063   2.4582   2.4961   2.6807   2.6915
     2.6917   2.7824   3.0080   4.4573   4.4842   4.5712   4.5841   5.5280
     5.5402   5.7747   6.2961   6.4120   7.8065   7.8417   8.1130   8.1211
     8.4393   8.6341   8.8582   8.9509   8.9684   8.9878   9.1263   9.2368
     9.2563   9.3233

     the Fermi energy is     2.6869 ev

!    total energy              =   -1868.72425909 Ry
     Harris-Foulkes estimate   =   -1868.72425965 Ry
     estimated scf accuracy    <       0.00000095 Ry

     The total energy is the sum of the following terms:

     one-electron contribution =  -26792.93893305 Ry
     hartree contribution      =   13548.70024155 Ry
     xc contribution           =    -642.19900654 Ry
     ewald contribution        =   12017.72419160 Ry
     smearing contrib. (-TS)   =      -0.01075266 Ry

     convergence has been achieved in  33 iterations

     negative rho (up, down):  9.057E-02 0.000E+00

     Forces acting on atoms (cartesian axes, Ry/au):

     atom    1 type  3   force =     0.00000000    0.00000000   -0.00065640
     atom    2 type  2   force =     0.00000000    0.00000000   -0.00010579
     atom    3 type  3   force =     0.00000000    0.00000000    0.00031348
     atom    4 type  1   force =     0.00000000    0.00000000   -0.00025305
     atom    5 type  2   force =     0.00000000    0.00000000    0.00086594
     atom    6 type  3   force =     0.00000000    0.00000000    0.00134789
     atom    7 type  3   force =     0.00000000    0.00000000    0.00105097
     atom    8 type  4   force =     0.00000000    0.00000000   -0.00298831
     atom    9 type  3   force =     0.00000000    0.00000000    0.00509480
     atom   10 type  3   force =     0.00000000    0.00000000    0.00347412
     atom   11 type  2   force =     0.00000000    0.00000000   -0.00209585
     atom   12 type  1   force =     0.00000000    0.00000000    0.01616134
     atom   13 type  3   force =     0.00000000    0.00000000   -0.01944444
     atom   14 type  3   force =     0.00000000    0.00000000    0.02262799
     atom   15 type  2   force =     0.00000000    0.00000000   -0.02188672
     atom   16 type  3   force =     0.00000000    0.00000000    0.02064898
     atom   17 type  1   force =     0.00000000    0.00000000   -0.00546088
     atom   18 type  2   force =     0.00000000    0.00000000   -0.02292794
     atom   19 type  3   force =     0.00000000    0.00000000    0.00425333
     atom   20 type  3   force =     0.00000000    0.00000000    0.00299126
     atom   21 type  4   force =     0.00000000    0.00000000   -0.00077885
     atom   22 type  3   force =     0.00000000    0.00000000   -0.00075716
     atom   23 type  3   force =     0.00000000    0.00000000    0.00063990
     atom   24 type  2   force =     0.00000000    0.00000000   -0.00141240
     atom   25 type  1   force =     0.00000000    0.00000000   -0.00001238
     atom   26 type  3   force =     0.00000000    0.00000000   -0.00205769
     atom   27 type  2   force =     0.00000000    0.00000000    0.00107631
     atom   28 type  3   force =     0.00000000    0.00000000    0.00029156

     Total force =     0.051999     Total SCF correction =     0.005050

     Computing stress (Cartesian axis) and pressure

     negative rho (up, down):  9.057E-02 0.000E+00
          total   stress  (Ry/bohr**3)                   (kbar)     P=       -6.85
  -0.00000158   0.00000000   0.00000000           -0.23        0.00        0.00
   0.00000000  -0.00010856   0.00000000            0.00      -15.97        0.00
   0.00000000   0.00000000  -0.00002951            0.00        0.00       -4.34

     General routines

     Parallel routines

   This run was terminated on:  17:26: 4   5May2021

   JOB DONE.
[1620249964.286772] [holy7c16301:46904:0]          mpool.c:43   UCX  WARN  object 0x45ade40 was not returned to mpool ucp_requests
[1620249964.287126] [holy7c16303:53270:0]          mpool.c:43   UCX  WARN  object 0x3f21840 was not returned to mpool ucp_requests
[1620249964.291251] [holy7c16206:22143:0]          mpool.c:43   UCX  WARN  object 0x32d0340 was not returned to mpool ucp_requests
[1620249964.291270] [holy7c16206:22143:0]          mpool.c:43   UCX  WARN  object 0x32d06c0 was not returned to mpool ucp_requests
[1620249964.292415] [holy7c16110:213946:0]          mpool.c:43   UCX  WARN  object 0x4189680 was not returned to mpool ucp_requests
[1620249964.292432] [holy7c16110:213946:0]          mpool.c:43   UCX  WARN  object 0x4189a00 was not returned to mpool ucp_requests
[1620249964.291618] [holy7c16110:213947:0]          mpool.c:43   UCX  WARN  object 0x3971300 was not returned to mpool ucp_requests
[1620249964.290605] [holy7c16309:185145:0]          mpool.c:43   UCX  WARN  object 0x387d1c0 was not returned to mpool ucp_requests
[1620249964.293222] [holy7c16303:53269:0]          mpool.c:43   UCX  WARN  object 0x33e4b40 was not returned to mpool ucp_requests
[1620249964.293243] [holy7c16303:53269:0]          mpool.c:43   UCX  WARN  object 0x33e5080 was not returned to mpool ucp_requests