     Program PWSCF v.6.5 starts on  5May2021 at 18: 9:15

     R & G space division:  proc/nbgrp/npool/nimage =      20
     Reading input from YBCO_Y_cleave_6.0_sep_scf.pwi
Warning: card &IONS ignored
Warning: card     ION_DYNAMICS = 'BFGS' ignored
Warning: card / ignored
Warning: card &CELL ignored
Warning: card     CELL_DYNAMICS = 'BFGS' ignored
Warning: card / ignored

     Current dimensions of program PWSCF are:
     Max number of different atomic species (ntypx) = 10
     Max number of k-points (npk) =  40000
     Max angular momentum in pseudopotentials (lmaxx) =  3

     Message from routine setup:
     using ibrav=0 with symmetry is DISCOURAGED, use correct ibrav instead

     bravais-lattice index     =            0
     lattice parameter (alat)  =       7.3477  a.u.
     unit-cell volume          =    4953.9607 (a.u.)^3
     number of atoms/cell      =           28
     number of atomic types    =            4
     number of electrons       =       229.00
     number of Kohn-Sham states=          138
     kinetic-energy cutoff     =      60.0000  Ry
     charge density cutoff     =     720.0000  Ry
     convergence threshold     =      1.0E-06
     mixing beta               =       0.2000
     number of iterations used =           10  local-TF  mixing
     Exchange-correlation= SLA PW PBE PBE
                           (   1   4   3   4   0   0   0)

     celldm(1)=   7.347715  celldm(2)=   0.000000  celldm(3)=   0.000000
     celldm(4)=   0.000000  celldm(5)=   0.000000  celldm(6)=   0.000000

     crystal axes: (cart. coord. in units of alat)
               a(1) = (   1.000000   0.000000   0.000000 )
               a(2) = (   0.000000   0.975577   0.000000 )
               a(3) = (   0.000000   0.000000  12.800707 )

     reciprocal axes: (cart. coord. in units 2 pi/alat)
               b(1) = (  1.000000  0.000000  0.000000 )
               b(2) = (  0.000000  1.025034  0.000000 )
               b(3) = (  0.000000  0.000000  0.078121 )

     PseudoPot. # 1 for Ba read from file:
     /n/holyscratch01/hoffman_lab/ruizhe/YBCO_Project/pseudo/Ba.pbe-nsp-van.UPF
     MD5 check sum: 2b9c31dd849566dd297d80989662b7a0
     Pseudo is Ultrasoft + core correction, Zval = 10.0
     Generated by new atomic code, or converted to UPF format
     Using radial grid of  907 points,  6 beta functions with:
                l(1) =   0
                l(2) =   0
                l(3) =   1
                l(4) =   1
                l(5) =   2
                l(6) =   2
     Q(r) pseudized with  6 coefficients,  rinner =    1.200   1.200   1.200
                                                       1.200   1.200

     PseudoPot. # 2 for Cu read from file:
     /n/holyscratch01/hoffman_lab/ruizhe/YBCO_Project/pseudo/Cu.pbe-n-van_ak.UPF
     MD5 check sum: 34e3282627ffb533726feb647e090d62
     Pseudo is Ultrasoft + core correction, Zval = 11.0
     Generated by new atomic code, or converted to UPF format
     Using radial grid of  867 points,  6 beta functions with:
                l(1) =   0
                l(2) =   0
                l(3) =   1
                l(4) =   1
                l(5) =   2
                l(6) =   2
     Q(r) pseudized with  8 coefficients,  rinner =    1.400   1.400   1.400
                                                       1.400   1.400

     PseudoPot. # 3 for O  read from file:
     /n/holyscratch01/hoffman_lab/ruizhe/YBCO_Project/pseudo/O.pbe-van_ak.UPF
     MD5 check sum: 783ce7fe4c79b6a4916957118fed0856
     Pseudo is Ultrasoft, Zval =  6.0
     Generated by new atomic code, or converted to UPF format
     Using radial grid of  737 points,  4 beta functions with:
                l(1) =   0
                l(2) =   0
                l(3) =   1
                l(4) =   1
     Q(r) pseudized with  8 coefficients,  rinner =    0.800   0.800   0.800

     PseudoPot. # 4 for Y  read from file:
     /n/holyscratch01/hoffman_lab/ruizhe/YBCO_Project/pseudo/Y.pbe-nsp-van.UPF
     MD5 check sum: 4412fed3ab108fed87a1b7d6a69a4a38
     Pseudo is Ultrasoft + core correction, Zval = 11.0
     Generated by new atomic code, or converted to UPF format
     Using radial grid of  885 points,  6 beta functions with:
                l(1) =   0
                l(2) =   0
                l(3) =   1
                l(4) =   1
                l(5) =   2
                l(6) =   2
     Q(r) pseudized with  6 coefficients,  rinner =    1.200   1.200   1.200
                                                       1.200   1.200

     atomic species   valence    mass     pseudopotential
        Ba            10.00   137.32700     Ba( 1.00)
        Cu            11.00    63.54600     Cu( 1.00)
        O              6.00    15.99900     O ( 1.00)
        Y             11.00    88.90584     Y ( 1.00)

      4 Sym. Ops. (no inversion) found

   Cartesian axes

     site n.     atom                  positions (alat units)
         1           O   tau(   1) = (   0.0000000   0.4877884  -0.0257983  )
         2           Cu  tau(   2) = (   0.0000000   0.0000000   0.0215779  )
         3           O   tau(   3) = (   0.0000000   0.0000000   0.5073114  )
         4           Ba  tau(   4) = (   0.4999996   0.4877884   0.5319677  )
         5           Cu  tau(   5) = (   0.0000000   0.0000000   1.0495845  )
         6           O   tau(   6) = (   0.4999996   0.0000000   1.1181579  )
         7           O   tau(   7) = (   0.0000000   0.4877884   1.1273137  )
         8           Y   tau(   8) = (   0.4999996   0.4877884   1.4938777  )
         9           O   tau(   9) = (   0.0000000   0.4877884   1.8497402  )
        10           O   tau(  10) = (   0.4999996   0.0000000   1.8692709  )
        11           Cu  tau(  11) = (   0.0000000   0.0000000   1.9417560  )
        12           Ba  tau(  12) = (   0.4999996   0.4877884   2.4526063  )
        13           O   tau(  13) = (   0.0000000   0.0000000   2.5103470  )
        14           O   tau(  14) = (   0.0000000   0.4877884   2.9968469  )
        15           Cu  tau(  15) = (   0.0000000   0.0000000   2.9968521  )
        16           O   tau(  16) = (   0.0000000   0.0000000   3.4833288  )
        17           Ba  tau(  17) = (   0.4999996   0.4877884   3.5410618  )
        18           Cu  tau(  18) = (   0.0000000   0.0000000   4.0519352  )
        19           O   tau(  19) = (   0.4999996   0.0000000   4.1244075  )
        20           O   tau(  20) = (   0.0000000   0.4877884   4.1439202  )
        21           Y   tau(  21) = (   0.4999996   0.4877884   4.4997853  )
        22           O   tau(  22) = (   0.0000000   0.4877884   6.4094625  )
        23           O   tau(  23) = (   0.4999996   0.0000000   6.4186312  )
        24           Cu  tau(  24) = (   0.0000000   0.0000000   6.4872097  )
        25           Ba  tau(  25) = (   0.4999996   0.4877884   7.0048111  )
        26           O   tau(  26) = (   0.0000000   0.0000000   7.0294675  )
        27           Cu  tau(  27) = (   0.0000000   0.0000000   7.5151727  )
        28           O   tau(  28) = (   0.0000000   0.4877884   7.5625540  )

     number of k points=    25  Gaussian smearing, width (Ry)=  0.0100
                       cart. coord. in units 2pi/alat
        k(    1) = (   0.0000000   0.0000000   0.0000000), wk =   0.0312500
        k(    2) = (   0.0000000   0.1281293   0.0000000), wk =   0.0625000
        k(    3) = (   0.0000000   0.2562585   0.0000000), wk =   0.0625000
        k(    4) = (   0.0000000   0.3843878   0.0000000), wk =   0.0625000
        k(    5) = (   0.0000000  -0.5125170   0.0000000), wk =   0.0312500
        k(    6) = (   0.1250000   0.0000000   0.0000000), wk =   0.0625000
        k(    7) = (   0.1250000   0.1281293   0.0000000), wk =   0.1250000
        k(    8) = (   0.1250000   0.2562585   0.0000000), wk =   0.1250000
        k(    9) = (   0.1250000   0.3843878   0.0000000), wk =   0.1250000
        k(   10) = (   0.1250000  -0.5125170   0.0000000), wk =   0.0625000
        k(   11) = (   0.2500000   0.0000000   0.0000000), wk =   0.0625000
        k(   12) = (   0.2500000   0.1281293   0.0000000), wk =   0.1250000
        k(   13) = (   0.2500000   0.2562585   0.0000000), wk =   0.1250000
        k(   14) = (   0.2500000   0.3843878   0.0000000), wk =   0.1250000
        k(   15) = (   0.2500000  -0.5125170   0.0000000), wk =   0.0625000
        k(   16) = (   0.3750000   0.0000000   0.0000000), wk =   0.0625000
        k(   17) = (   0.3750000   0.1281293   0.0000000), wk =   0.1250000
        k(   18) = (   0.3750000   0.2562585   0.0000000), wk =   0.1250000
        k(   19) = (   0.3750000   0.3843878   0.0000000), wk =   0.1250000
        k(   20) = (   0.3750000  -0.5125170   0.0000000), wk =   0.0625000
        k(   21) = (  -0.5000000   0.0000000   0.0000000), wk =   0.0312500
        k(   22) = (  -0.5000000   0.1281293   0.0000000), wk =   0.0625000
        k(   23) = (  -0.5000000   0.2562585   0.0000000), wk =   0.0625000
        k(   24) = (  -0.5000000   0.3843878   0.0000000), wk =   0.0625000
        k(   25) = (  -0.5000000  -0.5125170   0.0000000), wk =   0.0312500

     Initial potential from superposition of free atoms

     starting charge  228.84827, renormalised to  229.00000

     negative rho (up, down):  8.973E-02 0.000E+00
     Starting wfcs are  201 randomized atomic wfcs

     Self-consistent Calculation

     iteration #  1     ecut=    60.00 Ry     beta= 0.20
     Davidson diagonalization with overlap
     ethr =  1.00E-02,  avg # of iterations =  2.0

     negative rho (up, down):  8.737E-02 0.000E+00

     total energy              =   -1869.46025446 Ry
     Harris-Foulkes estimate   =   -1871.04148540 Ry
     estimated scf accuracy    <      14.76302538 Ry

[...]

     iteration # 26     ecut=    60.00 Ry     beta= 0.20
     Davidson diagonalization with overlap
     c_bands:  1 eigenvalues not converged
     ethr =  1.11E-06,  avg # of iterations =  7.6

[...]

     iteration # 27     ecut=    60.00 Ry     beta= 0.20
     Davidson diagonalization with overlap
     c_bands:  1 eigenvalues not converged
     c_bands:  1 eigenvalues not converged
     ethr =  7.75E-07,  avg # of iterations =  7.4

[...]

     total energy              =   -1868.38454047 Ry
     Harris-Foulkes estimate   =   -1868.38454078 Ry
     estimated scf accuracy    <       0.00000120 Ry

     iteration # 37     ecut=    60.00 Ry     beta= 0.20
     Davidson diagonalization with overlap
     ethr =  5.22E-10,  avg # of iterations =  2.1

[...]

     End of self-consistent calculation

          k = 0.0000 0.0000 0.0000 ( 38797 PWs)   bands (ev):

   -41.5846 -38.7728 -23.6922 -23.4267 -23.2841 -23.0200 -21.7269 -21.4582
   -21.4521 -19.3075 -18.7775 -18.7676 -16.7810 -16.1023 -15.8555 -15.2429
   -15.1418 -14.9368 -14.9110 -14.8877 -14.7928 -14.6261 -14.4091 -14.3300
   -14.2960 -14.1151 -13.6283  -9.0042  -8.6478  -8.6273  -8.6171  -8.5558
    -8.4191  -8.3923  -8.2378  -8.2192  -8.1457  -8.0485  -8.0134  -3.5609
    -3.5370  -3.0842  -2.7310  -2.6978  -2.6703  -2.5497  -2.5099  -2.4600
    -2.4434  -2.3659  -2.1396  -1.5364  -1.5020  -1.4617  -1.4284  -1.2874
    -1.1866  -1.1087  -1.0613  -1.0343  -1.0195  -0.8297  -0.7569  -0.7200
    -0.6834  -0.6275  -0.6013  -0.5906  -0.5302  -0.5188  -0.5076  -0.5016
    -0.4810  -0.4245  -0.3674  -0.3604  -0.2537  -0.2484  -0.2069  -0.1474
    -0.1184  -0.1063  -0.1056  -0.0738  -0.0587  -0.0250   0.0095   0.0111
     0.0323   0.1497   0.1655   0.2956   0.4332   0.4521   0.5810   0.6382
     0.6780   0.7170   0.7332   0.7973   0.8377   0.8526   0.9426   1.0552
     1.2723   1.2879   1.3321   1.3352   1.4448   1.4635   1.5337   1.6004
     1.6333   1.7257   1.7443   1.7567   2.0206   2.0497   2.0975   2.1430
     3.4481   4.5634   4.6243   4.8036   5.0368   5.3149   5.3807   6.0123
     6.0298   6.0504   6.2456   6.2889   6.4026   6.6564   6.9972   7.4885
     7.5257   7.5667

[...]

          k = 0.3750-0.5125 0.0000 ( 39018 PWs)   bands (ev):

[...]

          k =-0.5000 0.0000 0.0000 ( 38882 PWs)   bands (ev):

[...]

          k =-0.5000-0.5125 0.0000 ( 39028 PWs)   bands (ev):

   -41.5639 -38.7450 -23.4575 -23.1846 -23.0484 -22.7728 -21.7336 -21.7093
   -21.5544 -19.3266 -19.3007 -18.8265 -16.0670 -16.0417 -15.1601 -15.1428
   -14.9027 -14.8477 -14.7227 -14.6429 -14.5880 -14.5864 -14.3439 -14.2912
   -14.2309 -14.0808 -13.9351  -9.5905  -9.3786  -9.3182  -9.1902  -9.0897
    -9.0535  -8.9990  -8.8537  -8.7241  -8.6261  -8.5234  -8.1233  -5.3851
    -4.8428  -4.2599  -3.8240  -3.7560  -3.5413  -3.4087  -3.3783  -3.3010
    -3.1676  -2.9880  -2.8662  -2.6610  -2.6552  -2.4954  -2.4608  -2.4385
    -2.2410  -2.2274  -1.9424  -1.8902  -1.6749  -1.5806  -1.5756  -1.3954
    -1.3930  -1.3584  -1.3138  -1.2357  -1.1562  -1.0900  -1.0316  -0.9585
    -0.9446  -0.5146  -0.4463  -0.2420  -0.2126   0.0178   0.1722   0.2323
     0.4327   0.4339   0.4732   0.6474   0.7580   0.8306   0.8636   0.8704
     0.9139   0.9314   0.9498   1.1332   1.1962   1.2009   1.3654   1.3820
     1.3867   1.3996   1.4051   1.4080   1.5126   1.5690   1.6232   1.8255
     1.8374   1.9108   1.9217   1.9276   2.0185   2.0433   2.0856   2.3533
     2.5063   2.7990   2.9716   3.5661   3.6162   3.6537   3.8814   4.1225
     4.2085   4.4418   4.5523   4.9045   5.1554   5.3637   5.9846   6.8734
     7.5447   7.6398   7.7454   7.7615   8.1218   8.1555   8.5516   8.6534
     8.6552   8.7867

     the Fermi energy is     2.3162 ev

!    total energy              =   -1868.38454026 Ry
     Harris-Foulkes estimate   =   -1868.38454055 Ry
     estimated scf accuracy    <       0.00000038 Ry

     The total energy is the sum of the following terms:

     one-electron contribution =  -29393.53220852 Ry
     hartree contribution      =   14844.16322048 Ry
     xc contribution           =    -641.71962886 Ry
     ewald contribution        =   13322.71288269 Ry
     smearing contrib. (-TS)   =      -0.00880605 Ry

     convergence has been achieved in  37 iterations

     negative rho (up, down):  9.004E-02 0.000E+00

     Forces acting on atoms (cartesian axes, Ry/au):

     atom    1 type  3   force =     0.00000000    0.00000000   -0.00010761
     atom    2 type  2   force =     0.00000000    0.00000000   -0.00055636
     atom    3 type  3   force =     0.00000000    0.00000000   -0.00008162
     atom    4 type  1   force =     0.00000000    0.00000000   -0.00012358
     atom    5 type  2   force =     0.00000000    0.00000000   -0.00037194
     atom    6 type  3   force =     0.00000000    0.00000000    0.00028927
     atom    7 type  3   force =     0.00000000    0.00000000    0.00010757
     atom    8 type  4   force =     0.00000000    0.00000000   -0.00056943
     atom    9 type  3   force =     0.00000000    0.00000000    0.00078324
     atom   10 type  3   force =     0.00000000    0.00000000    0.00105049
     atom   11 type  2   force =     0.00000000    0.00000000   -0.00125249
     atom   12 type  1   force =     0.00000000    0.00000000   -0.00163482
     atom   13 type  3   force =     0.00000000    0.00000000    0.00231559
     atom   14 type  3   force =     0.00000000    0.00000000    0.00568095
     atom   15 type  2   force =     0.00000000    0.00000000   -0.00990247
     atom   16 type  3   force =     0.00000000    0.00000000    0.01911873
     atom   17 type  1   force =     0.00000000    0.00000000   -0.02242500
     atom   18 type  2   force =     0.00000000    0.00000000    0.00302232
     atom   19 type  3   force =     0.00000000    0.00000000    0.06068080
     atom   20 type  3   force =     0.00000000    0.00000000    0.06193882
     atom   21 type  4   force =     0.00000000    0.00000000   -0.11675227
     atom   22 type  3   force =     0.00000000    0.00000000    0.02485008
     atom   23 type  3   force =     0.00000000    0.00000000    0.03085253
     atom   24 type  2   force =     0.00000000    0.00000000   -0.02175150
     atom   25 type  1   force =     0.00000000    0.00000000   -0.03306407
     atom   26 type  3   force =     0.00000000    0.00000000   -0.00469650
     atom   27 type  2   force =     0.00000000    0.00000000   -0.00289058
     atom   28 type  3   force =     0.00000000    0.00000000    0.00548988

     Total force =     0.159267     Total SCF correction =     0.002535

     Computing stress (Cartesian axis) and pressure

     negative rho (up, down):  9.004E-02 0.000E+00
          total   stress  (Ry/bohr**3)                   (kbar)     P=       -9.72
  -0.00006149   0.00000000   0.00000000           -9.05        0.00        0.00
   0.00000000  -0.00004965   0.00000000            0.00       -7.30        0.00
   0.00000000   0.00000000  -0.00008712            0.00        0.00      -12.82

     General routines

     Parallel routines

   This run was terminated on:  18:20: 9   5May2021

   JOB DONE.
[1620253209.538683] [holy7c04112:60323:0]          mpool.c:43   UCX  WARN  object 0x3277c00 was not returned to mpool ucp_requests
[1620253209.539131] [holy7c04112:60327:0]          mpool.c:43   UCX  WARN  object 0x32d3a40 was not returned to mpool ucp_requests
[1620253209.539150] [holy7c04112:60327:0]          mpool.c:43   UCX  WARN  object 0x32d3f80 was not returned to mpool ucp_requests
[1620253209.537409] [holy7c04112:60322:0]          mpool.c:43   UCX  WARN  object 0x3705700 was not returned to mpool ucp_requests
[1620253209.539872] [holy7c06310:177456:0]          mpool.c:43   UCX  WARN  object 0x358f6c0 was not returned to mpool ucp_requests
[1620253209.539903] [holy7c06310:177456:0]          mpool.c:43   UCX  WARN  object 0x358f880 was not returned to mpool ucp_requests
[1620253209.540814] [holy7c06310:177458:0]          mpool.c:43   UCX  WARN  object 0x3b5b840 was not returned to mpool ucp_requests
[1620253209.540706] [holy7c06310:177454:0]          mpool.c:43   UCX  WARN  object 0x3fb8780 was not returned to mpool ucp_requests
[1620253209.545724] [holy7c06310:177457:0]          mpool.c:43   UCX  WARN  object 0x2a3ef80 was not returned to mpool ucp_requests