     Program PWSCF v.6.5 starts on  5May2021 at 17:23:48

     R & G space division:  proc/nbgrp/npool/nimage =      20
     Reading input from YBCO_Y_cleave_2.0_sep_scf.pwi
Warning: card &IONS ignored
Warning: card     ION_DYNAMICS = 'BFGS' ignored
Warning: card / ignored
Warning: card &CELL ignored
Warning: card     CELL_DYNAMICS = 'BFGS' ignored
Warning: card / ignored

     Current dimensions of program PWSCF are:
     Max number of different atomic species (ntypx) = 10
     Max number of k-points (npk) =  40000
     Max angular momentum in pseudopotentials (lmaxx) =  3

     Message from routine setup:
     using ibrav=0 with symmetry is DISCOURAGED, use correct ibrav instead

     bravais-lattice index     =            0
     lattice parameter (alat)  =       7.3477  a.u.
     unit-cell volume          =    4555.8304 (a.u.)^3
     number of atoms/cell      =           28
     number of atomic types    =            4
     number of electrons       =       229.00
     number of Kohn-Sham states=          138
     kinetic-energy cutoff     =      60.0000  Ry
     charge density cutoff     =     720.0000  Ry
     convergence threshold     =      1.0E-06
     mixing beta               =       0.2000
     number of iterations used =           10  local-TF  mixing
     Exchange-correlation= SLA PW PBE PBE
                           (   1   4   3   4   0   0   0)

     celldm(1)=   7.347715  celldm(2)=   0.000000  celldm(3)=   0.000000
     celldm(4)=   0.000000  celldm(5)=   0.000000  celldm(6)=   0.000000

     crystal axes: (cart. coord. in units of alat)
               a(1) = (   1.000000   0.000000   0.000000 )
               a(2) = (   0.000000   0.975577   0.000000 )
               a(3) = (   0.000000   0.000000  11.771964 )

     reciprocal axes: (cart. coord. in units 2 pi/alat)
               b(1) = (  1.000000  0.000000  0.000000 )
               b(2) = (  0.000000  1.025034  0.000000 )
               b(3) = (  0.000000  0.000000  0.084948 )

     PseudoPot. # 1 for Ba read from file:
     /n/holyscratch01/hoffman_lab/ruizhe/YBCO_Project/pseudo/Ba.pbe-nsp-van.UPF
     MD5 check sum: 2b9c31dd849566dd297d80989662b7a0
     Pseudo is Ultrasoft + core correction, Zval = 10.0
     Generated by new atomic code, or converted to UPF format
     Using radial grid of  907 points,  6 beta functions with:
                l(1) =   0
                l(2) =   0
                l(3) =   1
                l(4) =   1
                l(5) =   2
                l(6) =   2
     Q(r) pseudized with  6 coefficients,  rinner =    1.200   1.200   1.200
                                                       1.200   1.200

     PseudoPot. # 2 for Cu read from file:
     /n/holyscratch01/hoffman_lab/ruizhe/YBCO_Project/pseudo/Cu.pbe-n-van_ak.UPF
     MD5 check sum: 34e3282627ffb533726feb647e090d62
     Pseudo is Ultrasoft + core correction, Zval = 11.0
     Generated by new atomic code, or converted to UPF format
     Using radial grid of  867 points,  6 beta functions with:
                l(1) =   0
                l(2) =   0
                l(3) =   1
                l(4) =   1
                l(5) =   2
                l(6) =   2
     Q(r) pseudized with  8 coefficients,  rinner =    1.400   1.400   1.400
                                                       1.400   1.400

     PseudoPot. # 3 for O  read from file:
     /n/holyscratch01/hoffman_lab/ruizhe/YBCO_Project/pseudo/O.pbe-van_ak.UPF
     MD5 check sum: 783ce7fe4c79b6a4916957118fed0856
     Pseudo is Ultrasoft, Zval =  6.0
     Generated by new atomic code, or converted to UPF format
     Using radial grid of  737 points,  4 beta functions with:
                l(1) =   0
                l(2) =   0
                l(3) =   1
                l(4) =   1
     Q(r) pseudized with  8 coefficients,  rinner =    0.800   0.800   0.800

     PseudoPot. # 4 for Y  read from file:
     /n/holyscratch01/hoffman_lab/ruizhe/YBCO_Project/pseudo/Y.pbe-nsp-van.UPF
     MD5 check sum: 4412fed3ab108fed87a1b7d6a69a4a38
     Pseudo is Ultrasoft + core correction, Zval = 11.0
     Generated by new atomic code, or converted to UPF format
     Using radial grid of  885 points,  6 beta functions with:
                l(1) =   0
                l(2) =   0
                l(3) =   1
                l(4) =   1
                l(5) =   2
                l(6) =   2
     Q(r) pseudized with  6 coefficients,  rinner =    1.200   1.200   1.200
                                                       1.200   1.200

     atomic species   valence    mass     pseudopotential
        Ba            10.00   137.32700     Ba( 1.00)
        Cu            11.00    63.54600     Cu( 1.00)
        O              6.00    15.99900     O ( 1.00)
        Y             11.00    88.90584     Y ( 1.00)

      4 Sym. Ops. (no inversion) found

   Cartesian axes

     site n.     atom                  positions (alat units)
         1           O   tau(   1) = (   0.0000000   0.4877884  -0.0257983  )
         2           Cu  tau(   2) = (   0.0000000   0.0000000   0.0215779  )
         3           O   tau(   3) = (   0.0000000   0.0000000   0.5073114  )
         4           Ba  tau(   4) = (   0.4999996   0.4877884   0.5319677  )
         5           Cu  tau(   5) = (   0.0000000   0.0000000   1.0495845  )
         6           O   tau(   6) = (   0.4999996   0.0000000   1.1181579  )
         7           O   tau(   7) = (   0.0000000   0.4877884   1.1273137  )
         8           Y   tau(   8) = (   0.4999996   0.4877884   1.4938777  )
         9           O   tau(   9) = (   0.0000000   0.4877884   1.8497402  )
        10           O   tau(  10) = (   0.4999996   0.0000000   1.8692709  )
        11           Cu  tau(  11) = (   0.0000000   0.0000000   1.9417560  )
        12           Ba  tau(  12) = (   0.4999996   0.4877884   2.4526063  )
        13           O   tau(  13) = (   0.0000000   0.0000000   2.5103470  )
        14           O   tau(  14) = (   0.0000000   0.4877884   2.9968469  )
        15           Cu  tau(  15) = (   0.0000000   0.0000000   2.9968521  )
        16           O   tau(  16) = (   0.0000000   0.0000000   3.4833288  )
        17           Ba  tau(  17) = (   0.4999996   0.4877884   3.5410618  )
        18           Cu  tau(  18) = (   0.0000000   0.0000000   4.0519352  )
        19           O   tau(  19) = (   0.4999996   0.0000000   4.1244075  )
        20           O   tau(  20) = (   0.0000000   0.4877884   4.1439202  )
        21           Y   tau(  21) = (   0.4999996   0.4877884   4.4997853  )
        22           O   tau(  22) = (   0.0000000   0.4877884   5.3807203  )
        23           O   tau(  23) = (   0.4999996   0.0000000   5.3898890  )
        24           Cu  tau(  24) = (   0.0000000   0.0000000   5.4584675  )
        25           Ba  tau(  25) = (   0.4999996   0.4877884   5.9760689  )
        26           O   tau(  26) = (   0.0000000   0.0000000   6.0007253  )
        27           Cu  tau(  27) = (   0.0000000   0.0000000   6.4864305  )
        28           O   tau(  28) = (   0.0000000   0.4877884   6.5338118  )

     number of k points=    25  Gaussian smearing, width (Ry)=  0.0100
                       cart. coord. in units 2pi/alat
        k(    1) = (   0.0000000   0.0000000   0.0000000), wk =   0.0312500
        k(    2) = (   0.0000000   0.1281293   0.0000000), wk =   0.0625000
        k(    3) = (   0.0000000   0.2562585   0.0000000), wk =   0.0625000
        k(    4) = (   0.0000000   0.3843878   0.0000000), wk =   0.0625000
        k(    5) = (   0.0000000  -0.5125170   0.0000000), wk =   0.0312500
        k(    6) = (   0.1250000   0.0000000   0.0000000), wk =   0.0625000
        k(    7) = (   0.1250000   0.1281293   0.0000000), wk =   0.1250000
        k(    8) = (   0.1250000   0.2562585   0.0000000), wk =   0.1250000
        k(    9) = (   0.1250000   0.3843878   0.0000000), wk =   0.1250000
        k(   10) = (   0.1250000  -0.5125170   0.0000000), wk =   0.0625000
        k(   11) = (   0.2500000   0.0000000   0.0000000), wk =   0.0625000
        k(   12) = (   0.2500000   0.1281293   0.0000000), wk =   0.1250000
        k(   13) = (   0.2500000   0.2562585   0.0000000), wk =   0.1250000
        k(   14) = (   0.2500000   0.3843878   0.0000000), wk =   0.1250000
        k(   15) = (   0.2500000  -0.5125170   0.0000000), wk =   0.0625000
        k(   16) = (   0.3750000   0.0000000   0.0000000), wk =   0.0625000
        k(   17) = (   0.3750000   0.1281293   0.0000000), wk =   0.1250000
        k(   18) = (   0.3750000   0.2562585   0.0000000), wk =   0.1250000
        k(   19) = (   0.3750000   0.3843878   0.0000000), wk =   0.1250000
        k(   20) = (   0.3750000  -0.5125170   0.0000000), wk =   0.0625000
        k(   21) = (  -0.5000000   0.0000000   0.0000000), wk =   0.0312500
        k(   22) = (  -0.5000000   0.1281293   0.0000000), wk =   0.0625000
        k(   23) = (  -0.5000000   0.2562585   0.0000000), wk =   0.0625000
        k(   24) = (  -0.5000000   0.3843878   0.0000000), wk =   0.0625000
        k(   25) = (  -0.5000000  -0.5125170   0.0000000), wk =   0.0312500

     Initial potential from superposition of free atoms

     starting charge  228.84827, renormalised to  229.00000

     negative rho (up, down):  8.978E-02 0.000E+00
     Starting wfcs are  201 randomized atomic wfcs

     Self-consistent Calculation

     iteration #  1     ecut=    60.00 Ry     beta= 0.20
     Davidson diagonalization with overlap
     ethr =  1.00E-02,  avg # of iterations =  2.0

     negative rho (up, down):  8.739E-02 0.000E+00

     total energy              =   -1869.44123693 Ry
     Harris-Foulkes estimate   =   -1871.01959306 Ry
     estimated scf accuracy    <      14.33097058 Ry

[...]

     iteration # 16     ecut=    60.00 Ry     beta= 0.20
     Davidson diagonalization with overlap
     c_bands:  1 eigenvalues not converged
     ethr =  4.63E-05,  avg # of iterations =  2.8

[...]

     iteration # 28     ecut=    60.00 Ry     beta= 0.20
     Davidson diagonalization with overlap
     c_bands:  1 eigenvalues not converged
     ethr =  7.60E-08,  avg # of iterations =  3.9

[...]

     total energy              =   -1868.47578927 Ry
     Harris-Foulkes estimate   =   -1868.47578958 Ry
     estimated scf accuracy    <       0.00000178 Ry

     iteration # 34     ecut=    60.00 Ry     beta= 0.20
     Davidson diagonalization with overlap
     ethr =  7.75E-10,  avg # of iterations =  1.8

[...]

     End of self-consistent calculation

          k = 0.0000 0.0000 0.0000 ( 35655 PWs)   bands (ev):

   -41.2063 -38.0348 -23.0534 -22.6916 -22.5547 -22.4088 -21.2888 -21.0892
   -21.0871 -18.5699 -18.0396 -18.0298 -16.2738 -15.3659 -15.3495 -14.5281
   -14.4058 -14.3888 -14.1751 -14.1514 -14.1392 -13.8899 -13.6730 -13.6417
   -13.6123 -13.3906 -13.1100  -8.3715  -7.9848  -7.9766  -7.9127  -7.8266
    -7.6839  -7.6572  -7.5405  -7.5086  -7.4897  -7.4318  -7.3994  -3.0376
    -3.0120  -2.5835  -1.9946  -1.9676  -1.9612  -1.8145  -1.7736  -1.7582
    -1.7065  -1.6407  -1.6297  -0.8969  -0.8115  -0.7887  -0.7628  -0.7463
    -0.4969  -0.4525  -0.3722  -0.3624  -0.3186  -0.2718  -0.2564  -0.0214
     0.0162   0.0529   0.0593   0.0893   0.0947   0.1988   0.2181   0.2307
     0.2455   0.3127   0.3692   0.3760   0.4828   0.4850   0.4868   0.5279
     0.5961   0.6177   0.6292   0.6313   0.6422   0.6535   0.6910   0.7297
     0.7475   0.7766   0.8000   0.9802   1.1572   1.1859   1.3171   1.3505
     1.3724   1.4293   1.4508   1.5237   1.5290   1.5726   1.5894   1.7527
     1.9705   2.0146   2.0711   2.1250   2.1314   2.1723   2.1805   2.2695
     2.3485   2.4516   2.4877   2.6111   2.6232   2.6679   2.7569   2.9173
     4.5795   5.1065   5.3578   5.5178   5.6987   5.7482   6.0956   6.6414
     6.6582   6.7650   6.9230   7.0220   7.1098   7.5109   7.9609   8.2313
     8.2612   8.2631

[...]

          k = 0.3750-0.5125 0.0000 ( 35878 PWs)   bands (ev):

[...]

          k =-0.5000 0.0000 0.0000 ( 35718 PWs)   bands (ev):

[...]

          k =-0.5000-0.5125 0.0000 ( 35908 PWs)   bands (ev):

   -41.1857 -38.0070 -22.8187 -22.4495 -22.3189 -22.1628 -21.3639 -21.3355
   -21.1198 -18.5891 -18.5629 -18.0886 -15.5672 -15.5380 -14.4231 -14.4072
   -14.1671 -14.1508 -14.0020 -13.9062 -13.9041 -13.8522 -13.6234 -13.5903
   -13.5549 -13.5186 -13.4312  -8.9507  -8.6685  -8.6435  -8.4607  -8.4142
    -8.3875  -8.3544  -8.1311  -8.1085  -7.8912  -7.8005  -7.5120  -4.8496
    -4.1064  -3.5239  -3.2087  -3.0986  -2.9932  -2.8045  -2.6417  -2.6149
    -2.4317  -2.2513  -2.1296  -1.9917  -1.9468  -1.7590  -1.7341  -1.7249
    -1.6914  -1.6849  -1.3541  -1.1863  -0.9392  -0.8574  -0.8395  -0.6958
    -0.6782  -0.6565  -0.5783  -0.4991  -0.4417  -0.4197  -0.3922  -0.3570
    -0.2366   0.2219   0.2451   0.2483   0.4710   0.7340   0.8406   0.9190
     1.0671   1.0960   1.1640   1.3116   1.4944   1.5013   1.5474   1.5994
     1.6509   1.6547   1.6811   1.8642   1.9153   1.9323   2.0057   2.0392
     2.0651   2.1076   2.1187   2.1292   2.1437   2.2865   2.2923   2.3424
     2.3477   2.5375   2.6334   2.6474   2.6804   2.7550   2.7822   3.0876
     3.1511   3.3664   3.5952   4.2343   4.5116   4.5808   4.6030   4.8586
     4.9452   5.1415   5.1951   5.7373   5.8911   6.0301   6.7206   7.2594
     8.2076   8.3958   8.4929   8.7987   8.8058   8.8493   9.2449   9.2870
     9.3791   9.5980

     the Fermi energy is     3.0530 ev

!    total energy              =   -1868.47578889 Ry
     Harris-Foulkes estimate   =   -1868.47578936 Ry
     estimated scf accuracy    <       0.00000054 Ry

     The total energy is the sum of the following terms:

     one-electron contribution =  -30734.91968510 Ry
     hartree contribution      =   15520.56390504 Ry
     xc contribution           =    -641.86604362 Ry
     ewald contribution        =   13987.75516239 Ry
     smearing contrib. (-TS)   =      -0.00912760 Ry

     convergence has been achieved in  34 iterations

     negative rho (up, down):  8.970E-02 0.000E+00

     Forces acting on atoms (cartesian axes, Ry/au):

     atom    1 type  3   force =     0.00000000    0.00000000   -0.00020030
     atom    2 type  2   force =     0.00000000    0.00000000   -0.00050874
     atom    3 type  3   force =     0.00000000    0.00000000    0.00001391
     atom    4 type  1   force =     0.00000000    0.00000000   -0.00018451
     atom    5 type  2   force =     0.00000000    0.00000000    0.00122644
     atom    6 type  3   force =     0.00000000    0.00000000    0.00040382
     atom    7 type  3   force =     0.00000000    0.00000000    0.00016027
     atom    8 type  4   force =     0.00000000    0.00000000   -0.00086179
     atom    9 type  3   force =     0.00000000    0.00000000    0.00088414
     atom   10 type  3   force =     0.00000000    0.00000000    0.00116784
     atom   11 type  2   force =     0.00000000    0.00000000   -0.00157994
     atom   12 type  1   force =     0.00000000    0.00000000   -0.00202739
     atom   13 type  3   force =     0.00000000    0.00000000    0.00262168
     atom   14 type  3   force =     0.00000000    0.00000000    0.00653954
     atom   15 type  2   force =     0.00000000    0.00000000   -0.01253044
     atom   16 type  3   force =     0.00000000    0.00000000    0.02257351
     atom   17 type  1   force =     0.00000000    0.00000000   -0.02632710
     atom   18 type  2   force =     0.00000000    0.00000000    0.00274540
     atom   19 type  3   force =     0.00000000    0.00000000    0.07276305
     atom   20 type  3   force =     0.00000000    0.00000000    0.07426800
     atom   21 type  4   force =     0.00000000    0.00000000   -0.07996508
     atom   22 type  3   force =     0.00000000    0.00000000   -0.00577230
     atom   23 type  3   force =     0.00000000    0.00000000   -0.00045873
     atom   24 type  2   force =     0.00000000    0.00000000   -0.02369378
     atom   25 type  1   force =     0.00000000    0.00000000   -0.03027326
     atom   26 type  3   force =     0.00000000    0.00000000   -0.00148220
     atom   27 type  2   force =     0.00000000    0.00000000   -0.00262624
     atom   28 type  3   force =     0.00000000    0.00000000    0.00312417

     Total force =     0.141997     Total SCF correction =     0.003495

     Computing stress (Cartesian axis) and pressure

     negative rho (up, down):  8.970E-02 0.000E+00
          total   stress  (Ry/bohr**3)                   (kbar)     P=      -11.63
  -0.00003354   0.00000000   0.00000000           -4.93        0.00        0.00
   0.00000000  -0.00001315   0.00000000            0.00       -1.93        0.00
   0.00000000   0.00000000  -0.00019059            0.00        0.00      -28.04

     General routines

     Parallel routines

   This run was terminated on:  17:33:47   5May2021

   JOB DONE.
[1620250427.852283] [holy7c08112:24735:0]          mpool.c:43   UCX  WARN  object 0x2d49640 was not returned to mpool ucp_requests
[1620250427.852301] [holy7c08112:24735:0]          mpool.c:43   UCX  WARN  object 0x2d49800 was not returned to mpool ucp_requests
[1620250427.852175] [holy7c08106:107509:0]          mpool.c:43   UCX  WARN  object 0x3b9be80 was not returned to mpool ucp_requests
[1620250427.852196] [holy7c08106:107509:0]          mpool.c:43   UCX  WARN  object 0x3b9c040 was not returned to mpool ucp_requests
[1620250427.853260] [holy7c08411:16705:0]          mpool.c:43   UCX  WARN  object 0x287c740 was not returned to mpool ucp_requests
[1620250427.854253] [holy7c08108:215502:0]          mpool.c:43   UCX  WARN  object 0x28e1640 was not returned to mpool ucp_requests
[1620250427.857781] [holy7c08408:131477:0]          mpool.c:43   UCX  WARN  object 0x327ca40 was not returned to mpool ucp_requests
[1620250427.859135] [holy7c08412:253071:0]          mpool.c:43   UCX  WARN  object 0x2cac040 was not returned to mpool ucp_requests
[1620250427.860292] [holy7c08411:16704:0]          mpool.c:43   UCX  WARN  object 0x2bc89c0 was not returned to mpool ucp_requests
[1620250427.860310] [holy7c08411:16704:0]          mpool.c:43   UCX  WARN  object 0x2bc8d40 was not returned to mpool ucp_requests