     Program PWSCF v.6.5 starts on  5May2021 at 17:15:13

     R & G space division:  proc/nbgrp/npool/nimage =      20
     Reading input from YBCO_CuO_cleave_0.5_sep_scf.pwi
Warning: card &IONS ignored
Warning: card     ION_DYNAMICS = 'BFGS' ignored
Warning: card / ignored
Warning: card &CELL ignored
Warning: card     CELL_DYNAMICS = 'BFGS' ignored
Warning: card / ignored

     Current dimensions of program PWSCF are:
     Max number of different atomic species (ntypx) = 10
     Max number of k-points (npk) =  40000
     Max angular momentum in pseudopotentials (lmaxx) =  3

     Message from routine setup:
     using ibrav=0 with symmetry is DISCOURAGED, use correct ibrav instead

     bravais-lattice index     =            0
     lattice parameter (alat)  =       7.3477  a.u.
     unit-cell volume          =    4406.5316 (a.u.)^3
     number of atoms/cell      =           28
     number of atomic types    =            4
     number of electrons       =       229.00
     number of Kohn-Sham states=          138
     kinetic-energy cutoff     =      60.0000  Ry
     charge density cutoff     =     720.0000  Ry
     convergence threshold     =      1.0E-06
     mixing beta               =       0.2000
     number of iterations used =           10  local-TF  mixing
     Exchange-correlation= SLA PW PBE PBE
                           (   1   4   3   4   0   0   0)

     celldm(1)=   7.347715  celldm(2)=   0.000000  celldm(3)=   0.000000
     celldm(4)=   0.000000  celldm(5)=   0.000000  celldm(6)=   0.000000

     crystal axes: (cart. coord. in units of alat)
               a(1) = (   1.000000   0.000000   0.000000 )
               a(2) = (   0.000000   0.975577   0.000000 )
               a(3) = (   0.000000   0.000000  11.386186 )

     reciprocal axes: (cart. coord. in units 2 pi/alat)
               b(1) = (  1.000000  0.000000  0.000000 )
               b(2) = (  0.000000  1.025034  0.000000 )
               b(3) = (  0.000000  0.000000  0.087826 )

     PseudoPot. # 1 for Ba read from file:
     /n/holyscratch01/hoffman_lab/ruizhe/YBCO_Project/pseudo/Ba.pbe-nsp-van.UPF
     MD5 check sum: 2b9c31dd849566dd297d80989662b7a0
     Pseudo is Ultrasoft + core correction, Zval = 10.0
     Generated by new atomic code, or converted to UPF format
     Using radial grid of  907 points,  6 beta functions with:
                l(1) =   0
                l(2) =   0
                l(3) =   1
                l(4) =   1
                l(5) =   2
                l(6) =   2
     Q(r) pseudized with  6 coefficients,  rinner =    1.200   1.200   1.200
                                                       1.200   1.200

     PseudoPot. # 2 for Cu read from file:
     /n/holyscratch01/hoffman_lab/ruizhe/YBCO_Project/pseudo/Cu.pbe-n-van_ak.UPF
     MD5 check sum: 34e3282627ffb533726feb647e090d62
     Pseudo is Ultrasoft + core correction, Zval = 11.0
     Generated by new atomic code, or converted to UPF format
     Using radial grid of  867 points,  6 beta functions with:
                l(1) =   0
                l(2) =   0
                l(3) =   1
                l(4) =   1
                l(5) =   2
                l(6) =   2
     Q(r) pseudized with  8 coefficients,  rinner =    1.400   1.400   1.400
                                                       1.400   1.400

     PseudoPot. # 3 for O  read from file:
     /n/holyscratch01/hoffman_lab/ruizhe/YBCO_Project/pseudo/O.pbe-van_ak.UPF
     MD5 check sum: 783ce7fe4c79b6a4916957118fed0856
     Pseudo is Ultrasoft, Zval =  6.0
     Generated by new atomic code, or converted to UPF format
     Using radial grid of  737 points,  4 beta functions with:
                l(1) =   0
                l(2) =   0
                l(3) =   1
                l(4) =   1
     Q(r) pseudized with  8 coefficients,  rinner =    0.800   0.800   0.800

     PseudoPot. # 4 for Y  read from file:
     /n/holyscratch01/hoffman_lab/ruizhe/YBCO_Project/pseudo/Y.pbe-nsp-van.UPF
     MD5 check sum: 4412fed3ab108fed87a1b7d6a69a4a38
     Pseudo is Ultrasoft + core correction, Zval = 11.0
     Generated by new atomic code, or converted to UPF format
     Using radial grid of  885 points,  6 beta functions with:
                l(1) =   0
                l(2) =   0
                l(3) =   1
                l(4) =   1
                l(5) =   2
                l(6) =   2
     Q(r) pseudized with  6 coefficients,  rinner =    1.200   1.200   1.200
                                                       1.200   1.200

     atomic species   valence    mass     pseudopotential
        Ba            10.00   137.32700     Ba( 1.00)
        Cu            11.00    63.54600     Cu( 1.00)
        O              6.00    15.99900     O ( 1.00)
        Y             11.00    88.90584     Y ( 1.00)

      4 Sym. Ops. (no inversion) found

   Cartesian axes

     site n.     atom                  positions (alat units)
         1           O   tau(   1) = (   0.0000000   0.4877884  -0.0257983  )
         2           Cu  tau(   2) = (   0.0000000   0.0000000   0.0215779  )
         3           O   tau(   3) = (   0.0000000   0.0000000   0.5073114  )
         4           Ba  tau(   4) = (   0.4999996   0.4877884   0.5319677  )
         5           Cu  tau(   5) = (   0.0000000   0.0000000   1.0495845  )
         6           O   tau(   6) = (   0.4999996   0.0000000   1.1181579  )
         7           O   tau(   7) = (   0.0000000   0.4877884   1.1273137  )
         8           Y   tau(   8) = (   0.4999996   0.4877884   1.4938777  )
         9           O   tau(   9) = (   0.0000000   0.4877884   1.8497402  )
        10           O   tau(  10) = (   0.4999996   0.0000000   1.8692709  )
        11           Cu  tau(  11) = (   0.0000000   0.0000000   1.9417560  )
        12           Ba  tau(  12) = (   0.4999996   0.4877884   2.4526063  )
        13           O   tau(  13) = (   0.0000000   0.0000000   2.5103470  )
        14           O   tau(  14) = (   0.0000000   0.4877884   2.9968469  )
        15           Cu  tau(  15) = (   0.0000000   0.0000000   2.9968521  )
        16           O   tau(  16) = (   0.0000000   0.0000000   3.6119216  )
        17           Ba  tau(  17) = (   0.4999996   0.4877884   3.6696546  )
        18           Cu  tau(  18) = (   0.0000000   0.0000000   4.1805280  )
        19           O   tau(  19) = (   0.4999996   0.0000000   4.2530003  )
        20           O   tau(  20) = (   0.0000000   0.4877884   4.2725130  )
        21           Y   tau(  21) = (   0.4999996   0.4877884   4.6283780  )
        22           O   tau(  22) = (   0.0000000   0.4877884   4.9949420  )
        23           O   tau(  23) = (   0.4999996   0.0000000   5.0041107  )
        24           Cu  tau(  24) = (   0.0000000   0.0000000   5.0726892  )
        25           Ba  tau(  25) = (   0.4999996   0.4877884   5.5902906  )
        26           O   tau(  26) = (   0.0000000   0.0000000   5.6149469  )
        27           Cu  tau(  27) = (   0.0000000   0.0000000   6.1006521  )
        28           O   tau(  28) = (   0.0000000   0.4877884   6.1480334  )

     number of k points=    25  Gaussian smearing, width (Ry)=  0.0100
                       cart. coord. in units 2pi/alat
        k(    1) = (   0.0000000   0.0000000   0.0000000), wk =   0.0312500
        k(    2) = (   0.0000000   0.1281293   0.0000000), wk =   0.0625000
        k(    3) = (   0.0000000   0.2562585   0.0000000), wk =   0.0625000
        k(    4) = (   0.0000000   0.3843878   0.0000000), wk =   0.0625000
        k(    5) = (   0.0000000  -0.5125170   0.0000000), wk =   0.0312500
        k(    6) = (   0.1250000   0.0000000   0.0000000), wk =   0.0625000
        k(    7) = (   0.1250000   0.1281293   0.0000000), wk =   0.1250000
        k(    8) = (   0.1250000   0.2562585   0.0000000), wk =   0.1250000
        k(    9) = (   0.1250000   0.3843878   0.0000000), wk =   0.1250000
        k(   10) = (   0.1250000  -0.5125170   0.0000000), wk =   0.0625000
        k(   11) = (   0.2500000   0.0000000   0.0000000), wk =   0.0625000
        k(   12) = (   0.2500000   0.1281293   0.0000000), wk =   0.1250000
        k(   13) = (   0.2500000   0.2562585   0.0000000), wk =   0.1250000
        k(   14) = (   0.2500000   0.3843878   0.0000000), wk =   0.1250000
        k(   15) = (   0.2500000  -0.5125170   0.0000000), wk =   0.0625000
        k(   16) = (   0.3750000   0.0000000   0.0000000), wk =   0.0625000
        k(   17) = (   0.3750000   0.1281293   0.0000000), wk =   0.1250000
        k(   18) = (   0.3750000   0.2562585   0.0000000), wk =   0.1250000
        k(   19) = (   0.3750000   0.3843878   0.0000000), wk =   0.1250000
        k(   20) = (   0.3750000  -0.5125170   0.0000000), wk =   0.0625000
        k(   21) = (  -0.5000000   0.0000000   0.0000000), wk =   0.0312500
        k(   22) = (  -0.5000000   0.1281293   0.0000000), wk =   0.0625000
        k(   23) = (  -0.5000000   0.2562585   0.0000000), wk =   0.0625000
        k(   24) = (  -0.5000000   0.3843878   0.0000000), wk =   0.0625000
        k(   25) = (  -0.5000000  -0.5125170   0.0000000), wk =   0.0312500

     Initial potential from superposition of free atoms

     starting charge  228.84827, renormalised to  229.00000

     negative rho (up, down):  8.961E-02 0.000E+00
     Starting wfcs are  201 randomized atomic wfcs

     Self-consistent Calculation

     iteration #  1     ecut=    60.00 Ry     beta= 0.20
     Davidson diagonalization with overlap
     ethr =  1.00E-02,  avg # of iterations =  2.0

     negative rho (up, down):  8.743E-02 0.000E+00

     total energy              =   -1869.52404731 Ry
     Harris-Foulkes estimate   =   -1871.06237086 Ry
     estimated scf accuracy    <      13.00103377 Ry

[...]

     iteration # 24     ecut=    60.00 Ry     beta= 0.20
     Davidson diagonalization with overlap
     c_bands:  1 eigenvalues not converged
     c_bands:  1 eigenvalues not converged
     ethr =  7.34E-08,  avg # of iterations =  7.0

[...]

     iteration # 27     ecut=    60.00 Ry     beta= 0.20
     Davidson diagonalization with overlap
     c_bands:  1 eigenvalues not converged
     ethr =  7.32E-09,  avg # of iterations =  4.7

[...]

     total energy              =   -1868.80681736 Ry
     Harris-Foulkes estimate   =   -1868.80681745 Ry
     estimated scf accuracy    <       0.00000129 Ry

     iteration # 30     ecut=    60.00 Ry     beta= 0.20
     Davidson diagonalization with overlap
     ethr =  5.63E-10,  avg # of iterations =  2.0

[...]

     End of self-consistent calculation

          k = 0.0000 0.0000 0.0000 ( 34453 PWs)   bands (ev):

   -37.9849 -37.9548 -22.6381 -22.6346 -22.4052 -22.3295 -18.5190 -18.4915
   -17.9903 -17.9802 -17.9609 -17.9490 -15.3140 -15.2914 -14.3563 -14.3315
   -14.1206 -14.1193 -14.1004 -14.0784 -13.9938 -13.8382 -13.8141 -13.6187
   -13.6164 -13.2818 -12.4963  -7.8577  -7.8536  -7.6728  -7.6303  -7.6270
    -7.6243  -7.6036  -7.6005  -7.3693  -7.3517  -7.2349  -7.1914  -1.9438
    -1.9213  -1.9120  -1.8911  -1.7699  -1.7472  -1.7200  -1.7163  -1.6590
    -1.6418  -1.5799  -1.5564  -1.3544  -0.7468  -0.7200  -0.3182  -0.3147
    -0.2784  -0.0484   0.0401   0.0704   0.0719   0.0944   0.1070   0.1076
     0.2366   0.2704   0.2718   0.2842   0.3489   0.3523   0.4172   0.4191
     0.4297   0.4371   0.5365   0.5401   0.5410   0.5458   0.6388   0.6620
     0.6696   0.6789   0.6855   0.6865   0.6881   0.7084   0.8013   0.8060
     1.2380   1.2533   1.2739   1.3238   1.3710   1.3783   1.3860   1.4453
     1.4536   1.5055   1.5258   1.6151   1.6293   1.6358   1.6378   1.6415
     1.6631   2.0798   2.1004   2.1245   2.1263   2.2646   2.3238   2.3254
     2.5028   2.6315   2.6407   2.7128   2.7144   2.8154   2.8568   5.3996
     5.4285   5.7546   6.0421   6.2795   6.8180   6.8255   7.1618   7.2524
     7.5754   7.7240   8.2958   8.3109   8.3390   8.4869   8.7023   8.8267
     8.8493   9.1969

[...]

          k = 0.3750-0.5125 0.0000 ( 34698 PWs)   bands (ev):

[...]

          k =-0.5000 0.0000 0.0000 ( 34574 PWs)   bands (ev):

[...]

          k =-0.5000-0.5125 0.0000 ( 34692 PWs)   bands (ev):

   -37.9571 -37.9270 -22.3961 -22.3926 -22.1676 -22.1104 -18.5394 -18.5139
   -18.5088 -18.4859 -18.0379 -18.0095 -14.3726 -14.3554 -14.3543 -14.3270
   -14.1139 -14.1119 -13.8592 -13.8389 -13.7994 -13.7693 -13.6367 -13.5010
   -13.4970 -13.4618 -12.6303  -8.5900  -8.5868  -8.3256  -8.3008  -8.2975
    -8.1290  -8.0501  -7.9180  -7.8367  -7.8321  -7.6746  -7.5423  -4.0569
    -4.0271  -3.4716  -3.4296  -2.6590  -2.5876  -2.5845  -2.3769  -2.3481
    -2.1989  -2.1936  -2.0860  -2.0678  -1.7057  -1.7047  -1.6686  -1.6328
    -1.3391  -0.9242  -0.8916  -0.7892  -0.7693  -0.7204  -0.6023  -0.5870
    -0.5307  -0.4841  -0.4531  -0.4506  -0.4113  -0.3656  -0.3626  -0.0195
     0.2761   0.2777   0.3366   0.6367   0.8274   1.0419   1.2713   1.3026
     1.5463   1.5651   1.6462   1.6478   1.6511   1.6640   1.6678   1.6988
     1.7071   1.8020   1.8668   1.9318   1.9529   1.9868   2.0000   2.0236
     2.1704   2.1790   2.1808   2.1868   2.1966   2.1979   2.3559   2.4960
     2.7010   2.7048   2.7218   2.7642   2.8091   2.8123   2.8645   3.0268
     3.1317   3.1631   4.0231   4.8986   4.9087   4.9949   5.0009   5.7619
     5.9450   5.9478   6.7381   6.8173   8.5306   8.5582   8.5687   8.7024
     8.9041   9.1530   9.3285   9.3788   9.4668   9.5463   9.6522   9.6969
     9.7302  10.2221

     the Fermi energy is     3.1063 ev

!    total energy              =   -1868.80681669 Ry
     Harris-Foulkes estimate   =   -1868.80681741 Ry
     estimated scf accuracy    <       0.00000070 Ry

     The total energy is the sum of the following terms:

     one-electron contribution =  -31434.35765345 Ry
     hartree contribution      =   15872.94949213 Ry
     xc contribution           =    -642.27361609 Ry
     ewald contribution        =   14334.88422101 Ry
     smearing contrib. (-TS)   =      -0.00926028 Ry

     convergence has been achieved in  30 iterations

     negative rho (up, down):  9.064E-02 0.000E+00

     Forces acting on atoms (cartesian axes, Ry/au):

     atom    1 type  3   force =     0.00000000    0.00000000   -0.00010639
     atom    2 type  2   force =     0.00000000    0.00000000   -0.00008073
     atom    3 type  3   force =     0.00000000    0.00000000    0.00014060
     atom    4 type  1   force =     0.00000000    0.00000000   -0.00016021
     atom    5 type  2   force =     0.00000000    0.00000000    0.00035475
     atom    6 type  3   force =     0.00000000    0.00000000    0.00053362
     atom    7 type  3   force =     0.00000000    0.00000000    0.00042088
     atom    8 type  4   force =     0.00000000    0.00000000   -0.00089148
     atom    9 type  3   force =     0.00000000    0.00000000    0.00124243
     atom   10 type  3   force =     0.00000000    0.00000000    0.00104507
     atom   11 type  2   force =     0.00000000    0.00000000   -0.00070533
     atom   12 type  1   force =     0.00000000    0.00000000    0.01169612
     atom   13 type  3   force =     0.00000000    0.00000000   -0.00684937
     atom   14 type  3   force =     0.00000000    0.00000000    0.01297815
     atom   15 type  2   force =     0.00000000    0.00000000    0.03848179
     atom   16 type  3   force =     0.00000000    0.00000000   -0.03029762
     atom   17 type  1   force =     0.00000000    0.00000000   -0.02038781
     atom   18 type  2   force =     0.00000000    0.00000000   -0.01096054
     atom   19 type  3   force =     0.00000000    0.00000000    0.00347911
     atom   20 type  3   force =     0.00000000    0.00000000    0.00154575
     atom   21 type  4   force =     0.00000000    0.00000000   -0.00061045
     atom   22 type  3   force =     0.00000000    0.00000000   -0.00006043
     atom   23 type  3   force =     0.00000000    0.00000000    0.00028766
     atom   24 type  2   force =     0.00000000    0.00000000   -0.00083157
     atom   25 type  1   force =     0.00000000    0.00000000    0.00002849
     atom   26 type  3   force =     0.00000000    0.00000000   -0.00069427
     atom   27 type  2   force =     0.00000000    0.00000000    0.00032039
     atom   28 type  3   force =     0.00000000    0.00000000    0.00008136

     Total force =     0.057511     Total SCF correction =     0.003447

     Computing stress (Cartesian axis) and pressure

     negative rho (up, down):  9.064E-02 0.000E+00
          total   stress  (Ry/bohr**3)                   (kbar)     P=       -6.00
  -0.00000052   0.00000000   0.00000000           -0.08        0.00        0.00
   0.00000000  -0.00004874   0.00000000            0.00       -7.17        0.00
   0.00000000   0.00000000  -0.00007306            0.00        0.00      -10.75

     General routines

     Parallel routines

   This run was terminated on:  17:42:24   5May2021

   JOB DONE.
[1620250945.460915] [holy7c04406:105483:0]          mpool.c:43   UCX  WARN  object 0x3b11480 was not returned to mpool ucp_requests
[1620250945.460928] [holy7c04406:105483:0]          mpool.c:43   UCX  WARN  object 0x3b11800 was not returned to mpool ucp_requests
[1620250945.470056] [holy7c06511:44597:0]          mpool.c:43   UCX  WARN  object 0x34582c0 was not returned to mpool ucp_requests
[1620250945.470099] [holy7c06511:44597:0]          mpool.c:43   UCX  WARN  object 0x3458480 was not returned to mpool ucp_requests
[1620250945.472253] [holy7c06511:44599:0]          mpool.c:43   UCX  WARN  object 0x3434b00 was not returned to mpool ucp_requests
[1620250945.478898] [holy7c06502:52221:0]          mpool.c:43   UCX  WARN  object 0x2912140 was not returned to mpool ucp_requests
[1620250945.480825] [holy7c06502:52225:0]          mpool.c:43   UCX  WARN  object 0x2abf900 was not returned to mpool ucp_requests
[1620250945.480848] [holy7c06502:52225:0]          mpool.c:43   UCX  WARN  object 0x2ac01c0 was not returned to mpool ucp_requests
[1620250945.483938] [holy7c06511:44598:0]          mpool.c:43   UCX  WARN  object 0x4567640 was not returned to mpool ucp_requests