     Program PWSCF v.6.5 starts on  5May2021 at 17:10:44

     R & G space division:  proc/nbgrp/npool/nimage =      20
     Reading input from YBCO_BaO_cleave_3.0_sep_scf.pwi
Warning: card &IONS ignored
Warning: card     ION_DYNAMICS = 'BFGS' ignored
Warning: card / ignored
Warning: card &CELL ignored
Warning: card     CELL_DYNAMICS = 'BFGS' ignored
Warning: card / ignored

     Current dimensions of program PWSCF are:
     Max number of different atomic species (ntypx) = 10
     Max number of k-points (npk) =  40000
     Max angular momentum in pseudopotentials (lmaxx) =  3

     Message from routine setup:
     using ibrav=0 with symmetry is DISCOURAGED, use correct ibrav instead

     bravais-lattice index     =            0
     lattice parameter (alat)  =       7.3477  a.u.
     unit-cell volume          =    4655.3630 (a.u.)^3
     number of atoms/cell      =           28
     number of atomic types    =            4
     number of electrons       =       229.00
     number of Kohn-Sham states=          138
     kinetic-energy cutoff     =      60.0000  Ry
     charge density cutoff     =     720.0000  Ry
     convergence threshold     =      1.0E-06
     mixing beta               =       0.2000
     number of iterations used =           10  local-TF  mixing
     Exchange-correlation= SLA PW PBE PBE
                           (   1   4   3   4   0   0   0)

     celldm(1)=   7.347715  celldm(2)=   0.000000  celldm(3)=   0.000000
     celldm(4)=   0.000000  celldm(5)=   0.000000  celldm(6)=   0.000000

     crystal axes: (cart. coord. in units of alat)
               a(1) = (   1.000000   0.000000   0.000000 )
               a(2) = (   0.000000   0.975577   0.000000 )
               a(3) = (   0.000000   0.000000  12.029150 )

     reciprocal axes: (cart. coord. in units 2 pi/alat)
               b(1) = (  1.000000  0.000000  0.000000 )
               b(2) = (  0.000000  1.025034  0.000000 )
               b(3) = (  0.000000  0.000000  0.083131 )

     PseudoPot. # 1 for Ba read from file:
     /n/holyscratch01/hoffman_lab/ruizhe/YBCO_Project/pseudo/Ba.pbe-nsp-van.UPF
     MD5 check sum: 2b9c31dd849566dd297d80989662b7a0
     Pseudo is Ultrasoft + core correction, Zval = 10.0
     Generated by new atomic code, or converted to UPF format
     Using radial grid of  907 points,  6 beta functions with:
                l(1) =   0
                l(2) =   0
                l(3) =   1
                l(4) =   1
                l(5) =   2
                l(6) =   2
     Q(r) pseudized with  6 coefficients,  rinner =    1.200   1.200   1.200
                                                       1.200   1.200

     PseudoPot. # 2 for Cu read from file:
     /n/holyscratch01/hoffman_lab/ruizhe/YBCO_Project/pseudo/Cu.pbe-n-van_ak.UPF
     MD5 check sum: 34e3282627ffb533726feb647e090d62
     Pseudo is Ultrasoft + core correction, Zval = 11.0
     Generated by new atomic code, or converted to UPF format
     Using radial grid of  867 points,  6 beta functions with:
                l(1) =   0
                l(2) =   0
                l(3) =   1
                l(4) =   1
                l(5) =   2
                l(6) =   2
     Q(r) pseudized with  8 coefficients,  rinner =    1.400   1.400   1.400
                                                       1.400   1.400

     PseudoPot. # 3 for O  read from file:
     /n/holyscratch01/hoffman_lab/ruizhe/YBCO_Project/pseudo/O.pbe-van_ak.UPF
     MD5 check sum: 783ce7fe4c79b6a4916957118fed0856
     Pseudo is Ultrasoft, Zval =  6.0
     Generated by new atomic code, or converted to UPF format
     Using radial grid of  737 points,  4 beta functions with:
                l(1) =   0
                l(2) =   0
                l(3) =   1
                l(4) =   1
     Q(r) pseudized with  8 coefficients,  rinner =    0.800   0.800   0.800

     PseudoPot. # 4 for Y  read from file:
     /n/holyscratch01/hoffman_lab/ruizhe/YBCO_Project/pseudo/Y.pbe-nsp-van.UPF
     MD5 check sum: 4412fed3ab108fed87a1b7d6a69a4a38
     Pseudo is Ultrasoft + core correction, Zval = 11.0
     Generated by new atomic code, or converted to UPF format
     Using radial grid of  885 points,  6 beta functions with:
                l(1) =   0
                l(2) =   0
                l(3) =   1
                l(4) =   1
                l(5) =   2
                l(6) =   2
     Q(r) pseudized with  6 coefficients,  rinner =    1.200   1.200   1.200
                                                       1.200   1.200

     atomic species   valence    mass     pseudopotential
        Ba            10.00   137.32700     Ba( 1.00)
        Cu            11.00    63.54600     Cu( 1.00)
        O              6.00    15.99900     O ( 1.00)
        Y             11.00    88.90584     Y ( 1.00)

      4 Sym. Ops. (no inversion) found

   Cartesian axes

     site n.     atom                  positions (alat units)
         1           O   tau(   1) = (   0.0000000   0.4877884  -0.0257983  )
         2           Cu  tau(   2) = (   0.0000000   0.0000000   0.0215779  )
         3           O   tau(   3) = (   0.0000000   0.0000000   0.5073114  )
         4           Ba  tau(   4) = (   0.4999996   0.4877884   0.5319677  )
         5           Cu  tau(   5) = (   0.0000000   0.0000000   1.0495845  )
         6           O   tau(   6) = (   0.4999996   0.0000000   1.1181579  )
         7           O   tau(   7) = (   0.0000000   0.4877884   1.1273137  )
         8           Y   tau(   8) = (   0.4999996   0.4877884   1.4938777  )
         9           O   tau(   9) = (   0.0000000   0.4877884   1.8497402  )
        10           O   tau(  10) = (   0.4999996   0.0000000   1.8692709  )
        11           Cu  tau(  11) = (   0.0000000   0.0000000   1.9417560  )
        12           Ba  tau(  12) = (   0.4999996   0.4877884   2.4526063  )
        13           O   tau(  13) = (   0.0000000   0.0000000   2.5103470  )
        14           O   tau(  14) = (   0.0000000   0.4877884   2.9968469  )
        15           Cu  tau(  15) = (   0.0000000   0.0000000   2.9968521  )
        16           O   tau(  16) = (   0.0000000   0.0000000   3.4833288  )
        17           Ba  tau(  17) = (   0.4999996   0.4877884   3.5410618  )
        18           Cu  tau(  18) = (   0.0000000   0.0000000   4.8234918  )
        19           O   tau(  19) = (   0.4999996   0.0000000   4.8959642  )
        20           O   tau(  20) = (   0.0000000   0.4877884   4.9154768  )
        21           Y   tau(  21) = (   0.4999996   0.4877884   5.2713419  )
        22           O   tau(  22) = (   0.0000000   0.4877884   5.6379059  )
        23           O   tau(  23) = (   0.4999996   0.0000000   5.6470746  )
        24           Cu  tau(  24) = (   0.0000000   0.0000000   5.7156531  )
        25           Ba  tau(  25) = (   0.4999996   0.4877884   6.2332544  )
        26           O   tau(  26) = (   0.0000000   0.0000000   6.2579108  )
        27           Cu  tau(  27) = (   0.0000000   0.0000000   6.7436160  )
        28           O   tau(  28) = (   0.0000000   0.4877884   6.7909973  )

     number of k points=    25  Gaussian smearing, width (Ry)=  0.0100
                       cart. coord. in units 2pi/alat
        k(    1) = (   0.0000000   0.0000000   0.0000000), wk =   0.0312500
        k(    2) = (   0.0000000   0.1281293   0.0000000), wk =   0.0625000
        k(    3) = (   0.0000000   0.2562585   0.0000000), wk =   0.0625000
        k(    4) = (   0.0000000   0.3843878   0.0000000), wk =   0.0625000
        k(    5) = (   0.0000000  -0.5125170   0.0000000), wk =   0.0312500
        k(    6) = (   0.1250000   0.0000000   0.0000000), wk =   0.0625000
        k(    7) = (   0.1250000   0.1281293   0.0000000), wk =   0.1250000
        k(    8) = (   0.1250000   0.2562585   0.0000000), wk =   0.1250000
        k(    9) = (   0.1250000   0.3843878   0.0000000), wk =   0.1250000
        k(   10) = (   0.1250000  -0.5125170   0.0000000), wk =   0.0625000
        k(   11) = (   0.2500000   0.0000000   0.0000000), wk =   0.0625000
        k(   12) = (   0.2500000   0.1281293   0.0000000), wk =   0.1250000
        k(   13) = (   0.2500000   0.2562585   0.0000000), wk =   0.1250000
        k(   14) = (   0.2500000   0.3843878   0.0000000), wk =   0.1250000
        k(   15) = (   0.2500000  -0.5125170   0.0000000), wk =   0.0625000
        k(   16) = (   0.3750000   0.0000000   0.0000000), wk =   0.0625000
        k(   17) = (   0.3750000   0.1281293   0.0000000), wk =   0.1250000
        k(   18) = (   0.3750000   0.2562585   0.0000000), wk =   0.1250000
        k(   19) = (   0.3750000   0.3843878   0.0000000), wk =   0.1250000
        k(   20) = (   0.3750000  -0.5125170   0.0000000), wk =   0.0625000
        k(   21) = (  -0.5000000   0.0000000   0.0000000), wk =   0.0312500
        k(   22) = (  -0.5000000   0.1281293   0.0000000), wk =   0.0625000
        k(   23) = (  -0.5000000   0.2562585   0.0000000), wk =   0.0625000
        k(   24) = (  -0.5000000   0.3843878   0.0000000), wk =   0.0625000
        k(   25) = (  -0.5000000  -0.5125170   0.0000000), wk =   0.0312500

     Initial potential from superposition of free atoms

     starting charge  228.84827, renormalised to  229.00000

     negative rho (up, down):  8.964E-02 0.000E+00
     Starting wfcs are  201 randomized atomic wfcs

     Self-consistent Calculation

     iteration #  1     ecut=    60.00 Ry     beta= 0.20
     Davidson diagonalization with overlap
     ethr =  1.00E-02,  avg # of iterations =  2.0

     negative rho (up, down):  8.753E-02 0.000E+00

     total energy              =   -1869.58107789 Ry
     Harris-Foulkes estimate   =   -1871.18840387 Ry
     estimated scf accuracy    <      14.84130375 Ry

[...]

     total energy              =   -1868.77938231 Ry
     Harris-Foulkes estimate   =   -1868.77938248 Ry
     estimated scf accuracy    <       0.00000112 Ry

     iteration # 38     ecut=    60.00 Ry     beta= 0.20
     Davidson diagonalization with overlap
     ethr =  4.89E-10,  avg # of iterations =  2.0

[...]

     End of self-consistent calculation

          k = 0.0000 0.0000 0.0000 ( 36431 PWs)   bands (ev):

   -38.2718 -37.9568 -24.0023 -22.9260 -22.8996 -22.8155 -18.8067 -18.4617
   -18.2762 -18.2667 -17.9793 -17.9627 -15.6021 -15.3403 -14.8517 -14.6425
   -14.4256 -14.4107 -14.3874 -14.2558 -14.2214 -14.1260 -13.9088 -13.9052
   -13.7313 -13.6943 -13.6284  -9.2999  -8.8370  -8.8167  -8.1491  -8.1153
    -8.0913  -7.9184  -7.8940  -7.8917  -7.8663  -7.7690  -7.7469  -2.2307
    -2.1967  -2.0614  -2.0321  -2.0194  -2.0118  -2.0099  -1.9415  -1.9371
    -1.8659  -1.8656  -1.6534  -1.5238  -1.0635  -1.0324  -0.7636  -0.6906
    -0.6164  -0.6084  -0.5796  -0.5418  -0.2555  -0.2194  -0.2175  -0.1829
    -0.1804  -0.0866  -0.0680  -0.0173  -0.0164  -0.0029   0.0801   0.1344
     0.1356   0.1404   0.2170   0.2311   0.2336   0.2468   0.2658   0.2881
     0.3314   0.3840   0.3868   0.3952   0.4158   0.5085   0.5120   0.6312
     0.6784   0.8099   0.8482   0.9376   1.0781   1.0810   1.1243   1.2019
     1.2057   1.2420   1.2421   1.2648   1.3330   1.3536   1.4071   1.4206
     1.6554   1.7421   1.7504   1.8133   1.8354   1.8727   1.8773   2.0339
     2.0550   2.0880   2.1459   2.2105   2.2434   2.5155   2.5198   4.4831
     5.1176   5.1474   5.3651   5.6910   5.9531   6.3543   6.5359   6.5760
     7.0048   7.3934   7.7127   7.7195   8.0116   8.0270   8.2059   8.2960
     8.3888   8.4804

[...]

          k = 0.3750-0.5125 0.0000 ( 36666 PWs)   bands (ev):

[...]

          k =-0.5000 0.0000 0.0000 ( 36502 PWs)   bands (ev):

[...]

          k =-0.5000-0.5125 0.0000 ( 36660 PWs)   bands (ev):

   -38.2439 -37.9287 -23.7964 -22.6839 -22.6573 -22.5800 -18.8259 -18.7994
   -18.5250 -18.5090 -18.3256 -17.9715 -14.6586 -14.6440 -14.4524 -14.4026
   -14.3965 -14.3956 -14.3560 -14.1431 -14.0891 -14.0139 -13.8170 -13.8014
   -13.7907 -13.7755 -13.6360  -9.7995  -9.4590  -9.2226  -8.8781  -8.8524
    -8.7167  -8.5890  -8.5651  -8.4104  -8.1287  -8.0934  -8.0799  -4.3416
    -4.1644  -3.7590  -3.4037  -3.3714  -2.8835  -2.8778  -2.6704  -2.4866
    -2.4651  -2.4488  -2.3632  -2.1638  -1.9950  -1.9908  -1.9655  -1.9409
    -1.6885  -1.5187  -1.1847  -1.1772  -1.1057  -1.0751  -0.9740  -0.8924
    -0.8739  -0.8142  -0.7337  -0.6604  -0.6557  -0.4987  -0.4879  -0.4698
    -0.3710  -0.0173  -0.0141   0.2491   0.4594   0.5596   0.7384   0.9309
     1.2251   1.2281   1.2580   1.3631   1.3989   1.4160   1.4251   1.4365
     1.4636   1.4652   1.5903   1.6152   1.6458   1.6937   1.7733   1.8414
     1.8818   1.8860   1.8911   1.9081   1.9132   1.9515   1.9515   1.9606
     2.0237   2.2836   2.2950   2.3758   2.4062   2.4114   2.5144   2.5191
     2.8455   2.8567   4.2495   4.5739   4.6233   4.7084   4.7101   4.8302
     5.6554   5.6659   6.2622   6.4861   7.0019   7.0556   7.9762   8.2705
     8.2883   8.5826   8.7169   8.8253   8.9939   9.0496   9.0725   9.1096
     9.3507   9.3968

     the Fermi energy is     2.8172 ev

!    total energy              =   -1868.77938139 Ry
     Harris-Foulkes estimate   =   -1868.77938236 Ry
     estimated scf accuracy    <       0.00000086 Ry

     The total energy is the sum of the following terms:

     one-electron contribution =  -27274.04932725 Ry
     hartree contribution      =   13789.79934526 Ry
     xc contribution           =    -642.20527517 Ry
     ewald contribution        =   12257.68442645 Ry
     smearing contrib. (-TS)   =      -0.00855068 Ry

     convergence has been achieved in  38 iterations

     negative rho (up, down):  9.064E-02 0.000E+00

     Forces acting on atoms (cartesian axes, Ry/au):

     atom    1 type  3   force =     0.00000000    0.00000000   -0.00013155
     atom    2 type  2   force =     0.00000000    0.00000000    0.00008148
     atom    3 type  3   force =     0.00000000    0.00000000   -0.00012967
     atom    4 type  1   force =     0.00000000    0.00000000   -0.00021644
     atom    5 type  2   force =     0.00000000    0.00000000   -0.00075159
     atom    6 type  3   force =     0.00000000    0.00000000    0.00026191
     atom    7 type  3   force =     0.00000000    0.00000000   -0.00009231
     atom    8 type  4   force =     0.00000000    0.00000000   -0.00073332
     atom    9 type  3   force =     0.00000000    0.00000000    0.00088599
     atom   10 type  3   force =     0.00000000    0.00000000    0.00124642
     atom   11 type  2   force =     0.00000000    0.00000000   -0.00117437
     atom   12 type  1   force =     0.00000000    0.00000000   -0.00447929
     atom   13 type  3   force =     0.00000000    0.00000000    0.00270948
     atom   14 type  3   force =     0.00000000    0.00000000    0.01454125
     atom   15 type  2   force =     0.00000000    0.00000000   -0.01151108
     atom   16 type  3   force =     0.00000000    0.00000000    0.03009954
     atom   17 type  1   force =     0.00000000    0.00000000   -0.02764206
     atom   18 type  2   force =     0.00000000    0.00000000    0.00527577
     atom   19 type  3   force =     0.00000000    0.00000000    0.01405493
     atom   20 type  3   force =     0.00000000    0.00000000    0.00654063
     atom   21 type  4   force =     0.00000000    0.00000000   -0.03965613
     atom   22 type  3   force =     0.00000000    0.00000000    0.00355089
     atom   23 type  3   force =     0.00000000    0.00000000    0.00577343
     atom   24 type  2   force =     0.00000000    0.00000000    0.00319677
     atom   25 type  1   force =     0.00000000    0.00000000   -0.00170017
     atom   26 type  3   force =     0.00000000    0.00000000    0.00137677
     atom   27 type  2   force =     0.00000000    0.00000000   -0.00176732
     atom   28 type  3   force =     0.00000000    0.00000000    0.00039004

     Total force =     0.062860     Total SCF correction =     0.004908

     Computing stress (Cartesian axis) and pressure

     negative rho (up, down):  9.064E-02 0.000E+00
          total   stress  (Ry/bohr**3)                   (kbar)     P=       -5.46
  -0.00006728   0.00000000   0.00000000           -9.90        0.00        0.00
   0.00000000  -0.00002891   0.00000000            0.00       -4.25        0.00
   0.00000000   0.00000000  -0.00001521            0.00        0.00       -2.24

     General routines

     Parallel routines

   This run was terminated on:  17:22: 2   5May2021

   JOB DONE.
[1620249722.427992] [holy7c08506:141703:0]          mpool.c:43   UCX  WARN  object 0x3f5b980 was not returned to mpool ucp_requests
[1620249722.428008] [holy7c08506:141703:0]          mpool.c:43   UCX  WARN  object 0x3f5bd00 was not returned to mpool ucp_requests
[1620249722.427327] [holy7c08411:15923:0]          mpool.c:43   UCX  WARN  object 0x2c9d300 was not returned to mpool ucp_requests
[1620249722.427343] [holy7c08411:15923:0]          mpool.c:43   UCX  WARN  object 0x2c9d680 was not returned to mpool ucp_requests
[1620249722.427769] [holy7c08602:38026:0]          mpool.c:43   UCX  WARN  object 0x3f721c0 was not returned to mpool ucp_requests
[1620249722.433462] [holy7c08601:126152:0]          mpool.c:43   UCX  WARN  object 0x37b9740 was not returned to mpool ucp_requests
[1620249722.433487] [holy7c08601:126152:0]          mpool.c:43   UCX  WARN  object 0x37b9ac0 was not returned to mpool ucp_requests
[1620249722.430756] [holy7c08507:202055:0]          mpool.c:43   UCX  WARN  object 0x31fa980 was not returned to mpool ucp_requests
[1620249722.434023] [holy7c08412:252294:0]          mpool.c:43   UCX  WARN  object 0x457c780 was not returned to mpool ucp_requests
[1620249722.427902] [holy7c08602:38025:0]          mpool.c:43   UCX  WARN  object 0x302ea40 was not returned to mpool ucp_requests