     Program PWSCF v.6.5 starts on  5May2021 at 18: 7:55

     R & G space division:  proc/nbgrp/npool/nimage =      20
     Reading input from YBCO_Y_cleave_5.5_sep_scf.pwi
Warning: card &IONS ignored
Warning: card     ION_DYNAMICS = 'BFGS' ignored
Warning: card / ignored
Warning: card &CELL ignored
Warning: card     CELL_DYNAMICS = 'BFGS' ignored
Warning: card / ignored

     Current dimensions of program PWSCF are:
     Max number of different atomic species (ntypx) = 10
     Max number of k-points (npk) =  40000
     Max angular momentum in pseudopotentials (lmaxx) =  3

     Message from routine setup:
     using ibrav=0 with symmetry is DISCOURAGED, use correct ibrav instead

     bravais-lattice index     =            0
     lattice parameter (alat)  =       7.3477  a.u.
     unit-cell volume          =    4904.1944 (a.u.)^3
     number of atoms/cell      =           28
     number of atomic types    =            4
     number of electrons       =       229.00
     number of Kohn-Sham states=          138
     kinetic-energy cutoff     =      60.0000  Ry
     charge density cutoff     =     720.0000  Ry
     convergence threshold     =      1.0E-06
     mixing beta               =       0.2000
     number of iterations used =           10  local-TF  mixing
     Exchange-correlation= SLA PW PBE PBE
                           (   1   4   3   4   0   0   0)

     celldm(1)=   7.347715  celldm(2)=   0.000000  celldm(3)=   0.000000
     celldm(4)=   0.000000  celldm(5)=   0.000000  celldm(6)=   0.000000

     crystal axes: (cart. coord. in units of alat)
               a(1) = (   1.000000   0.000000   0.000000 )
               a(2) = (   0.000000   0.975577   0.000000 )
               a(3) = (   0.000000   0.000000  12.672114 )

     reciprocal axes: (cart. coord. in units 2 pi/alat)
               b(1) = (  1.000000  0.000000  0.000000 )
               b(2) = (  0.000000  1.025034  0.000000 )
               b(3) = (  0.000000  0.000000  0.078913 )

     PseudoPot. # 1 for Ba read from file:
     /n/holyscratch01/hoffman_lab/ruizhe/YBCO_Project/pseudo/Ba.pbe-nsp-van.UPF
     MD5 check sum: 2b9c31dd849566dd297d80989662b7a0
     Pseudo is Ultrasoft + core correction, Zval = 10.0
     Generated by new atomic code, or converted to UPF format
     Using radial grid of  907 points,  6 beta functions with:
                l(1) =   0
                l(2) =   0
                l(3) =   1
                l(4) =   1
                l(5) =   2
                l(6) =   2
     Q(r) pseudized with  6 coefficients,  rinner =    1.200   1.200   1.200
                                                       1.200   1.200

     PseudoPot. # 2 for Cu read from file:
     /n/holyscratch01/hoffman_lab/ruizhe/YBCO_Project/pseudo/Cu.pbe-n-van_ak.UPF
     MD5 check sum: 34e3282627ffb533726feb647e090d62
     Pseudo is Ultrasoft + core correction, Zval = 11.0
     Generated by new atomic code, or converted to UPF format
     Using radial grid of  867 points,  6 beta functions with:
                l(1) =   0
                l(2) =   0
                l(3) =   1
                l(4) =   1
                l(5) =   2
                l(6) =   2
     Q(r) pseudized with  8 coefficients,  rinner =    1.400   1.400   1.400
                                                       1.400   1.400

     PseudoPot. # 3 for O  read from file:
     /n/holyscratch01/hoffman_lab/ruizhe/YBCO_Project/pseudo/O.pbe-van_ak.UPF
     MD5 check sum: 783ce7fe4c79b6a4916957118fed0856
     Pseudo is Ultrasoft, Zval =  6.0
     Generated by new atomic code, or converted to UPF format
     Using radial grid of  737 points,  4 beta functions with:
                l(1) =   0
                l(2) =   0
                l(3) =   1
                l(4) =   1
     Q(r) pseudized with  8 coefficients,  rinner =    0.800   0.800   0.800

     PseudoPot. # 4 for Y  read from file:
     /n/holyscratch01/hoffman_lab/ruizhe/YBCO_Project/pseudo/Y.pbe-nsp-van.UPF
     MD5 check sum: 4412fed3ab108fed87a1b7d6a69a4a38
     Pseudo is Ultrasoft + core correction, Zval = 11.0
     Generated by new atomic code, or converted to UPF format
     Using radial grid of  885 points,  6 beta functions with:
                l(1) =   0
                l(2) =   0
                l(3) =   1
                l(4) =   1
                l(5) =   2
                l(6) =   2
     Q(r) pseudized with  6 coefficients,  rinner =    1.200   1.200   1.200
                                                       1.200   1.200

     atomic species   valence    mass     pseudopotential
        Ba            10.00   137.32700     Ba( 1.00)
        Cu            11.00    63.54600     Cu( 1.00)
        O              6.00    15.99900     O ( 1.00)
        Y             11.00    88.90584     Y ( 1.00)

      4 Sym. Ops. (no inversion) found

   Cartesian axes

     site n.     atom                  positions (alat units)
         1           O   tau(   1) = (   0.0000000   0.4877884  -0.0257983  )
         2           Cu  tau(   2) = (   0.0000000   0.0000000   0.0215779  )
         3           O   tau(   3) = (   0.0000000   0.0000000   0.5073114  )
         4           Ba  tau(   4) = (   0.4999996   0.4877884   0.5319677  )
         5           Cu  tau(   5) = (   0.0000000   0.0000000   1.0495845  )
         6           O   tau(   6) = (   0.4999996   0.0000000   1.1181579  )
         7           O   tau(   7) = (   0.0000000   0.4877884   1.1273137  )
         8           Y   tau(   8) = (   0.4999996   0.4877884   1.4938777  )
         9           O   tau(   9) = (   0.0000000   0.4877884   1.8497402  )
        10           O   tau(  10) = (   0.4999996   0.0000000   1.8692709  )
        11           Cu  tau(  11) = (   0.0000000   0.0000000   1.9417560  )
        12           Ba  tau(  12) = (   0.4999996   0.4877884   2.4526063  )
        13           O   tau(  13) = (   0.0000000   0.0000000   2.5103470  )
        14           O   tau(  14) = (   0.0000000   0.4877884   2.9968469  )
        15           Cu  tau(  15) = (   0.0000000   0.0000000   2.9968521  )
        16           O   tau(  16) = (   0.0000000   0.0000000   3.4833288  )
        17           Ba  tau(  17) = (   0.4999996   0.4877884   3.5410618  )
        18           Cu  tau(  18) = (   0.0000000   0.0000000   4.0519352  )
        19           O   tau(  19) = (   0.4999996   0.0000000   4.1244075  )
        20           O   tau(  20) = (   0.0000000   0.4877884   4.1439202  )
        21           Y   tau(  21) = (   0.4999996   0.4877884   4.4997853  )
        22           O   tau(  22) = (   0.0000000   0.4877884   6.2808698  )
        23           O   tau(  23) = (   0.4999996   0.0000000   6.2900384  )
        24           Cu  tau(  24) = (   0.0000000   0.0000000   6.3586170  )
        25           Ba  tau(  25) = (   0.4999996   0.4877884   6.8762183  )
        26           O   tau(  26) = (   0.0000000   0.0000000   6.9008747  )
        27           Cu  tau(  27) = (   0.0000000   0.0000000   7.3865799  )
        28           O   tau(  28) = (   0.0000000   0.4877884   7.4339612  )

     number of k points=    25  Gaussian smearing, width (Ry)=  0.0100
                       cart. coord. in units 2pi/alat
        k(    1) = (   0.0000000   0.0000000   0.0000000), wk =   0.0312500
        k(    2) = (   0.0000000   0.1281293   0.0000000), wk =   0.0625000
        k(    3) = (   0.0000000   0.2562585   0.0000000), wk =   0.0625000
        k(    4) = (   0.0000000   0.3843878   0.0000000), wk =   0.0625000
        k(    5) = (   0.0000000  -0.5125170   0.0000000), wk =   0.0312500
        k(    6) = (   0.1250000   0.0000000   0.0000000), wk =   0.0625000
        k(    7) = (   0.1250000   0.1281293   0.0000000), wk =   0.1250000
        k(    8) = (   0.1250000   0.2562585   0.0000000), wk =   0.1250000
        k(    9) = (   0.1250000   0.3843878   0.0000000), wk =   0.1250000
        k(   10) = (   0.1250000  -0.5125170   0.0000000), wk =   0.0625000
        k(   11) = (   0.2500000   0.0000000   0.0000000), wk =   0.0625000
        k(   12) = (   0.2500000   0.1281293   0.0000000), wk =   0.1250000
        k(   13) = (   0.2500000   0.2562585   0.0000000), wk =   0.1250000
        k(   14) = (   0.2500000   0.3843878   0.0000000), wk =   0.1250000
        k(   15) = (   0.2500000  -0.5125170   0.0000000), wk =   0.0625000
        k(   16) = (   0.3750000   0.0000000   0.0000000), wk =   0.0625000
        k(   17) = (   0.3750000   0.1281293   0.0000000), wk =   0.1250000
        k(   18) = (   0.3750000   0.2562585   0.0000000), wk =   0.1250000
        k(   19) = (   0.3750000   0.3843878   0.0000000), wk =   0.1250000
        k(   20) = (   0.3750000  -0.5125170   0.0000000), wk =   0.0625000
        k(   21) = (  -0.5000000   0.0000000   0.0000000), wk =   0.0312500
        k(   22) = (  -0.5000000   0.1281293   0.0000000), wk =   0.0625000
        k(   23) = (  -0.5000000   0.2562585   0.0000000), wk =   0.0625000
        k(   24) = (  -0.5000000   0.3843878   0.0000000), wk =   0.0625000
        k(   25) = (  -0.5000000  -0.5125170   0.0000000), wk =   0.0312500

     Initial potential from superposition of free atoms

     starting charge  228.84827, renormalised to  229.00000

     negative rho (up, down):  8.971E-02 0.000E+00
     Starting wfcs are  201 randomized atomic wfcs

     Self-consistent Calculation

     iteration #  1     ecut=    60.00 Ry     beta= 0.20
     Davidson diagonalization with overlap
     ethr =  1.00E-02,  avg # of iterations =  2.0

     negative rho (up, down):  8.739E-02 0.000E+00

     total energy              =   -1869.45918023 Ry
     Harris-Foulkes estimate   =   -1871.04119799 Ry
     estimated scf accuracy    <      14.72122303 Ry

[...]

     iteration # 22     ecut=    60.00 Ry     beta= 0.20
     Davidson diagonalization with overlap
     c_bands:  1 eigenvalues not converged
     ethr =  6.98E-06,  avg # of iterations =  3.1

[...]

     iteration # 28     ecut=    60.00 Ry     beta= 0.20
     Davidson diagonalization with overlap
     c_bands:  1 eigenvalues not converged
     c_bands:  1 eigenvalues not converged
     ethr =  3.71E-07,  avg # of iterations =  5.8

[...]

     total energy              =   -1868.38602238 Ry
     Harris-Foulkes estimate   =   -1868.38602260 Ry
     estimated scf accuracy    <       0.00000117 Ry

     iteration # 38     ecut=    60.00 Ry     beta= 0.20
     Davidson diagonalization with overlap
     ethr =  5.11E-10,  avg # of iterations =  2.1

[...]

     End of self-consistent calculation

          k = 0.0000 0.0000 0.0000 ( 38411 PWs)   bands (ev):

   -41.5122 -38.6900 -23.6117 -23.3444 -23.2017 -22.9407 -21.6545 -21.3855
   -21.3792 -19.2248 -18.6947 -18.6848 -16.7030 -16.0199 -15.7771 -15.1610
   -15.0594 -14.8577 -14.8290 -14.8054 -14.7135 -14.5438 -14.3271 -14.2498
   -14.2153 -14.0336 -13.5495  -8.9238  -8.5656  -8.5468  -8.5365  -8.4735
    -8.3369  -8.3101  -8.1556  -8.1369  -8.0664  -7.9692  -7.9340  -3.4826
    -3.4586  -3.0062  -2.6487  -2.6155  -2.5890  -2.4675  -2.4279  -2.3799
    -2.3611  -2.2837  -2.0614  -1.4542  -1.4207  -1.3798  -1.3516  -1.2105
    -1.1047  -1.0265  -0.9812  -0.9556  -0.9379  -0.7512  -0.6747  -0.6379
    -0.6013  -0.5475  -0.5214  -0.5097  -0.4482  -0.4365  -0.4265  -0.4196
    -0.4084  -0.3423  -0.2852  -0.2781  -0.1715  -0.1662  -0.1270  -0.0658
    -0.0363  -0.0254  -0.0234   0.0062   0.0216   0.0568   0.0888   0.0932
     0.1126   0.2281   0.2455   0.3769   0.5151   0.5342   0.6633   0.7203
     0.7587   0.7989   0.8137   0.8794   0.9199   0.9348   1.0203   1.1363
     1.3558   1.3680   1.4173   1.4213   1.5256   1.5435   1.6158   1.6867
     1.7147   1.8073   1.8201   1.8387   2.1027   2.1290   2.1769   2.2218
     3.5374   4.6397   4.7063   4.8830   5.1183   5.3885   5.4625   6.0889
     6.1120   6.1266   6.3285   6.3811   6.4821   6.7520   7.0944   7.5836
     7.6082   7.6529

[...]

          k = 0.3750-0.5125 0.0000 ( 38630 PWs)   bands (ev):

[...]

          k =-0.5000 0.0000 0.0000 ( 38486 PWs)   bands (ev):

[...]

          k =-0.5000-0.5125 0.0000 ( 38612 PWs)   bands (ev):

   -41.4915 -38.6621 -23.3769 -23.1024 -22.9660 -22.6934 -21.6604 -21.6364
   -21.4823 -19.2439 -19.2180 -18.7437 -15.9892 -15.9633 -15.0776 -15.0606
   -14.8207 -14.7675 -14.6406 -14.5604 -14.5058 -14.5058 -14.2627 -14.2091
   -14.1506 -14.0025 -13.8566  -9.5100  -9.2965  -9.2375  -9.1079  -9.0075
    -8.9729  -8.9197  -8.7716  -8.6449  -8.5438  -8.4413  -8.0438  -5.3064
    -4.7606  -4.1777  -3.7420  -3.6776  -3.4636  -3.3288  -3.2961  -3.2213
    -3.0853  -2.9057  -2.7839  -2.5809  -2.5739  -2.4134  -2.3785  -2.3584
    -2.1617  -2.1484  -1.8637  -1.8087  -1.5927  -1.4986  -1.4934  -1.3144
    -1.3107  -1.2786  -1.2317  -1.1534  -1.0741  -1.0098  -0.9537  -0.8767
    -0.8666  -0.4325  -0.3665  -0.1643  -0.1314   0.0995   0.2528   0.3114
     0.5129   0.5158   0.5531   0.7278   0.8404   0.9123   0.9458   0.9479
     0.9963   1.0132   1.0316   1.2153   1.2785   1.2825   1.4467   1.4645
     1.4662   1.4814   1.4849   1.4900   1.5917   1.6511   1.7054   1.9068
     1.9139   1.9930   2.0026   2.0030   2.1007   2.1211   2.1659   2.4354
     2.5853   2.8789   3.0499   3.6476   3.6963   3.7352   3.9625   4.2048
     4.2908   4.5232   4.6326   4.9912   5.2375   5.4433   6.0669   6.9470
     7.6257   7.7374   7.8263   7.8445   8.2040   8.2390   8.6331   8.7360
     8.8618   8.9469

     the Fermi energy is     2.3984 ev

!    total energy              =   -1868.38602225 Ry
     Harris-Foulkes estimate   =   -1868.38602245 Ry
     estimated scf accuracy    <       0.00000040 Ry

     The total energy is the sum of the following terms:

     one-electron contribution =  -29409.43733810 Ry
     hartree contribution      =   14852.79004953 Ry
     xc contribution           =    -641.72296343 Ry
     ewald contribution        =   13329.99301295 Ry
     smearing contrib. (-TS)   =      -0.00878321 Ry

     convergence has been achieved in  38 iterations

     negative rho (up, down):  8.999E-02 0.000E+00

     Forces acting on atoms (cartesian axes, Ry/au):

     atom    1 type  3   force =     0.00000000    0.00000000   -0.00000884
     atom    2 type  2   force =     0.00000000    0.00000000    0.00006632
     atom    3 type  3   force =     0.00000000    0.00000000   -0.00005093
     atom    4 type  1   force =     0.00000000    0.00000000   -0.00005442
     atom    5 type  2   force =     0.00000000    0.00000000    0.00039456
     atom    6 type  3   force =     0.00000000    0.00000000    0.00040286
     atom    7 type  3   force =     0.00000000    0.00000000    0.00020949
     atom    8 type  4   force =     0.00000000    0.00000000   -0.00048669
     atom    9 type  3   force =     0.00000000    0.00000000    0.00082725
     atom   10 type  3   force =     0.00000000    0.00000000    0.00107834
     atom   11 type  2   force =     0.00000000    0.00000000   -0.00214332
     atom   12 type  1   force =     0.00000000    0.00000000   -0.00155703
     atom   13 type  3   force =     0.00000000    0.00000000    0.00232394
     atom   14 type  3   force =     0.00000000    0.00000000    0.00570242
     atom   15 type  2   force =     0.00000000    0.00000000   -0.01060552
     atom   16 type  3   force =     0.00000000    0.00000000    0.01919579
     atom   17 type  1   force =     0.00000000    0.00000000   -0.02236260
     atom   18 type  2   force =     0.00000000    0.00000000    0.00255366
     atom   19 type  3   force =     0.00000000    0.00000000    0.06068165
     atom   20 type  3   force =     0.00000000    0.00000000    0.06199150
     atom   21 type  4   force =     0.00000000    0.00000000   -0.11643737
     atom   22 type  3   force =     0.00000000    0.00000000    0.02440945
     atom   23 type  3   force =     0.00000000    0.00000000    0.03041281
     atom   24 type  2   force =     0.00000000    0.00000000   -0.02175956
     atom   25 type  1   force =     0.00000000    0.00000000   -0.03300743
     atom   26 type  3   force =     0.00000000    0.00000000   -0.00452975
     atom   27 type  2   force =     0.00000000    0.00000000   -0.00282362
     atom   28 type  3   force =     0.00000000    0.00000000    0.00557702

     Total force =     0.158938     Total SCF correction =     0.002678

     Computing stress (Cartesian axis) and pressure

     negative rho (up, down):  8.999E-02 0.000E+00
          total   stress  (Ry/bohr**3)                   (kbar)     P=      -10.17
  -0.00006407   0.00000000   0.00000000           -9.43        0.00        0.00
   0.00000000  -0.00005195   0.00000000            0.00       -7.64        0.00
   0.00000000   0.00000000  -0.00009133            0.00        0.00      -13.44

     General routines

     Parallel routines

   This run was terminated on:  18:19:36   5May2021

   JOB DONE.
[1620253176.790901] [holy7c16409:241915:0]          mpool.c:43   UCX  WARN  object 0x3fd1bc0 was not returned to mpool ucp_requests
[1620253176.790298] [holy7c18102:139491:0]          mpool.c:43   UCX  WARN  object 0x342da40 was not returned to mpool ucp_requests
[1620253176.794786] [holy7c10103:253460:0]          mpool.c:43   UCX  WARN  object 0x4228280 was not returned to mpool ucp_requests
[1620253176.790986] [holy7c16612:120881:0]          mpool.c:43   UCX  WARN  object 0x2bfb480 was not returned to mpool ucp_requests
[1620253176.791012] [holy7c16612:120881:0]          mpool.c:43   UCX  WARN  object 0x2bfb800 was not returned to mpool ucp_requests
[1620253176.792299] [holy7c16308:219943:0]          mpool.c:43   UCX  WARN  object 0x3239480 was not returned to mpool ucp_requests
[1620253176.792322] [holy7c16308:219943:0]          mpool.c:43   UCX  WARN  object 0x3239800 was not returned to mpool ucp_requests
[1620253176.796685] [holy7c18105:127068:0]          mpool.c:43   UCX  WARN  object 0x2fc9e00 was not returned to mpool ucp_requests
[1620253176.792882] [holy7c10103:253461:0]          mpool.c:43   UCX  WARN  object 0x455ac00 was not returned to mpool ucp_requests