     Program PWSCF v.6.5 starts on 25May2021 at 14:24:43

     R & G space division:  proc/nbgrp/npool/nimage =      32
     Reading input from YCBCO50_212_BaO_cleave_0.75_sep.pwi
Warning: card &IONS ignored
Warning: card     ION_DYNAMICS = 'BFGS' ignored
Warning: card / ignored
Warning: card &CELL ignored
Warning: card     CELL_DYNAMICS = 'BFGS' ignored
Warning: card     PRESS_CONV_THR = 5 ignored
Warning: card / ignored

     Current dimensions of program PWSCF are:
     Max number of different atomic species (ntypx) = 10
     Max number of k-points (npk) =  40000
     Max angular momentum in pseudopotentials (lmaxx) =  3

     Message from routine setup:
     using ibrav=0 with symmetry is DISCOURAGED, use correct ibrav instead

     bravais-lattice index     =            0
     lattice parameter (alat)  =      14.8133  a.u.
     unit-cell volume          =    8865.7494 (a.u.)^3
     number of atoms/cell      =           56
     number of atomic types    =            5
     number of electrons       =       456.00
     number of Kohn-Sham states=          274
     kinetic-energy cutoff     =      60.0000  Ry
     charge density cutoff     =     720.0000  Ry
     convergence threshold     =      1.0E-08
     mixing beta               =       0.5000
     number of iterations used =           10  local-TF  mixing
     Exchange-correlation= SLA PW PBE PBE
                           (   1   4   3   4   0   0   0)

     celldm(1)=  14.813271  celldm(2)=   0.000000  celldm(3)=   0.000000
     celldm(4)=   0.000000  celldm(5)=   0.000000  celldm(6)=   0.000000

     crystal axes: (cart. coord. in units of alat)
               a(1) = (   1.000000   0.000000   0.000000 )
               a(2) = (   0.000000   0.477453   0.000000 )
               a(3) = (   0.000000   0.000000   5.712578 )

     reciprocal axes: (cart. coord. in units 2 pi/alat)
               b(1) = (  1.000000  0.000000  0.000000 )
               b(2) = (  0.000000  2.094448  0.000000 )
               b(3) = (  0.000000  0.000000  0.175052 )

     PseudoPot. # 1 for Ba read from file:
     ./pseudo/Ba.pbe-nsp-van.UPF
     MD5 check sum: 2b9c31dd849566dd297d80989662b7a0
     Pseudo is Ultrasoft + core correction, Zval = 10.0
     Generated by new atomic code, or converted to UPF format
     Using radial grid of  907 points,  6 beta functions with:
                l(1) =   0
                l(2) =   0
                l(3) =   1
                l(4) =   1
                l(5) =   2
                l(6) =   2
     Q(r) pseudized with  6 coefficients,  rinner =    1.200   1.200   1.200
                                                       1.200   1.200

     PseudoPot. # 2 for Ca read from file:
     ./pseudo/Ca.pbe-nsp-van.UPF
     MD5 check sum: 6471098428ff4fa451746d08035ff179
     Pseudo is Ultrasoft + core correction, Zval = 10.0
     Generated by new atomic code, or converted to UPF format
     Using radial grid of  845 points,  6 beta functions with:
                l(1) =   0
                l(2) =   0
                l(3) =   1
                l(4) =   1
                l(5) =   2
                l(6) =   2
     Q(r) pseudized with  6 coefficients,  rinner =    1.200   1.200   1.200
                                                       1.200   1.200

     PseudoPot. # 3 for Cu read from file:
     ./pseudo/Cu.pbe-n-van_ak.UPF
     MD5 check sum: 34e3282627ffb533726feb647e090d62
     Pseudo is Ultrasoft + core correction, Zval = 11.0
     Generated by new atomic code, or converted to UPF format
     Using radial grid of  867 points,  6 beta functions with:
                l(1) =   0
                l(2) =   0
                l(3) =   1
                l(4) =   1
                l(5) =   2
                l(6) =   2
     Q(r) pseudized with  8 coefficients,  rinner =    1.400   1.400   1.400
                                                       1.400   1.400

     PseudoPot. # 4 for O  read from file:
     ./pseudo/O.pbe-van_ak.UPF
     MD5 check sum: 783ce7fe4c79b6a4916957118fed0856
     Pseudo is Ultrasoft, Zval =  6.0
     Generated by new atomic code, or converted to UPF format
     Using radial grid of  737 points,  4 beta functions with:
                l(1) =   0
                l(2) =   0
                l(3) =   1
                l(4) =   1
     Q(r) pseudized with  8 coefficients,  rinner =    0.800   0.800   0.800

     PseudoPot. # 5 for Y  read from file:
     ./pseudo/Y.pbe-nsp-van.UPF
     MD5 check sum: 4412fed3ab108fed87a1b7d6a69a4a38
     Pseudo is Ultrasoft + core correction, Zval = 11.0
     Generated by new atomic code, or converted to UPF format
     Using radial grid of  885 points,  6 beta functions with:
                l(1) =   0
                l(2) =   0
                l(3) =   1
                l(4) =   1
                l(5) =   2
                l(6) =   2
     Q(r) pseudized with  6 coefficients,  rinner =    1.200   1.200   1.200
                                                       1.200   1.200

     atomic species   valence    mass     pseudopotential
        Ba            10.00   137.32700     Ba( 1.00)
        Ca            10.00    40.07800     Ca( 1.00)
        Cu            11.00    63.54600     Cu( 1.00)
        O              6.00    15.99900     O ( 1.00)
        Y             11.00    88.90584     Y ( 1.00)

      4 Sym. Ops. (no inversion) found ( 2 have fractional translation)

   Cartesian axes

     site n.     atom                  positions (alat units)
         1           O   tau(   1) = (  -0.0008343   0.2387265  -0.0222443  )
         2           O   tau(   2) = (   0.5008340   0.2387265  -0.0222443  )
         3           Cu  tau(   3) = (   0.5017257   0.0000000   0.0109608  )
         4           Cu  tau(   4) = (  -0.0017260   0.0000000   0.0109608  )
         5           O   tau(   5) = (  -0.0028933   0.0000000   0.2506504  )
         6           O   tau(   6) = (   0.5028929   0.0000000   0.2506504  )
         7           Ba  tau(   7) = (   0.7499995   0.2387265   0.2749435  )
         8           Ba  tau(   8) = (   0.2499998   0.2387265   0.2755214  )
         9           Cu  tau(   9) = (   0.4980963   0.0000000   0.5208446  )
        10           Cu  tau(  10) = (   0.0019033   0.0000000   0.5208446  )
        11           O   tau(  11) = (   0.2499998   0.0000000   0.5341884  )
        12           O   tau(  12) = (   0.5083351   0.2387265   0.5569851  )
        13           O   tau(  13) = (  -0.0083354   0.2387265   0.5569851  )
        14           O   tau(  14) = (   0.7499995   0.0000000   0.5573831  )
        15           Ca  tau(  15) = (   0.2499998   0.2387265   0.7436937  )
        16           Y   tau(  16) = (   0.7499995   0.2387265   0.7469544  )
        17           O   tau(  17) = (  -0.0063798   0.2387265   0.9248530  )
        18           O   tau(  18) = (   0.5063794   0.2387265   0.9248530  )
        19           O   tau(  19) = (   0.7499995   0.0000000   0.9338544  )
        20           O   tau(  20) = (   0.2499998   0.0000000   0.9461329  )
        21           Cu  tau(  21) = (   0.0015717   0.0000000   0.9686860  )
        22           Cu  tau(  22) = (   0.4984280   0.0000000   0.9686860  )
        23           Ba  tau(  23) = (   0.2499998   0.2387265   1.2085224  )
        24           Ba  tau(  24) = (   0.7499995   0.2387265   1.2233294  )
        25           O   tau(  25) = (   0.0063772   0.0000000   1.2547537  )
        26           O   tau(  26) = (   0.4936224   0.0000000   1.2547537  )
        27           O   tau(  27) = (   0.5384045   0.2387265   1.4952521  )
        28           O   tau(  28) = (  -0.0384049   0.2387265   1.4952521  )
        29           Cu  tau(  29) = (   0.5006120   0.0000000   1.4952546  )
        30           Cu  tau(  30) = (  -0.0006123   0.0000000   1.4952546  )
        31           O   tau(  31) = (   0.4936212   0.0000000   1.7357531  )
        32           O   tau(  32) = (   0.0063785   0.0000000   1.7357531  )
        33           Ba  tau(  33) = (   0.7499995   0.2387265   1.7671824  )
        34           Ba  tau(  34) = (   0.2499998   0.2387265   1.7819920  )
        35           Cu  tau(  35) = (   0.4984280   0.0000000   2.1175006  )
        36           Cu  tau(  36) = (   0.0015717   0.0000000   2.1175006  )
        37           O   tau(  37) = (   0.2499998   0.0000000   2.1400588  )
        38           O   tau(  38) = (   0.7499995   0.0000000   2.1523284  )
        39           O   tau(  39) = (   0.5063781   0.2387265   2.1613336  )
        40           O   tau(  40) = (  -0.0063785   0.2387265   2.1613336  )
        41           Y   tau(  41) = (   0.7499995   0.2387265   2.3392271  )
        42           Ca  tau(  42) = (   0.2499998   0.2387265   2.3424967  )
        43           O   tau(  43) = (   0.7499995   0.0000000   2.5287946  )
        44           O   tau(  44) = (  -0.0083354   0.2387265   2.5291964  )
        45           O   tau(  45) = (   0.5083351   0.2387265   2.5291964  )
        46           O   tau(  46) = (   0.2499998   0.0000000   2.5519944  )
        47           Cu  tau(  47) = (   0.0019059   0.0000000   2.5653280  )
        48           Cu  tau(  48) = (   0.4980938   0.0000000   2.5653280  )
        49           Ba  tau(  49) = (   0.2499998   0.2387265   2.8106677  )
        50           Ba  tau(  50) = (   0.7499995   0.2387265   2.8112099  )
        51           O   tau(  51) = (  -0.0028895   0.0000000   2.8355170  )
        52           O   tau(  52) = (   0.5028891   0.0000000   2.8355170  )
        53           Cu  tau(  53) = (   0.5017844   0.0000000   3.0752016  )
        54           Cu  tau(  54) = (  -0.0017847   0.0000000   3.0752016  )
        55           O   tau(  55) = (   0.5008990   0.2387265   3.1084080  )
        56           O   tau(  56) = (  -0.0008994   0.2387265   3.1084080  )

     number of k points=    25  Gaussian smearing, width (Ry)=  0.0100
                       cart. coord. in units 2pi/alat
        k(    1) = (   0.0000000   0.0000000   0.0000000), wk =   0.0312500
        k(    2) = (   0.0000000   0.2618060   0.0000000), wk =   0.0625000
        k(    3) = (   0.0000000   0.5236121   0.0000000), wk =   0.0625000
        k(    4) = (   0.0000000   0.7854181   0.0000000), wk =   0.0625000
        k(    5) = (   0.0000000  -1.0472241   0.0000000), wk =   0.0312500
        k(    6) = (   0.1250000   0.0000000   0.0000000), wk =   0.0625000
        k(    7) = (   0.1250000   0.2618060   0.0000000), wk =   0.1250000
        k(    8) = (   0.1250000   0.5236121   0.0000000), wk =   0.1250000
        k(    9) = (   0.1250000   0.7854181   0.0000000), wk =   0.1250000
        k(   10) = (   0.1250000  -1.0472241   0.0000000), wk =   0.0625000
        k(   11) = (   0.2500000   0.0000000   0.0000000), wk =   0.0625000
        k(   12) = (   0.2500000   0.2618060   0.0000000), wk =   0.1250000
        k(   13) = (   0.2500000   0.5236121   0.0000000), wk =   0.1250000
        k(   14) = (   0.2500000   0.7854181   0.0000000), wk =   0.1250000
        k(   15) = (   0.2500000  -1.0472241   0.0000000), wk =   0.0625000
        k(   16) = (   0.3750000   0.0000000   0.0000000), wk =   0.0625000
        k(   17) = (   0.3750000   0.2618060   0.0000000), wk =   0.1250000
        k(   18) = (   0.3750000   0.5236121   0.0000000), wk =   0.1250000
        k(   19) = (   0.3750000   0.7854181   0.0000000), wk =   0.1250000
        k(   20) = (   0.3750000  -1.0472241   0.0000000), wk =   0.0625000
        k(   21) = (  -0.5000000   0.0000000   0.0000000), wk =   0.0312500
        k(   22) = (  -0.5000000   0.2618060   0.0000000), wk =   0.0625000
        k(   23) = (  -0.5000000   0.5236121   0.0000000), wk =   0.0625000
        k(   24) = (  -0.5000000   0.7854181   0.0000000), wk =   0.0625000
        k(   25) = (  -0.5000000  -1.0472241   0.0000000), wk =   0.0312500

     Initial potential from superposition of free atoms

     starting charge  455.69457, renormalised to  456.00000

     negative rho (up, down):  9.331E-02 0.000E+00
     Starting wfcs are  396 randomized atomic wfcs

     Self-consistent Calculation

     iteration #  1     ecut=    60.00 Ry     beta= 0.50
     Davidson diagonalization with overlap
     ethr =  1.00E-02,  avg # of iterations =  2.0

     negative rho (up, down):  8.634E-02 0.000E+00

     total energy              =   -3708.36118941 Ry
     Harris-Foulkes estimate   =   -3716.46254305 Ry
     estimated scf accuracy    <      30.54737881 Ry

[...]

     iteration # 13     ecut=    60.00 Ry     beta= 0.50
     Davidson diagonalization with overlap
     c_bands:  1 eigenvalues not converged
     ethr =  1.14E-05,  avg # of iterations =  5.0

[...]

     iteration # 22     ecut=    60.00 Ry     beta= 0.50
     Davidson diagonalization with overlap
     c_bands:  1 eigenvalues not converged
     c_bands:  1 eigenvalues not converged
     c_bands:  1 eigenvalues not converged
     c_bands:  1 eigenvalues not converged
     c_bands:  1 eigenvalues not converged
     c_bands:  1 eigenvalues not converged
     ethr =  9.79E-08,  avg # of iterations = 11.8

[...]

     total energy              =   -3711.72088451 Ry
     Harris-Foulkes estimate   =   -3711.72088453 Ry
     estimated scf accuracy    <       0.00000001 Ry

     iteration # 33     ecut=    60.00 Ry     beta= 0.50
     Davidson diagonalization with overlap
     ethr =  3.21E-12,  avg # of iterations =  1.0

[...]

     End of self-consistent calculation

          k = 0.0000 0.0000 0.0000 ( 69653 PWs)   bands (ev):

   -38.0303 -37.8635 -35.6570 -35.4613 -23.2369 -22.9911 -22.8226 -22.8103
   -22.6943 -22.6823 -22.5716 -22.4197 -18.5056 -18.4013 -18.3137 -18.2457
   -18.0334 -17.8741 -17.0051 -16.8698 -16.7835 -16.6881 -16.6866 -16.5006
   -15.4170 -15.2694 -14.9898 -14.9566 -14.9176 -14.7759 -14.6618 -14.5661
   -14.5616 -14.4844 -14.4827 -14.4600 -14.3745 -14.3135 -14.2857 -14.1069
   -14.0853 -14.0429 -14.0021 -13.9919 -13.9916 -13.9867 -13.9787 -13.8936
   -13.8915 -13.7505 -13.6138 -13.5556 -13.5537 -13.4117  -8.5634  -8.2797
    -8.0858  -8.0605  -8.0453  -8.0048  -7.9520  -7.9390  -7.8721  -7.8610
    -7.8560  -7.8404  -7.7629  -7.7519  -7.7339  -7.7220  -7.6376  -7.6264
    -7.5641  -7.4959  -7.4840  -7.4458  -7.3772  -7.2235  -2.9900  -2.9666
    -2.8155  -2.5789  -2.1794  -2.1730  -2.0925  -2.0895  -2.0462  -1.9655
    -1.9209  -1.9160  -1.8676  -1.8410  -1.8032  -1.7943  -1.7260  -1.6686
    -1.6531  -1.6339  -1.5936  -1.5340  -1.5006  -1.4802  -1.4530  -1.3981
    -1.3337  -1.2235  -1.1651  -1.1096  -1.0429  -0.9715  -0.9291  -0.9283
    -0.9276  -0.9261  -0.9239  -0.9107  -0.8802  -0.8252  -0.7780  -0.7621
    -0.7517  -0.7031  -0.7005  -0.6981  -0.6597  -0.6016  -0.5679  -0.5668
    -0.4553  -0.3311  -0.3156  -0.2922  -0.2611  -0.2591  -0.1861  -0.1556
    -0.1420  -0.1392  -0.1374  -0.1350  -0.1164  -0.0905   0.0032   0.0134
     0.0442   0.0467   0.0513   0.0535   0.1002   0.1025   0.1285   0.1702
     0.1710   0.1725   0.1755   0.1999   0.2492   0.2653   0.2670   0.2848
     0.3042   0.3063   0.3368   0.3882   0.4101   0.4132   0.4158   0.5218
     0.5436   0.5726   0.5780   0.5818   0.5965   0.5992   0.6339   0.6355
     0.6743   0.7519   0.7695   0.8351   0.9248   0.9682   1.0360   1.0399
     1.0586   1.0790   1.0910   1.0956   1.1302   1.1750   1.2284   1.2523
     1.2605   1.2678   1.2841   1.3214   1.3363   1.3917   1.3985   1.4509
     1.4555   1.4564   1.4800   1.4886   1.6376   1.6397   1.6522   1.6532
     1.6756   1.7623   1.7646   1.7772   1.8371   1.8465   1.8545   1.8633
     1.8857   1.9534   1.9809   2.0833   2.0839   2.1059   2.1085   2.1364
     2.1582   2.2696   2.3015   2.3130   2.3399   2.3520   2.4126   2.5175
     2.6245   2.6301   2.6448   2.6812   2.9041   2.9229   5.2358   5.2791
     5.4606   5.9708   6.1083   6.3051   6.6760   6.7006   6.8072   7.2797
     7.3276   7.3381   7.4173   7.4177   7.6312   7.6922   7.8420   8.0663
     8.1447   8.1967   8.2201   8.2588   8.3369   8.3842   8.5313   8.5529
     8.6166   8.6536   8.6642   8.8317   9.0285   9.0945   9.1244   9.2282
     9.2868   9.3163

[...]

          k = 0.3750-1.0472 0.0000 ( 69570 PWs)   bands (ev):

[...]

          k =-0.5000 0.0000 0.0000 ( 69680 PWs)   bands (ev):

[...]

          k =-0.5000-1.0472 0.0000 ( 69548 PWs)   bands (ev):

   -38.0118 -37.8450 -35.6454 -35.4496 -23.0931 -22.8718 -22.6197 -22.6065
   -22.5901 -22.5789 -22.3890 -22.3048 -18.6737 -18.5146 -18.3311 -18.2107
   -18.1759 -18.0171 -17.0779 -16.9013 -16.8908 -16.7971 -16.7197 -16.5742
   -14.7318 -14.6752 -14.6678 -14.6505 -14.5067 -14.4323 -14.3859 -14.3850
   -14.3601 -14.3391 -14.3240 -14.3212 -14.2755 -14.2401 -14.2248 -14.1724
   -14.0952 -14.0461 -13.9662 -13.9571 -13.8868 -13.8815 -13.8772 -13.8763
   -13.8756 -13.8748 -13.7654 -13.7342 -13.6885 -13.6238  -8.6789  -8.6364
    -8.4322  -8.4050  -8.3949  -8.3922  -8.3543  -8.3431  -8.1591  -8.1554
    -8.1325  -8.0798  -8.0678  -8.0565  -8.0564  -8.0455  -7.9775  -7.9750
    -7.9631  -7.9623  -7.8634  -7.8092  -7.6584  -7.6389  -3.7876  -3.7186
    -3.5676  -3.5178  -3.3826  -3.3602  -3.2574  -3.2194  -3.1581  -3.0199
    -3.0026  -3.0023  -3.0020  -2.9942  -2.3448  -2.3345  -2.2344  -2.2200
    -2.1384  -2.0910  -2.0897  -2.0117  -1.9965  -1.9938  -1.9933  -1.9772
    -1.9029  -1.8764  -1.8712  -1.8711  -1.8129  -1.8112  -1.7980  -1.7645
    -1.6055  -1.5690  -1.5146  -1.5144  -1.4383  -1.3969  -1.3396  -1.2949
    -1.1407  -1.1205  -1.1094  -1.0866  -1.0651  -1.0472  -0.7827  -0.7766
    -0.7754  -0.7743  -0.7338  -0.7324  -0.7122  -0.7071  -0.6849  -0.6790
    -0.6655  -0.6646  -0.6304  -0.6209  -0.5050  -0.4210  -0.3651  -0.3575
    -0.3526  -0.3150  -0.2933  -0.2310  -0.2252  -0.1635   0.1164   0.1303
     0.2693   0.2988   0.3589   0.3614   0.5318   0.5479   0.5511   0.5903
     0.6086   0.7360   0.7458   0.8021   0.8293   0.8452   1.0556   1.0897
     1.0979   1.1300   1.1730   1.1834   1.1930   1.2261   1.2603   1.2657
     1.2679   1.2830   1.3316   1.3357   1.3622   1.3756   1.3934   1.4195
     1.4279   1.4651   1.4993   1.5052   1.5309   1.5554   1.5823   1.5833
     1.6381   1.6425   1.7042   1.7184   1.7506   1.7612   1.7922   1.8263
     1.8487   1.8945   1.9344   1.9472   1.9481   1.9770   2.0079   2.0756
     2.0793   2.1052   2.1263   2.1502   2.1947   2.2387   2.2446   2.2469
     2.2510   2.2858   2.2939   2.5000   2.5936   2.5948   2.6030   2.6037
     2.7640   2.7672   2.7779   2.7833   3.5380   3.5796   3.6236   3.6806
     3.7225   3.8041   3.8406   3.8986   4.1103   4.2070   6.0009   6.4759
     6.7785   6.7821   6.7834   6.8266   6.9548   7.0456   7.4720   7.6676
     7.8289   8.0411   8.0944   8.2044   8.3399   8.6589   8.6912   9.0527
     9.0556   9.0756   9.1509   9.2964   9.3105   9.4490   9.4492   9.4688
     9.5153   9.5431   9.6558   9.7493   9.8526   9.8830   9.9001   9.9002
     9.9309   9.9941

     the Fermi energy is     2.7751 ev

!    total energy              =   -3711.72088449 Ry
     Harris-Foulkes estimate   =   -3711.72088451 Ry
     estimated scf accuracy    <          6.1E-09 Ry

     The total energy is the sum of the following terms:

     one-electron contribution =  -61971.32392101 Ry
     hartree contribution      =   31292.75213666 Ry
     xc contribution           =   -1263.88158903 Ry
     ewald contribution        =   28230.74478892 Ry
     smearing contrib. (-TS)   =      -0.01230004 Ry

     convergence has been achieved in  33 iterations

     negative rho (up, down):  9.217E-02 0.000E+00

     Forces acting on atoms (cartesian axes, Ry/au):

     atom    1 type  4   force =    -0.00000188    0.00000000   -0.00009897
     atom    2 type  4   force =     0.00000188    0.00000000   -0.00009897
     atom    3 type  3   force =    -0.00002475    0.00000000   -0.00016877
     atom    4 type  3   force =     0.00002475    0.00000000   -0.00016877
     atom    5 type  4   force =     0.00000164    0.00000000   -0.00007166
     atom    6 type  4   force =    -0.00000164    0.00000000   -0.00007166
     atom    7 type  1   force =     0.00000000    0.00000000   -0.00008437
     atom    8 type  1   force =     0.00000000    0.00000000   -0.00007927
     atom    9 type  3   force =     0.00000452    0.00000000   -0.00002530
     atom   10 type  3   force =    -0.00000452    0.00000000   -0.00002530
     atom   11 type  4   force =     0.00000000    0.00000000    0.00004588
     atom   12 type  4   force =    -0.00000419    0.00000000   -0.00002997
     atom   13 type  4   force =     0.00000419    0.00000000   -0.00002997
     atom   14 type  4   force =     0.00000000    0.00000000    0.00005801
     atom   15 type  2   force =     0.00000000    0.00000000   -0.00029773
     atom   16 type  5   force =     0.00000000    0.00000000   -0.00046319
     atom   17 type  4   force =     0.00004529    0.00000000    0.00038906
     atom   18 type  4   force =    -0.00004529    0.00000000    0.00038906
     atom   19 type  4   force =     0.00000000    0.00000000    0.00050570
     atom   20 type  4   force =     0.00000000    0.00000000    0.00066582
     atom   21 type  3   force =    -0.00007003    0.00000000   -0.00055506
     atom   22 type  3   force =     0.00007003    0.00000000   -0.00055506
     atom   23 type  1   force =     0.00000000    0.00000000   -0.00221150
     atom   24 type  1   force =     0.00000000    0.00000000   -0.00260862
     atom   25 type  4   force =    -0.00041525    0.00000000    0.00315379
     atom   26 type  4   force =     0.00041525    0.00000000    0.00315379
     atom   27 type  4   force =     0.00087748    0.00000000    0.00685223
     atom   28 type  4   force =    -0.00087748    0.00000000    0.00685223
     atom   29 type  3   force =     0.00043576    0.00000000   -0.00312892
     atom   30 type  3   force =    -0.00043576    0.00000000   -0.00312892
     atom   31 type  4   force =    -0.00508760    0.00000000    0.00519762
     atom   32 type  4   force =     0.00508760    0.00000000    0.00519762
     atom   33 type  1   force =     0.00000000    0.00000000    0.00892346
     atom   34 type  1   force =     0.00000000    0.00000000    0.02308454
     atom   35 type  3   force =    -0.00494850    0.00000000    0.00254422
     atom   36 type  3   force =     0.00494850    0.00000000    0.00254422
     atom   37 type  4   force =     0.00000000    0.00000000   -0.01064832
     atom   38 type  4   force =     0.00000000    0.00000000   -0.00099066
     atom   39 type  4   force =     0.00125584    0.00000000   -0.00404291
     atom   40 type  4   force =    -0.00125584    0.00000000   -0.00404291
     atom   41 type  5   force =     0.00000000    0.00000000   -0.02527800
     atom   42 type  2   force =     0.00000000    0.00000000   -0.02083955
     atom   43 type  4   force =     0.00000000    0.00000000    0.00294838
     atom   44 type  4   force =     0.00017423    0.00000000    0.00164999
     atom   45 type  4   force =    -0.00017423    0.00000000    0.00164999
     atom   46 type  4   force =     0.00000000    0.00000000    0.00241297
     atom   47 type  3   force =     0.00046210    0.00000000    0.00069520
     atom   48 type  3   force =    -0.00046210    0.00000000    0.00069520
     atom   49 type  1   force =     0.00000000    0.00000000   -0.00054124
     atom   50 type  1   force =     0.00000000    0.00000000   -0.00061052
     atom   51 type  4   force =     0.00004793    0.00000000    0.00056378
     atom   52 type  4   force =    -0.00004793    0.00000000    0.00056378
     atom   53 type  3   force =    -0.00003720    0.00000000   -0.00021446
     atom   54 type  3   force =     0.00003720    0.00000000   -0.00021446
     atom   55 type  4   force =    -0.00000484    0.00000000    0.00029422
     atom   56 type  4   force =     0.00000484    0.00000000    0.00029422

     Total force =     0.046649     Total SCF correction =     0.000422

     Computing stress (Cartesian axis) and pressure

     negative rho (up, down):  9.217E-02 0.000E+00
          total   stress  (Ry/bohr**3)                   (kbar)     P=       -6.05
  -0.00004784   0.00000000   0.00000000           -7.04        0.00        0.00
   0.00000000  -0.00003212   0.00000000            0.00       -4.73        0.00
   0.00000000   0.00000000  -0.00004335            0.00        0.00       -6.38

     General routines

     Parallel routines

   This run was terminated on:  14:56: 3  25May2021

   JOB DONE.
[1621968963.961796] [holy7c04309:78633:0]          mpool.c:43   UCX  WARN  object 0x4708f80 was not returned to mpool ucp_requests
[1621968963.968962] [holy7c04202:20118:0]          mpool.c:43   UCX  WARN  object 0x47c5ac0 was not returned to mpool ucp_requests
[1621968963.968987] [holy7c04202:20118:0]          mpool.c:43   UCX  WARN  object 0x47c6000 was not returned to mpool ucp_requests
[1621968963.970870] [holy7c04202:20116:0]          mpool.c:43   UCX  WARN  object 0x2d8cc80 was not returned to mpool ucp_requests
[1621968963.970966] [holy7c04202:20117:0]          mpool.c:43   UCX  WARN  object 0x37db2c0 was not returned to mpool ucp_requests
[1621968963.980354] [holy7c04310:47824:0]          mpool.c:43   UCX  WARN  object 0x3a48440 was not returned to mpool ucp_requests
[1621968963.982955] [holy7c04205:224368:0]          mpool.c:43   UCX  WARN  object 0x3457d40 was not returned to mpool ucp_requests
[1621968963.960930] [holy7c04309:78631:0]          mpool.c:43   UCX  WARN  object 0x3255180 was not returned to mpool ucp_requests
[1621968963.960952] [holy7c04309:78631:0]          mpool.c:43   UCX  WARN  object 0x3255500 was not returned to mpool ucp_requests
[1621968963.984423] [holy7c04205:224361:0]          mpool.c:43   UCX  WARN  object 0x36d8000 was not returned to mpool ucp_requests
[1621968963.984450] [holy7c04205:224361:0]          mpool.c:43   UCX  WARN  object 0x36d81c0 was not returned to mpool ucp_requests
[1621968963.984884] [holy7c04205:224359:0]          mpool.c:43   UCX  WARN  object 0x3e2c9c0 was not returned to mpool ucp_requests
[1621968963.986939] [holy7c04205:224369:0]          mpool.c:43   UCX  WARN  object 0x439f100 was not returned to mpool ucp_requests
[1621968963.988177] [holy7c04205:224360:0]          mpool.c:43   UCX  WARN  object 0x4814300 was not returned to mpool ucp_requests
[1621968963.988824] [holy7c04205:224364:0]          mpool.c:43   UCX  WARN  object 0x2e86b40 was not returned to mpool ucp_requests
[1621968963.989729] [holy7c04205:224366:0]          mpool.c:43   UCX  WARN  object 0x411c980 was not returned to mpool ucp_requests
[1621968963.989752] [holy7c04205:224366:0]          mpool.c:43   UCX  WARN  object 0x411cd00 was not returned to mpool ucp_requests