     Program PWSCF v.6.5 starts on 28May2021 at 10: 0:21

     R & G space division:  proc/nbgrp/npool/nimage =      32
     Reading input from YCBCO50_212_CuO_cleave_1.75_sep.pwi
Warning: card &IONS ignored
Warning: card     ION_DYNAMICS = 'BFGS' ignored
Warning: card / ignored
Warning: card &CELL ignored
Warning: card     CELL_DYNAMICS = 'BFGS' ignored
Warning: card     PRESS_CONV_THR = 5 ignored
Warning: card / ignored

     Current dimensions of program PWSCF are:
     Max number of different atomic species (ntypx) = 10
     Max number of k-points (npk) =  40000
     Max angular momentum in pseudopotentials (lmaxx) =  3

     Message from routine setup:
     using ibrav=0 with symmetry is DISCOURAGED, use correct ibrav instead

     bravais-lattice index     =            0
     lattice parameter (alat)  =      14.8133  a.u.
     unit-cell volume          =    9063.7339 (a.u.)^3
     number of atoms/cell      =           56
     number of atomic types    =            5
     number of electrons       =       456.00
     number of Kohn-Sham states=          274
     kinetic-energy cutoff     =      60.0000  Ry
     charge density cutoff     =     720.0000  Ry
     convergence threshold     =      1.0E-08
     mixing beta               =       0.5000
     number of iterations used =           10  local-TF  mixing
     Exchange-correlation= SLA PW PBE PBE
                           (   1   4   3   4   0   0   0)

     celldm(1)=  14.813271  celldm(2)=   0.000000  celldm(3)=   0.000000
     celldm(4)=   0.000000  celldm(5)=   0.000000  celldm(6)=   0.000000

     crystal axes: (cart. coord. in units of alat)
               a(1) = (   1.000000   0.000000   0.000000 )
               a(2) = (   0.000000   0.477453   0.000000 )
               a(3) = (   0.000000   0.000000   5.840148 )

     reciprocal axes: (cart. coord. in units 2 pi/alat)
               b(1) = (  1.000000  0.000000  0.000000 )
               b(2) = (  0.000000  2.094448  0.000000 )
               b(3) = (  0.000000  0.000000  0.171229 )

     PseudoPot. # 1 for Ba read from file:
     ./pseudo/Ba.pbe-nsp-van.UPF
     MD5 check sum: 2b9c31dd849566dd297d80989662b7a0
     Pseudo is Ultrasoft + core correction, Zval = 10.0
     Generated by new atomic code, or converted to UPF format
     Using radial grid of  907 points,  6 beta functions with:
                l(1) =   0
                l(2) =   0
                l(3) =   1
                l(4) =   1
                l(5) =   2
                l(6) =   2
     Q(r) pseudized with  6 coefficients,  rinner =    1.200   1.200   1.200
                                                       1.200   1.200

     PseudoPot. # 2 for Ca read from file:
     ./pseudo/Ca.pbe-nsp-van.UPF
     MD5 check sum: 6471098428ff4fa451746d08035ff179
     Pseudo is Ultrasoft + core correction, Zval = 10.0
     Generated by new atomic code, or converted to UPF format
     Using radial grid of  845 points,  6 beta functions with:
                l(1) =   0
                l(2) =   0
                l(3) =   1
                l(4) =   1
                l(5) =   2
                l(6) =   2
     Q(r) pseudized with  6 coefficients,  rinner =    1.200   1.200   1.200
                                                       1.200   1.200

     PseudoPot. # 3 for Cu read from file:
     ./pseudo/Cu.pbe-n-van_ak.UPF
     MD5 check sum: 34e3282627ffb533726feb647e090d62
     Pseudo is Ultrasoft + core correction, Zval = 11.0
     Generated by new atomic code, or converted to UPF format
     Using radial grid of  867 points,  6 beta functions with:
                l(1) =   0
                l(2) =   0
                l(3) =   1
                l(4) =   1
                l(5) =   2
                l(6) =   2
     Q(r) pseudized with  8 coefficients,  rinner =    1.400   1.400   1.400
                                                       1.400   1.400

     PseudoPot. # 4 for O  read from file:
     ./pseudo/O.pbe-van_ak.UPF
     MD5 check sum: 783ce7fe4c79b6a4916957118fed0856
     Pseudo is Ultrasoft, Zval =  6.0
     Generated by new atomic code, or converted to UPF format
     Using radial grid of  737 points,  4 beta functions with:
                l(1) =   0
                l(2) =   0
                l(3) =   1
                l(4) =   1
     Q(r) pseudized with  8 coefficients,  rinner =    0.800   0.800   0.800

     PseudoPot. # 5 for Y  read from file:
     ./pseudo/Y.pbe-nsp-van.UPF
     MD5 check sum: 4412fed3ab108fed87a1b7d6a69a4a38
     Pseudo is Ultrasoft + core correction, Zval = 11.0
     Generated by new atomic code, or converted to UPF format
     Using radial grid of  885 points,  6 beta functions with:
                l(1) =   0
                l(2) =   0
                l(3) =   1
                l(4) =   1
                l(5) =   2
                l(6) =   2
     Q(r) pseudized with  6 coefficients,  rinner =    1.200   1.200   1.200
                                                       1.200   1.200

     atomic species   valence    mass     pseudopotential
        Ba            10.00   137.32700     Ba( 1.00)
        Ca            10.00    40.07800     Ca( 1.00)
        Cu            11.00    63.54600     Cu( 1.00)
        O              6.00    15.99900     O ( 1.00)
        Y             11.00    88.90584     Y ( 1.00)

      4 Sym. Ops. (no inversion) found ( 2 have fractional translation)

   Cartesian axes

     site n.     atom                  positions (alat units)
         1           O   tau(   1) = (  -0.0008343   0.2387265  -0.0222443  )
         2           O   tau(   2) = (   0.5008340   0.2387265  -0.0222443  )
         3           Cu  tau(   3) = (   0.5017257   0.0000000   0.0109608  )
         4           Cu  tau(   4) = (  -0.0017260   0.0000000   0.0109608  )
         5           O   tau(   5) = (  -0.0028933   0.0000000   0.2506504  )
         6           O   tau(   6) = (   0.5028929   0.0000000   0.2506504  )
         7           Ba  tau(   7) = (   0.7499995   0.2387265   0.2749435  )
         8           Ba  tau(   8) = (   0.2499998   0.2387265   0.2755214  )
         9           Cu  tau(   9) = (   0.4980963   0.0000000   0.5208446  )
        10           Cu  tau(  10) = (   0.0019033   0.0000000   0.5208446  )
        11           O   tau(  11) = (   0.2499998   0.0000000   0.5341884  )
        12           O   tau(  12) = (   0.5083351   0.2387265   0.5569851  )
        13           O   tau(  13) = (  -0.0083354   0.2387265   0.5569851  )
        14           O   tau(  14) = (   0.7499995   0.0000000   0.5573831  )
        15           Ca  tau(  15) = (   0.2499998   0.2387265   0.7436937  )
        16           Y   tau(  16) = (   0.7499995   0.2387265   0.7469544  )
        17           O   tau(  17) = (  -0.0063798   0.2387265   0.9248530  )
        18           O   tau(  18) = (   0.5063794   0.2387265   0.9248530  )
        19           O   tau(  19) = (   0.7499995   0.0000000   0.9338544  )
        20           O   tau(  20) = (   0.2499998   0.0000000   0.9461329  )
        21           Cu  tau(  21) = (   0.0015717   0.0000000   0.9686860  )
        22           Cu  tau(  22) = (   0.4984280   0.0000000   0.9686860  )
        23           Ba  tau(  23) = (   0.2499998   0.2387265   1.2085224  )
        24           Ba  tau(  24) = (   0.7499995   0.2387265   1.2233294  )
        25           O   tau(  25) = (   0.0063772   0.0000000   1.2547537  )
        26           O   tau(  26) = (   0.4936224   0.0000000   1.2547537  )
        27           O   tau(  27) = (   0.5384045   0.2387265   1.4952521  )
        28           O   tau(  28) = (  -0.0384049   0.2387265   1.4952521  )
        29           Cu  tau(  29) = (   0.5006120   0.0000000   1.4952546  )
        30           Cu  tau(  30) = (  -0.0006123   0.0000000   1.4952546  )
        31           O   tau(  31) = (   0.4936212   0.0000000   1.9590002  )
        32           O   tau(  32) = (   0.0063785   0.0000000   1.9590002  )
        33           Ba  tau(  33) = (   0.7499995   0.2387265   1.9904296  )
        34           Ba  tau(  34) = (   0.2499998   0.2387265   2.0052392  )
        35           Cu  tau(  35) = (   0.4984280   0.0000000   2.2450704  )
        36           Cu  tau(  36) = (   0.0015717   0.0000000   2.2450704  )
        37           O   tau(  37) = (   0.2499998   0.0000000   2.2676286  )
        38           O   tau(  38) = (   0.7499995   0.0000000   2.2798982  )
        39           O   tau(  39) = (   0.5063781   0.2387265   2.2889034  )
        40           O   tau(  40) = (  -0.0063785   0.2387265   2.2889034  )
        41           Y   tau(  41) = (   0.7499995   0.2387265   2.4667969  )
        42           Ca  tau(  42) = (   0.2499998   0.2387265   2.4700665  )
        43           O   tau(  43) = (   0.7499995   0.0000000   2.6563644  )
        44           O   tau(  44) = (  -0.0083354   0.2387265   2.6567662  )
        45           O   tau(  45) = (   0.5083351   0.2387265   2.6567662  )
        46           O   tau(  46) = (   0.2499998   0.0000000   2.6795642  )
        47           Cu  tau(  47) = (   0.0019059   0.0000000   2.6928978  )
        48           Cu  tau(  48) = (   0.4980938   0.0000000   2.6928978  )
        49           Ba  tau(  49) = (   0.2499998   0.2387265   2.9382375  )
        50           Ba  tau(  50) = (   0.7499995   0.2387265   2.9387797  )
        51           O   tau(  51) = (  -0.0028895   0.0000000   2.9630869  )
        52           O   tau(  52) = (   0.5028891   0.0000000   2.9630869  )
        53           Cu  tau(  53) = (   0.5017844   0.0000000   3.2027714  )
        54           Cu  tau(  54) = (  -0.0017847   0.0000000   3.2027714  )
        55           O   tau(  55) = (   0.5008990   0.2387265   3.2359778  )
        56           O   tau(  56) = (  -0.0008994   0.2387265   3.2359778  )

     number of k points=    25  Gaussian smearing, width (Ry)=  0.0100
                       cart. coord. in units 2pi/alat
        k(    1) = (   0.0000000   0.0000000   0.0000000), wk =   0.0312500
        k(    2) = (   0.0000000   0.2618060   0.0000000), wk =   0.0625000
        k(    3) = (   0.0000000   0.5236121   0.0000000), wk =   0.0625000
        k(    4) = (   0.0000000   0.7854181   0.0000000), wk =   0.0625000
        k(    5) = (   0.0000000  -1.0472241   0.0000000), wk =   0.0312500
        k(    6) = (   0.1250000   0.0000000   0.0000000), wk =   0.0625000
        k(    7) = (   0.1250000   0.2618060   0.0000000), wk =   0.1250000
        k(    8) = (   0.1250000   0.5236121   0.0000000), wk =   0.1250000
        k(    9) = (   0.1250000   0.7854181   0.0000000), wk =   0.1250000
        k(   10) = (   0.1250000  -1.0472241   0.0000000), wk =   0.0625000
        k(   11) = (   0.2500000   0.0000000   0.0000000), wk =   0.0625000
        k(   12) = (   0.2500000   0.2618060   0.0000000), wk =   0.1250000
        k(   13) = (   0.2500000   0.5236121   0.0000000), wk =   0.1250000
        k(   14) = (   0.2500000   0.7854181   0.0000000), wk =   0.1250000
        k(   15) = (   0.2500000  -1.0472241   0.0000000), wk =   0.0625000
        k(   16) = (   0.3750000   0.0000000   0.0000000), wk =   0.0625000
        k(   17) = (   0.3750000   0.2618060   0.0000000), wk =   0.1250000
        k(   18) = (   0.3750000   0.5236121   0.0000000), wk =   0.1250000
        k(   19) = (   0.3750000   0.7854181   0.0000000), wk =   0.1250000
        k(   20) = (   0.3750000  -1.0472241   0.0000000), wk =   0.0625000
        k(   21) = (  -0.5000000   0.0000000   0.0000000), wk =   0.0312500
        k(   22) = (  -0.5000000   0.2618060   0.0000000), wk =   0.0625000
        k(   23) = (  -0.5000000   0.5236121   0.0000000), wk =   0.0625000
        k(   24) = (  -0.5000000   0.7854181   0.0000000), wk =   0.0625000
        k(   25) = (  -0.5000000  -1.0472241   0.0000000), wk =   0.0312500

     Initial potential from superposition of free atoms

     starting charge  455.69457, renormalised to  456.00000

     negative rho (up, down):  9.299E-02 0.000E+00
     Starting wfcs are  396 randomized atomic wfcs

     Self-consistent Calculation

     iteration #  1     ecut=    60.00 Ry     beta= 0.50
     Davidson diagonalization with overlap
     ethr =  1.00E-02,  avg # of iterations =  2.0

     negative rho (up, down):  8.607E-02 0.000E+00

     total energy              =   -3708.23078730 Ry
     Harris-Foulkes estimate   =   -3716.40431480 Ry
     estimated scf accuracy    <      31.11563493 Ry

[...]

     iteration # 18     ecut=    60.00 Ry     beta= 0.50
     Davidson diagonalization with overlap
     c_bands:  1 eigenvalues not converged
     c_bands:  1 eigenvalues not converged
     c_bands:  1 eigenvalues not converged
     ethr =  2.27E-06,  avg # of iterations =  9.9

[...]

     iteration # 26     ecut=    60.00 Ry     beta= 0.50
     Davidson diagonalization with overlap
     c_bands:  1 eigenvalues not converged
     ethr =  7.16E-09,  avg # of iterations =  4.6

[...]

     total energy              =   -3711.54210516 Ry
     Harris-Foulkes estimate   =   -3711.54210519 Ry
     estimated scf accuracy    <       0.00000002 Ry

     iteration # 35     ecut=    60.00 Ry     beta= 0.50
     Davidson diagonalization with overlap
     ethr =  3.59E-12,  avg # of iterations =  2.4

[...]

     End of self-consistent calculation

          k = 0.0000 0.0000 0.0000 ( 71173 PWs)   bands (ev):

   -38.2774 -38.2176 -35.9115 -35.8434 -23.0246 -23.0144 -22.9615 -22.8963
   -22.8861 -22.8626 -22.6969 -22.4526 -18.7506 -18.6992 -18.6503 -18.5919
   -18.2813 -18.2205 -17.2576 -17.1920 -17.1241 -17.0599 -16.9427 -16.8715
   -15.6551 -15.6152 -15.1978 -15.1797 -14.9807 -14.8692 -14.8099 -14.8034
   -14.7610 -14.7287 -14.6721 -14.6624 -14.6513 -14.6324 -14.5182 -14.5071
   -14.3411 -14.3008 -14.2288 -14.2001 -14.1915 -14.1898 -14.1844 -14.1752
   -14.1441 -14.0727 -13.9969 -13.9391 -13.0761 -12.6125  -8.2824  -8.2634
    -8.2459  -8.1556  -8.1432  -8.1014  -8.0737  -8.0641  -7.9690  -7.9356
    -7.9257  -7.8727  -7.8391  -7.8298  -7.8241  -7.7482  -7.7475  -7.6977
    -7.6957  -7.6941  -7.6877  -7.5152  -7.2980  -7.1943  -3.2025  -3.1809
    -3.0859  -2.9938  -2.3778  -2.3721  -2.2891  -2.2872  -2.2849  -2.2526
    -2.1401  -2.0909  -2.0829  -2.0563  -2.0496  -2.0180  -1.9912  -1.9723
    -1.9222  -1.8875  -1.8794  -1.8284  -1.7732  -1.7204  -1.5808  -1.5532
    -1.3918  -1.3449  -1.3310  -1.3081  -1.2434  -1.1735  -1.1412  -1.1274
    -1.1235  -1.1219  -1.1154  -1.1132  -1.0889  -1.0879  -1.0232  -0.9525
    -0.8982  -0.8915  -0.6468  -0.6047  -0.5364  -0.4716  -0.4608  -0.4525
    -0.4501  -0.4430  -0.4234  -0.4060  -0.3948  -0.3747  -0.3398  -0.3350
    -0.3334  -0.3332  -0.3158  -0.2778  -0.2503  -0.1805  -0.1586  -0.1474
    -0.1470  -0.1426  -0.1263  -0.1182  -0.0744  -0.0617  -0.0530  -0.0291
    -0.0269  -0.0265  -0.0239   0.0278   0.0715   0.0787   0.0987   0.1111
     0.1180   0.1244   0.1619   0.1958   0.2058   0.2214   0.2745   0.3166
     0.3531   0.3777   0.3809   0.3820   0.3950   0.4062   0.4107   0.4120
     0.5728   0.5999   0.6670   0.7265   0.7465   0.7833   0.8348   0.8461
     0.8605   0.8813   0.8858   0.9217   1.0006   1.0323   1.0457   1.0642
     1.0673   1.0729   1.0732   1.0785   1.1564   1.1797   1.1894   1.2239
     1.2282   1.2373   1.2517   1.2787   1.3119   1.3324   1.4028   1.4527
     1.4651   1.4968   1.5649   1.5713   1.5774   1.6374   1.6393   1.6443
     1.6764   1.6976   1.7120   1.7544   1.7970   1.9064   1.9185   1.9840
     2.0791   2.0847   2.2069   2.2504   2.2551   2.3270   2.3357   2.4316
     2.4334   2.4620   2.4728   2.5085   2.7109   2.7596   4.8569   5.0847
     5.1062   5.7543   5.8553   6.4500   6.4793   6.5769   6.7407   6.8107
     6.9542   7.1251   7.1358   7.2217   7.2286   7.3759   7.4312   7.8003
     7.8990   7.9449   7.9920   8.0020   8.0825   8.2987   8.3378   8.3382
     8.3637   8.4379   8.4948   8.5701   8.8343   8.9400   8.9895   9.0044
     9.0929   9.1721

[...]

          k = 0.3750-1.0472 0.0000 ( 71134 PWs)   bands (ev):

[...]

          k =-0.5000 0.0000 0.0000 ( 71168 PWs)   bands (ev):

[...]

          k =-0.5000-1.0472 0.0000 ( 71164 PWs)   bands (ev):

   -38.2589 -38.1992 -35.8999 -35.8318 -22.8265 -22.8218 -22.8112 -22.7920
   -22.7821 -22.6807 -22.5783 -22.3109 -18.9211 -18.8624 -18.5799 -18.5211
   -18.4562 -18.4035 -17.3339 -17.2630 -17.1556 -17.0924 -17.0498 -16.9848
   -14.9525 -14.9231 -14.8722 -14.8584 -14.7310 -14.6958 -14.6646 -14.6376
   -14.6340 -14.6082 -14.5861 -14.5027 -14.4804 -14.4660 -14.4537 -14.4397
   -14.4290 -14.4011 -14.1984 -14.1965 -14.1927 -14.1911 -14.1194 -14.0750
   -14.0741 -14.0733 -14.0627 -14.0618 -12.8897 -12.8774  -8.6066  -8.5967
    -8.5559  -8.5461  -8.4545  -8.3909  -8.3771  -8.2817  -8.2716  -8.2581
    -8.2488  -8.2178  -8.1803  -8.1778  -8.1675  -8.1668  -8.1386  -8.1295
    -8.1049  -7.9547  -7.8817  -7.8153  -7.7869  -7.7254  -4.0203  -3.9819
    -3.7920  -3.7574  -3.6305  -3.5654  -3.5276  -3.4401  -3.1997  -3.1988
    -3.1907  -3.1897  -3.1543  -3.1005  -2.5465  -2.5374  -2.4423  -2.4291
    -2.3855  -2.3300  -2.3134  -2.2784  -2.2778  -2.2661  -2.1936  -2.1805
    -2.1747  -2.1427  -2.1150  -2.0950  -2.0410  -1.9597  -1.9481  -1.9471
    -1.9174  -1.9007  -1.6857  -1.6428  -1.5658  -1.5190  -1.3520  -1.3293
    -1.3172  -1.3120  -1.2848  -1.2737  -1.1118  -1.0749  -1.0273  -1.0030
    -0.9978  -0.9726  -0.9239  -0.9001  -0.8826  -0.8823  -0.8717  -0.8630
    -0.7783  -0.7527  -0.7347  -0.7025  -0.6975  -0.6015  -0.5204  -0.5169
    -0.5020  -0.4796  -0.4294  -0.4071  -0.2491  -0.2192   0.0254   0.0618
     0.2421   0.2481   0.3131   0.3208   0.3548   0.3692   0.3775   0.3980
     0.4016   0.4446   0.5244   0.6316   0.6386   0.8500   0.8519   0.9009
     0.9122   0.9318   0.9505   0.9867   0.9881   1.0184   1.0220   1.0678
     1.0732   1.0743   1.1372   1.1654   1.1813   1.1986   1.2125   1.2384
     1.2522   1.2898   1.3003   1.3169   1.3199   1.3395   1.3635   1.3694
     1.4155   1.4443   1.4567   1.5709   1.6382   1.6522   1.7045   1.7192
     1.7238   1.7534   1.8208   1.8510   1.8664   1.8783   1.9374   1.9448
     1.9686   1.9987   2.0123   2.0490   2.0499   2.0609   2.0625   2.1773
     2.2046   2.2637   2.2959   2.3369   2.3975   2.4059   2.4064   2.4152
     2.5519   2.5544   2.5935   2.6137   2.7995   2.8747   3.3166   3.3470
     3.3802   3.4124   3.4755   3.5080   3.5871   3.6082   6.0925   6.5792
     6.5876   6.5983   6.6317   6.7864   6.8497   7.1839   7.3935   7.4548
     7.7873   8.0182   8.0804   8.0846   8.3269   8.7336   8.7765   8.9130
     8.9883   9.0288   9.0552   9.1679   9.2286   9.2342   9.2435   9.2617
     9.3094   9.3612   9.4642   9.4683   9.6022   9.6381   9.6381   9.6511
     9.6566   9.6651

     the Fermi energy is     2.5778 ev

!    total energy              =   -3711.54210515 Ry
     Harris-Foulkes estimate   =   -3711.54210516 Ry
     estimated scf accuracy    <          3.6E-09 Ry

     The total energy is the sum of the following terms:

     one-electron contribution =  -57772.66064330 Ry
     hartree contribution      =   29190.48857555 Ry
     xc contribution           =   -1263.80129096 Ry
     ewald contribution        =   26134.45055569 Ry
     smearing contrib. (-TS)   =      -0.01930215 Ry

     convergence has been achieved in  35 iterations

     negative rho (up, down):  9.193E-02 0.000E+00

     Forces acting on atoms (cartesian axes, Ry/au):

     atom    1 type  4   force =    -0.00001091    0.00000000   -0.00045389
     atom    2 type  4   force =     0.00001091    0.00000000   -0.00045389
     atom    3 type  3   force =    -0.00000707    0.00000000    0.00010997
     atom    4 type  3   force =     0.00000707    0.00000000    0.00010997
     atom    5 type  4   force =     0.00000125    0.00000000    0.00007953
     atom    6 type  4   force =    -0.00000125    0.00000000    0.00007953
     atom    7 type  1   force =     0.00000000    0.00000000   -0.00035933
     atom    8 type  1   force =     0.00000000    0.00000000   -0.00032844
     atom    9 type  3   force =     0.00012677    0.00000000   -0.00028257
     atom   10 type  3   force =    -0.00012677    0.00000000   -0.00028257
     atom   11 type  4   force =     0.00000000    0.00000000    0.00101921
     atom   12 type  4   force =     0.00003834    0.00000000    0.00122932
     atom   13 type  4   force =    -0.00003834    0.00000000    0.00122932
     atom   14 type  4   force =     0.00000000    0.00000000    0.00133506
     atom   15 type  2   force =     0.00000000    0.00000000   -0.00299238
     atom   16 type  5   force =     0.00000000    0.00000000   -0.00443885
     atom   17 type  4   force =     0.00086310    0.00000000    0.00557344
     atom   18 type  4   force =    -0.00086310    0.00000000    0.00557344
     atom   19 type  4   force =     0.00000000    0.00000000    0.00369847
     atom   20 type  4   force =     0.00000000    0.00000000    0.00478436
     atom   21 type  3   force =     0.00048576    0.00000000   -0.00149529
     atom   22 type  3   force =    -0.00048576    0.00000000   -0.00149529
     atom   23 type  1   force =     0.00000000    0.00000000    0.00730961
     atom   24 type  1   force =     0.00000000    0.00000000    0.01356355
     atom   25 type  4   force =     0.00237900    0.00000000   -0.01663506
     atom   26 type  4   force =    -0.00237900    0.00000000   -0.01663506
     atom   27 type  4   force =    -0.01120619    0.00000000    0.02797651
     atom   28 type  4   force =     0.01120619    0.00000000    0.02797651
     atom   29 type  3   force =     0.01118256    0.00000000   -0.01751760
     atom   30 type  3   force =    -0.01118256    0.00000000   -0.01751760
     atom   31 type  4   force =     0.01361762    0.00000000    0.02187858
     atom   32 type  4   force =    -0.01361762    0.00000000    0.02187858
     atom   33 type  1   force =     0.00000000    0.00000000   -0.01215308
     atom   34 type  1   force =     0.00000000    0.00000000   -0.01818429
     atom   35 type  3   force =    -0.00333891    0.00000000   -0.02044186
     atom   36 type  3   force =     0.00333891    0.00000000   -0.02044186
     atom   37 type  4   force =     0.00000000    0.00000000    0.00369677
     atom   38 type  4   force =     0.00000000    0.00000000    0.00110385
     atom   39 type  4   force =     0.00273863    0.00000000    0.00073572
     atom   40 type  4   force =    -0.00273863    0.00000000    0.00073572
     atom   41 type  5   force =     0.00000000    0.00000000    0.00191118
     atom   42 type  2   force =     0.00000000    0.00000000    0.00028435
     atom   43 type  4   force =     0.00000000    0.00000000    0.00018909
     atom   44 type  4   force =     0.00003374    0.00000000   -0.00119620
     atom   45 type  4   force =    -0.00003374    0.00000000   -0.00119620
     atom   46 type  4   force =     0.00000000    0.00000000   -0.00004946
     atom   47 type  3   force =    -0.00004060    0.00000000    0.00030403
     atom   48 type  3   force =     0.00004060    0.00000000    0.00030403
     atom   49 type  1   force =     0.00000000    0.00000000    0.00017571
     atom   50 type  1   force =     0.00000000    0.00000000    0.00022284
     atom   51 type  4   force =    -0.00004089    0.00000000   -0.00071986
     atom   52 type  4   force =     0.00004089    0.00000000   -0.00071986
     atom   53 type  3   force =    -0.00003632    0.00000000    0.00080902
     atom   54 type  3   force =     0.00003632    0.00000000    0.00080902
     atom   55 type  4   force =     0.00002419    0.00000000   -0.00034788
     atom   56 type  4   force =    -0.00002419    0.00000000   -0.00034788

     Total force =     0.079550     Total SCF correction =     0.000255

     Computing stress (Cartesian axis) and pressure

     negative rho (up, down):  9.193E-02 0.000E+00
          total   stress  (Ry/bohr**3)                   (kbar)     P=       -6.22
  -0.00000209   0.00000000   0.00000000           -0.31        0.00        0.00
   0.00000000  -0.00008383   0.00000000            0.00      -12.33        0.00
   0.00000000   0.00000000  -0.00004097            0.00        0.00       -6.03

     General routines

     Parallel routines

   This run was terminated on:  10:33: 8  28May2021

   JOB DONE.
[1622212388.232491] [holy7c04108:100022:0]          mpool.c:43   UCX  WARN  object 0x47de700 was not returned to mpool ucp_requests
[1622212388.234158] [holy7c04112:122383:0]          mpool.c:43   UCX  WARN  object 0x3bc15c0 was not returned to mpool ucp_requests
[1622212388.234178] [holy7c04112:122383:0]          mpool.c:43   UCX  WARN  object 0x3bc1780 was not returned to mpool ucp_requests
[1622212388.242781] [holy7c04109:259674:0]          mpool.c:43   UCX  WARN  object 0x29a06c0 was not returned to mpool ucp_requests
[1622212388.242806] [holy7c04109:259674:0]          mpool.c:43   UCX  WARN  object 0x29a0880 was not returned to mpool ucp_requests
[1622212388.249616] [holy7c04203:262166:0]          mpool.c:43   UCX  WARN  object 0x44f3b80 was not returned to mpool ucp_requests
[1622212388.251332] [holy7c04111:140027:0]          mpool.c:43   UCX  WARN  object 0x46d3ec0 was not returned to mpool ucp_requests
[1622212388.240230] [holy7c04108:100021:0]          mpool.c:43   UCX  WARN  object 0x3a7ad00 was not returned to mpool ucp_requests
[1622212388.241740] [holy7c04108:100023:0]          mpool.c:43   UCX  WARN  object 0x29fde40 was not returned to mpool ucp_requests
[1622212388.241756] [holy7c04108:100023:0]          mpool.c:43   UCX  WARN  object 0x29fe1c0 was not returned to mpool ucp_requests
[1622212388.249118] [holy7c04203:262165:0]          mpool.c:43   UCX  WARN  object 0x3b5dfc0 was not returned to mpool ucp_requests
[1622212388.252710] [holy7c04111:140023:0]          mpool.c:43   UCX  WARN  object 0x36d5a00 was not returned to mpool ucp_requests
[1622212388.261460] [holy7c04111:140024:0]          mpool.c:43   UCX  WARN  object 0x3fb48c0 was not returned to mpool ucp_requests
[1622212388.261488] [holy7c04111:140024:0]          mpool.c:43   UCX  WARN  object 0x3fb4e00 was not returned to mpool ucp_requests
[1622212388.247207] [holy7c04111:140031:0]          mpool.c:43   UCX  WARN  object 0x3112680 was not returned to mpool ucp_requests
[1622212388.250921] [holy7c04111:140029:0]          mpool.c:43   UCX  WARN  object 0x37bc180 was not returned to mpool ucp_requests
[1622212388.250956] [holy7c04111:140029:0]          mpool.c:43   UCX  WARN  object 0x37bc880 was not returned to mpool ucp_requests
[1622212388.254550] [holy7c04111:140032:0]          mpool.c:43   UCX  WARN  object 0x2c447c0 was not returned to mpool ucp_requests