     Program PWSCF v.6.5 starts on 27May2021 at 23:55:19

     R & G space division:  proc/nbgrp/npool/nimage =      32
     Reading input from YCBCO50_212_Y_cleave_0.25_sep.pwi
Warning: card &IONS ignored
Warning: card     ION_DYNAMICS = 'BFGS' ignored
Warning: card / ignored
Warning: card &CELL ignored
Warning: card     CELL_DYNAMICS = 'BFGS' ignored
Warning: card     PRESS_CONV_THR = 5 ignored
Warning: card / ignored

     Current dimensions of program PWSCF are:
     Max number of different atomic species (ntypx) = 10
     Max number of k-points (npk) =  40000
     Max angular momentum in pseudopotentials (lmaxx) =  3

     Message from routine setup:
     using ibrav=0 with symmetry is DISCOURAGED, use correct ibrav instead

     bravais-lattice index     =            0
     lattice parameter (alat)  =      14.8133  a.u.
     unit-cell volume          =    8766.7572 (a.u.)^3
     number of atoms/cell      =           56
     number of atomic types    =            5
     number of electrons       =       456.00
     number of Kohn-Sham states=          274
     kinetic-energy cutoff     =      60.0000  Ry
     charge density cutoff     =     720.0000  Ry
     convergence threshold     =      1.0E-08
     mixing beta               =       0.5000
     number of iterations used =           10  local-TF  mixing
     Exchange-correlation= SLA PW PBE PBE
                           (   1   4   3   4   0   0   0)

     celldm(1)=  14.813271  celldm(2)=   0.000000  celldm(3)=   0.000000
     celldm(4)=   0.000000  celldm(5)=   0.000000  celldm(6)=   0.000000

     crystal axes: (cart. coord. in units of alat)
               a(1) = (   1.000000   0.000000   0.000000 )
               a(2) = (   0.000000   0.477453   0.000000 )
               a(3) = (   0.000000   0.000000   5.648794 )

     reciprocal axes: (cart. coord. in units 2 pi/alat)
               b(1) = (  1.000000  0.000000  0.000000 )
               b(2) = (  0.000000  2.094448  0.000000 )
               b(3) = (  0.000000  0.000000  0.177029 )

     PseudoPot. # 1 for Ba read from file:
     ./pseudo/Ba.pbe-nsp-van.UPF
     MD5 check sum: 2b9c31dd849566dd297d80989662b7a0
     Pseudo is Ultrasoft + core correction, Zval = 10.0
     Generated by new atomic code, or converted to UPF format
     Using radial grid of  907 points,  6 beta functions with:
                l(1) =   0
                l(2) =   0
                l(3) =   1
                l(4) =   1
                l(5) =   2
                l(6) =   2
     Q(r) pseudized with  6 coefficients,  rinner =    1.200   1.200   1.200
                                                       1.200   1.200

     PseudoPot. # 2 for Ca read from file:
     ./pseudo/Ca.pbe-nsp-van.UPF
     MD5 check sum: 6471098428ff4fa451746d08035ff179
     Pseudo is Ultrasoft + core correction, Zval = 10.0
     Generated by new atomic code, or converted to UPF format
     Using radial grid of  845 points,  6 beta functions with:
                l(1) =   0
                l(2) =   0
                l(3) =   1
                l(4) =   1
                l(5) =   2
                l(6) =   2
     Q(r) pseudized with  6 coefficients,  rinner =    1.200   1.200   1.200
                                                       1.200   1.200

     PseudoPot. # 3 for Cu read from file:
     ./pseudo/Cu.pbe-n-van_ak.UPF
     MD5 check sum: 34e3282627ffb533726feb647e090d62
     Pseudo is Ultrasoft + core correction, Zval = 11.0
     Generated by new atomic code, or converted to UPF format
     Using radial grid of  867 points,  6 beta functions with:
                l(1) =   0
                l(2) =   0
                l(3) =   1
                l(4) =   1
                l(5) =   2
                l(6) =   2
     Q(r) pseudized with  8 coefficients,  rinner =    1.400   1.400   1.400
                                                       1.400   1.400

     PseudoPot. # 4 for O  read from file:
     ./pseudo/O.pbe-van_ak.UPF
     MD5 check sum: 783ce7fe4c79b6a4916957118fed0856
     Pseudo is Ultrasoft, Zval =  6.0
     Generated by new atomic code, or converted to UPF format
     Using radial grid of  737 points,  4 beta functions with:
                l(1) =   0
                l(2) =   0
                l(3) =   1
                l(4) =   1
     Q(r) pseudized with  8 coefficients,  rinner =    0.800   0.800   0.800

     PseudoPot. # 5 for Y  read from file:
     ./pseudo/Y.pbe-nsp-van.UPF
     MD5 check sum: 4412fed3ab108fed87a1b7d6a69a4a38
     Pseudo is Ultrasoft + core correction, Zval = 11.0
     Generated by new atomic code, or converted to UPF format
     Using radial grid of  885 points,  6 beta functions with:
                l(1) =   0
                l(2) =   0
                l(3) =   1
                l(4) =   1
                l(5) =   2
                l(6) =   2
     Q(r) pseudized with  6 coefficients,  rinner =    1.200   1.200   1.200
                                                       1.200   1.200

     atomic species   valence    mass     pseudopotential
        Ba            10.00   137.32700     Ba( 1.00)
        Ca            10.00    40.07800     Ca( 1.00)
        Cu            11.00    63.54600     Cu( 1.00)
        O              6.00    15.99900     O ( 1.00)
        Y             11.00    88.90584     Y ( 1.00)

      4 Sym. Ops. (no inversion) found ( 2 have fractional translation)

   Cartesian axes

     site n.     atom                  positions (alat units)
         1           O   tau(   1) = (  -0.0008343   0.2387265  -0.0222443  )
         2           O   tau(   2) = (   0.5008340   0.2387265  -0.0222443  )
         3           Cu  tau(   3) = (   0.5017257   0.0000000   0.0109608  )
         4           Cu  tau(   4) = (  -0.0017260   0.0000000   0.0109608  )
         5           O   tau(   5) = (  -0.0028933   0.0000000   0.2506504  )
         6           O   tau(   6) = (   0.5028929   0.0000000   0.2506504  )
         7           Ba  tau(   7) = (   0.7499995   0.2387265   0.2749435  )
         8           Ba  tau(   8) = (   0.2499998   0.2387265   0.2755214  )
         9           Cu  tau(   9) = (   0.4980963   0.0000000   0.5208446  )
        10           Cu  tau(  10) = (   0.0019033   0.0000000   0.5208446  )
        11           O   tau(  11) = (   0.2499998   0.0000000   0.5341884  )
        12           O   tau(  12) = (   0.5083351   0.2387265   0.5569851  )
        13           O   tau(  13) = (  -0.0083354   0.2387265   0.5569851  )
        14           O   tau(  14) = (   0.7499995   0.0000000   0.5573831  )
        15           Ca  tau(  15) = (   0.2499998   0.2387265   0.7436937  )
        16           Y   tau(  16) = (   0.7499995   0.2387265   0.7469544  )
        17           O   tau(  17) = (  -0.0063798   0.2387265   0.9248530  )
        18           O   tau(  18) = (   0.5063794   0.2387265   0.9248530  )
        19           O   tau(  19) = (   0.7499995   0.0000000   0.9338544  )
        20           O   tau(  20) = (   0.2499998   0.0000000   0.9461329  )
        21           Cu  tau(  21) = (   0.0015717   0.0000000   0.9686860  )
        22           Cu  tau(  22) = (   0.4984280   0.0000000   0.9686860  )
        23           Ba  tau(  23) = (   0.2499998   0.2387265   1.2085224  )
        24           Ba  tau(  24) = (   0.7499995   0.2387265   1.2233294  )
        25           O   tau(  25) = (   0.0063772   0.0000000   1.2547537  )
        26           O   tau(  26) = (   0.4936224   0.0000000   1.2547537  )
        27           O   tau(  27) = (   0.5384045   0.2387265   1.4952521  )
        28           O   tau(  28) = (  -0.0384049   0.2387265   1.4952521  )
        29           Cu  tau(  29) = (   0.5006120   0.0000000   1.4952546  )
        30           Cu  tau(  30) = (  -0.0006123   0.0000000   1.4952546  )
        31           O   tau(  31) = (   0.4936212   0.0000000   1.7357531  )
        32           O   tau(  32) = (   0.0063785   0.0000000   1.7357531  )
        33           Ba  tau(  33) = (   0.7499995   0.2387265   1.7671824  )
        34           Ba  tau(  34) = (   0.2499998   0.2387265   1.7819920  )
        35           Cu  tau(  35) = (   0.4984280   0.0000000   2.0218232  )
        36           Cu  tau(  36) = (   0.0015717   0.0000000   2.0218232  )
        37           O   tau(  37) = (   0.2499998   0.0000000   2.0443814  )
        38           O   tau(  38) = (   0.7499995   0.0000000   2.0566511  )
        39           O   tau(  39) = (   0.5063781   0.2387265   2.0656562  )
        40           O   tau(  40) = (  -0.0063785   0.2387265   2.0656562  )
        41           Y   tau(  41) = (   0.7499995   0.2387265   2.2435498  )
        42           Ca  tau(  42) = (   0.2499998   0.2387265   2.2468194  )
        43           O   tau(  43) = (   0.7499995   0.0000000   2.4650097  )
        44           O   tau(  44) = (  -0.0083354   0.2387265   2.4654115  )
        45           O   tau(  45) = (   0.5083351   0.2387265   2.4654115  )
        46           O   tau(  46) = (   0.2499998   0.0000000   2.4882095  )
        47           Cu  tau(  47) = (   0.0019059   0.0000000   2.5015431  )
        48           Cu  tau(  48) = (   0.4980938   0.0000000   2.5015431  )
        49           Ba  tau(  49) = (   0.2499998   0.2387265   2.7468828  )
        50           Ba  tau(  50) = (   0.7499995   0.2387265   2.7474250  )
        51           O   tau(  51) = (  -0.0028895   0.0000000   2.7717321  )
        52           O   tau(  52) = (   0.5028891   0.0000000   2.7717321  )
        53           Cu  tau(  53) = (   0.5017844   0.0000000   3.0114167  )
        54           Cu  tau(  54) = (  -0.0017847   0.0000000   3.0114167  )
        55           O   tau(  55) = (   0.5008990   0.2387265   3.0446231  )
        56           O   tau(  56) = (  -0.0008994   0.2387265   3.0446231  )

     number of k points=    25  Gaussian smearing, width (Ry)=  0.0100
                       cart. coord. in units 2pi/alat
        k(    1) = (   0.0000000   0.0000000   0.0000000), wk =   0.0312500
        k(    2) = (   0.0000000   0.2618060   0.0000000), wk =   0.0625000
        k(    3) = (   0.0000000   0.5236121   0.0000000), wk =   0.0625000
        k(    4) = (   0.0000000   0.7854181   0.0000000), wk =   0.0625000
        k(    5) = (   0.0000000  -1.0472241   0.0000000), wk =   0.0312500
        k(    6) = (   0.1250000   0.0000000   0.0000000), wk =   0.0625000
        k(    7) = (   0.1250000   0.2618060   0.0000000), wk =   0.1250000
        k(    8) = (   0.1250000   0.5236121   0.0000000), wk =   0.1250000
        k(    9) = (   0.1250000   0.7854181   0.0000000), wk =   0.1250000
        k(   10) = (   0.1250000  -1.0472241   0.0000000), wk =   0.0625000
        k(   11) = (   0.2500000   0.0000000   0.0000000), wk =   0.0625000
        k(   12) = (   0.2500000   0.2618060   0.0000000), wk =   0.1250000
        k(   13) = (   0.2500000   0.5236121   0.0000000), wk =   0.1250000
        k(   14) = (   0.2500000   0.7854181   0.0000000), wk =   0.1250000
        k(   15) = (   0.2500000  -1.0472241   0.0000000), wk =   0.0625000
        k(   16) = (   0.3750000   0.0000000   0.0000000), wk =   0.0625000
        k(   17) = (   0.3750000   0.2618060   0.0000000), wk =   0.1250000
        k(   18) = (   0.3750000   0.5236121   0.0000000), wk =   0.1250000
        k(   19) = (   0.3750000   0.7854181   0.0000000), wk =   0.1250000
        k(   20) = (   0.3750000  -1.0472241   0.0000000), wk =   0.0625000
        k(   21) = (  -0.5000000   0.0000000   0.0000000), wk =   0.0312500
        k(   22) = (  -0.5000000   0.2618060   0.0000000), wk =   0.0625000
        k(   23) = (  -0.5000000   0.5236121   0.0000000), wk =   0.0625000
        k(   24) = (  -0.5000000   0.7854181   0.0000000), wk =   0.0625000
        k(   25) = (  -0.5000000  -1.0472241   0.0000000), wk =   0.0312500

     Initial potential from superposition of free atoms

     starting charge  455.69457, renormalised to  456.00000

     negative rho (up, down):  9.338E-02 0.000E+00
     Starting wfcs are  396 randomized atomic wfcs

     Self-consistent Calculation

     iteration #  1     ecut=    60.00 Ry     beta= 0.50
     Davidson diagonalization with overlap
     ethr =  1.00E-02,  avg # of iterations =  2.0

     negative rho (up, down):  8.601E-02 0.000E+00

     total energy              =   -3708.57330616 Ry
     Harris-Foulkes estimate   =   -3716.41932303 Ry
     estimated scf accuracy    <      29.39766216 Ry

[...]

     iteration # 10     ecut=    60.00 Ry     beta= 0.50
     Davidson diagonalization with overlap
     c_bands:  1 eigenvalues not converged
     ethr =  8.76E-05,  avg # of iterations =  3.5

[...]

     iteration # 24     ecut=    60.00 Ry     beta= 0.50
     Davidson diagonalization with overlap
     c_bands:  1 eigenvalues not converged
     ethr =  1.13E-08,  avg # of iterations =  3.2

[...]

     total energy              =   -3711.74737889 Ry
     Harris-Foulkes estimate   =   -3711.74737885 Ry
     estimated scf accuracy    <       0.00000002 Ry

     iteration # 33     ecut=    60.00 Ry     beta= 0.50
     Davidson diagonalization with overlap
     ethr =  4.08E-12,  avg # of iterations =  3.0

[...]

     End of self-consistent calculation

          k = 0.0000 0.0000 0.0000 ( 68823 PWs)   bands (ev):

   -38.5802 -37.9442 -36.1198 -35.5707 -22.7415 -22.6626 -22.6131 -22.5358
   -22.5131 -22.4454 -22.3666 -22.2913 -18.8091 -18.7941 -18.5434 -18.4196
   -18.3156 -17.9473 -17.3014 -17.2660 -17.1369 -16.9189 -16.7840 -16.6003
   -15.3320 -15.2649 -14.9057 -14.8720 -14.7889 -14.7059 -14.6173 -14.5926
   -14.5656 -14.4750 -14.3983 -14.3976 -14.3802 -14.3784 -14.3394 -14.2252
   -14.0574 -14.0230 -13.9603 -13.9212 -13.9173 -13.9088 -13.9022 -13.9015
   -13.8166 -13.8038 -13.7285 -13.5225 -13.4559 -13.3944  -7.9792  -7.8756
    -7.8666  -7.8602  -7.7910  -7.7738  -7.7376  -7.7228  -7.6528  -7.6463
    -7.6072  -7.5813  -7.5565  -7.5064  -7.4901  -7.4447  -7.4148  -7.3885
    -7.3428  -7.3277  -7.3197  -7.2371  -7.1695  -7.0967  -2.9079  -2.8443
    -2.7643  -2.7274  -2.0985  -2.0765  -2.0120  -2.0006  -1.9820  -1.9716
    -1.9625  -1.9344  -1.8259  -1.8019  -1.7568  -1.7164  -1.6633  -1.6531
    -1.5860  -1.5594  -1.5483  -1.4518  -1.4497  -1.3854  -1.3319  -1.2739
    -1.2510  -1.2217  -1.1351  -1.0589  -1.0423  -1.0262  -0.9871  -0.8480
    -0.8480  -0.8474  -0.8469  -0.8455  -0.7949  -0.7890  -0.7704  -0.7412
    -0.7117  -0.6914  -0.6198  -0.6177  -0.6072  -0.6045  -0.5154  -0.4387
    -0.4216  -0.2753  -0.2601  -0.2488  -0.2041  -0.1805  -0.1679  -0.1466
    -0.0980  -0.0798  -0.0612  -0.0565  -0.0435  -0.0211   0.0849   0.0904
     0.0991   0.1184   0.1240   0.1291   0.1319   0.1661   0.1838   0.2173
     0.2376   0.2519   0.2544   0.2824   0.3277   0.3450   0.3476   0.3830
     0.3869   0.4450   0.4452   0.4600   0.4798   0.4832   0.4862   0.4911
     0.5042   0.5650   0.6232   0.6587   0.6789   0.6798   0.6905   0.7299
     0.7855   0.8505   0.9046   0.9056   0.9460   1.0679   1.1174   1.1290
     1.1525   1.1754   1.1998   1.2438   1.2493   1.2633   1.3237   1.3427
     1.3521   1.3581   1.3669   1.3928   1.4013   1.4779   1.4988   1.5168
     1.5395   1.5564   1.5694   1.6160   1.6188   1.6702   1.7040   1.7269
     1.7621   1.7938   1.8430   1.8569   1.8662   1.9181   1.9578   1.9733
     1.9744   1.9816   1.9818   2.0079   2.0669   2.1905   2.2604   2.2761
     2.3736   2.3796   2.3856   2.4181   2.4535   2.4903   2.5723   2.5761
     2.6797   2.7117   2.7135   2.8467   2.9891   3.0233   5.3020   5.3575
     5.6404   5.9509   6.2913   6.6783   6.7704   6.8211   7.1261   7.4036
     7.4167   7.4521   7.4964   7.4983   7.6404   7.7778   7.8419   8.0995
     8.1807   8.1837   8.2816   8.2820   8.4070   8.6317   8.6378   8.7099
     8.7417   8.9294   9.0459   9.1395   9.1842   9.2018   9.2096   9.3253
     9.3631   9.4228

[...]

          k = 0.3750-1.0472 0.0000 ( 68774 PWs)   bands (ev):

[...]

          k =-0.5000 0.0000 0.0000 ( 68956 PWs)   bands (ev):

[...]

          k =-0.5000-1.0472 0.0000 ( 68772 PWs)   bands (ev):

   -38.5641 -37.9257 -36.1094 -35.5591 -22.5385 -22.5090 -22.4538 -22.4369
   -22.3283 -22.2635 -22.2540 -22.1754 -19.0172 -18.7467 -18.5991 -18.5877
   -18.2454 -18.1246 -17.4182 -17.2687 -17.1567 -16.9915 -16.8155 -16.7109
   -14.6484 -14.6067 -14.5863 -14.5574 -14.4768 -14.4224 -14.4082 -14.3616
   -14.3484 -14.3037 -14.2820 -14.2285 -14.2068 -14.1942 -14.1544 -14.1531
   -14.1121 -14.0807 -14.0388 -14.0121 -13.9943 -13.9523 -13.8175 -13.7950
   -13.7942 -13.7928 -13.7921 -13.7897 -13.6502 -13.6397  -8.3238  -8.2732
    -8.2525  -8.2117  -8.1089  -8.0243  -7.9999  -7.9987  -7.9753  -7.9280
    -7.9257  -7.9085  -7.8963  -7.8938  -7.8559  -7.7952  -7.7913  -7.7880
    -7.7798  -7.7494  -7.6272  -7.5873  -7.5009  -7.4559  -3.7049  -3.6080
    -3.4858  -3.4018  -3.3258  -3.2904  -3.2533  -3.1896  -3.1000  -3.0964
    -2.9219  -2.9213  -2.9190  -2.9182  -2.2636  -2.2080  -2.1532  -2.1411
    -2.1104  -2.0790  -2.0178  -2.0173  -2.0084  -1.9856  -1.9305  -1.9155
    -1.8627  -1.8370  -1.8273  -1.8223  -1.8129  -1.7785  -1.7051  -1.6770
    -1.6672  -1.6254  -1.4022  -1.3472  -1.3420  -1.2600  -1.2524  -1.1918
    -1.0591  -1.0365  -1.0351  -1.0069  -0.9279  -0.9164  -0.7934  -0.7917
    -0.7663  -0.7003  -0.6780  -0.6644  -0.6574  -0.6423  -0.6255  -0.6025
    -0.5995  -0.5953  -0.5832  -0.5800  -0.5385  -0.5020  -0.4152  -0.4065
    -0.3693  -0.3310  -0.2254  -0.2209  -0.2163  -0.1894   0.2516   0.2589
     0.3868   0.3944   0.4577   0.4610   0.6030   0.6380   0.6388   0.6862
     0.6926   0.7071   0.7539   0.8712   0.8859   1.0304   1.0636   1.1738
     1.1983   1.2103   1.2168   1.2448   1.2736   1.3100   1.3106   1.3407
     1.3487   1.3585   1.4177   1.4405   1.4499   1.4741   1.4832   1.5043
     1.5169   1.5615   1.5624   1.5879   1.5890   1.5945   1.6270   1.6601
     1.6824   1.7244   1.7621   1.8496   1.8867   1.9089   1.9109   1.9412
     1.9769   2.0003   2.0061   2.0257   2.0286   2.0676   2.0747   2.0781
     2.1617   2.1731   2.2042   2.2461   2.2587   2.2812   2.3276   2.3286
     2.3318   2.3434   2.3719   2.6627   2.6754   2.6772   2.6843   2.6872
     2.8462   2.8596   2.8603   2.8738   3.6174   3.6472   3.6966   3.7082
     3.7820   3.8065   3.8858   3.9085   4.2313   4.3358   6.1988   6.5394
     6.8593   6.8608   6.9122   6.9353   6.9880   7.1396   7.3362   7.7541
     8.1104   8.2520   8.4038   8.7501   8.9886   9.0256   9.0527   9.2164
     9.2579   9.2951   9.3163   9.4107   9.5310   9.5360   9.5758   9.5978
     9.6936   9.7629   9.8169   9.8244   9.8728   9.8892   9.9165   9.9545
     9.9655   9.9677

     the Fermi energy is     2.8554 ev

!    total energy              =   -3711.74737886 Ry
     Harris-Foulkes estimate   =   -3711.74737889 Ry
     estimated scf accuracy    <          8.8E-09 Ry

     The total energy is the sum of the following terms:

     one-electron contribution =  -64480.72807533 Ry
     hartree contribution      =   32548.61096265 Ry
     xc contribution           =   -1264.04063303 Ry
     ewald contribution        =   29484.42351394 Ry
     smearing contrib. (-TS)   =      -0.01314708 Ry

     convergence has been achieved in  33 iterations

     negative rho (up, down):  9.197E-02 0.000E+00

     Forces acting on atoms (cartesian axes, Ry/au):

     atom    1 type  4   force =    -0.00000551    0.00000000   -0.00010183
     atom    2 type  4   force =     0.00000551    0.00000000   -0.00010183
     atom    3 type  3   force =    -0.00002078    0.00000000   -0.00016566
     atom    4 type  3   force =     0.00002078    0.00000000   -0.00016566
     atom    5 type  4   force =    -0.00000057    0.00000000   -0.00005979
     atom    6 type  4   force =     0.00000057    0.00000000   -0.00005979
     atom    7 type  1   force =     0.00000000    0.00000000   -0.00006413
     atom    8 type  1   force =     0.00000000    0.00000000   -0.00006171
     atom    9 type  3   force =     0.00001198    0.00000000   -0.00003672
     atom   10 type  3   force =    -0.00001198    0.00000000   -0.00003672
     atom   11 type  4   force =     0.00000000    0.00000000   -0.00001186
     atom   12 type  4   force =    -0.00001318    0.00000000   -0.00005780
     atom   13 type  4   force =     0.00001318    0.00000000   -0.00005780
     atom   14 type  4   force =     0.00000000    0.00000000   -0.00004192
     atom   15 type  2   force =     0.00000000    0.00000000   -0.00007606
     atom   16 type  5   force =     0.00000000    0.00000000   -0.00008698
     atom   17 type  4   force =     0.00002326    0.00000000    0.00003133
     atom   18 type  4   force =    -0.00002326    0.00000000    0.00003133
     atom   19 type  4   force =     0.00000000    0.00000000    0.00002695
     atom   20 type  4   force =     0.00000000    0.00000000    0.00010776
     atom   21 type  3   force =    -0.00003776    0.00000000   -0.00006168
     atom   22 type  3   force =     0.00003776    0.00000000   -0.00006168
     atom   23 type  1   force =     0.00000000    0.00000000   -0.00019486
     atom   24 type  1   force =     0.00000000    0.00000000   -0.00025680
     atom   25 type  4   force =    -0.00001499    0.00000000    0.00060399
     atom   26 type  4   force =     0.00001499    0.00000000    0.00060399
     atom   27 type  4   force =     0.00020499    0.00000000    0.00078782
     atom   28 type  4   force =    -0.00020499    0.00000000    0.00078782
     atom   29 type  3   force =     0.00004960    0.00000000   -0.00117521
     atom   30 type  3   force =    -0.00004960    0.00000000   -0.00117521
     atom   31 type  4   force =     0.00018441    0.00000000    0.00124612
     atom   32 type  4   force =    -0.00018441    0.00000000    0.00124612
     atom   33 type  1   force =     0.00000000    0.00000000   -0.00455907
     atom   34 type  1   force =     0.00000000    0.00000000   -0.00317732
     atom   35 type  3   force =    -0.00160346    0.00000000    0.00129117
     atom   36 type  3   force =     0.00160346    0.00000000    0.00129117
     atom   37 type  4   force =     0.00000000    0.00000000    0.01135531
     atom   38 type  4   force =     0.00000000    0.00000000    0.02161977
     atom   39 type  4   force =     0.00469960    0.00000000    0.01839402
     atom   40 type  4   force =    -0.00469960    0.00000000    0.01839402
     atom   41 type  5   force =     0.00000000    0.00000000    0.03516569
     atom   42 type  2   force =     0.00000000    0.00000000    0.02316629
     atom   43 type  4   force =     0.00000000    0.00000000   -0.03096640
     atom   44 type  4   force =    -0.00269829    0.00000000   -0.02342169
     atom   45 type  4   force =     0.00269829    0.00000000   -0.02342169
     atom   46 type  4   force =     0.00000000    0.00000000   -0.01387602
     atom   47 type  3   force =    -0.00048972    0.00000000   -0.00561115
     atom   48 type  3   force =     0.00048972    0.00000000   -0.00561115
     atom   49 type  1   force =     0.00000000    0.00000000   -0.00978575
     atom   50 type  1   force =     0.00000000    0.00000000   -0.01267828
     atom   51 type  4   force =     0.00027217    0.00000000    0.00059243
     atom   52 type  4   force =    -0.00027217    0.00000000    0.00059243
     atom   53 type  3   force =    -0.00008627    0.00000000   -0.00082024
     atom   54 type  3   force =     0.00008627    0.00000000   -0.00082024
     atom   55 type  4   force =    -0.00001614    0.00000000    0.00076258
     atom   56 type  4   force =     0.00001614    0.00000000    0.00076258

     Total force =     0.075661     Total SCF correction =     0.000417

     Computing stress (Cartesian axis) and pressure

     negative rho (up, down):  9.197E-02 0.000E+00
          total   stress  (Ry/bohr**3)                   (kbar)     P=       -4.67
  -0.00001030   0.00000000   0.00000000           -1.51        0.00        0.00
   0.00000000  -0.00001095   0.00000000            0.00       -1.61        0.00
   0.00000000   0.00000000  -0.00007399            0.00        0.00      -10.88

     General routines

     Parallel routines

   This run was terminated on:   0:28:44  28May2021

   JOB DONE.
[1622176124.833718] [holy7c18106:249818:0]          mpool.c:43   UCX  WARN  object 0x2c76400 was not returned to mpool ucp_requests
[1622176124.841655] [holy7c18109:11469:0]          mpool.c:43   UCX  WARN  object 0x2d2bb00 was not returned to mpool ucp_requests
[1622176124.841374] [holy7c18109:11470:0]          mpool.c:43   UCX  WARN  object 0x4756b40 was not returned to mpool ucp_requests
[1622176124.842049] [holy7c18103:123313:0]          mpool.c:43   UCX  WARN  object 0x2976a00 was not returned to mpool ucp_requests
[1622176124.844345] [holy7c12108:182921:0]          mpool.c:43   UCX  WARN  object 0x2938bc0 was not returned to mpool ucp_requests
[1622176124.844370] [holy7c18108:160083:0]          mpool.c:43   UCX  WARN  object 0x3847480 was not returned to mpool ucp_requests
[1622176124.844393] [holy7c18108:160083:0]          mpool.c:43   UCX  WARN  object 0x3847b80 was not returned to mpool ucp_requests
[1622176124.841376] [holy7c12111:62863:0]          mpool.c:43   UCX  WARN  object 0x46f04c0 was not returned to mpool ucp_requests
[1622176124.841402] [holy7c12111:62863:0]          mpool.c:43   UCX  WARN  object 0x46f0bc0 was not returned to mpool ucp_requests
[1622176124.870785] [holy7c06209:48155:0]          mpool.c:43   UCX  WARN  object 0x292a0c0 was not returned to mpool ucp_requests
[1622176124.870819] [holy7c06209:48155:0]          mpool.c:43   UCX  WARN  object 0x292a440 was not returned to mpool ucp_requests
[1622176124.864357] [holy7c06209:48160:0]          mpool.c:43   UCX  WARN  object 0x443ad00 was not returned to mpool ucp_requests
[1622176124.864384] [holy7c06209:48160:0]          mpool.c:43   UCX  WARN  object 0x443b400 was not returned to mpool ucp_requests
[1622176124.862639] [holy7c06209:48161:0]          mpool.c:43   UCX  WARN  object 0x35463c0 was not returned to mpool ucp_requests
[1622176124.868885] [holy7c06209:48165:0]          mpool.c:43   UCX  WARN  object 0x2f5fac0 was not returned to mpool ucp_requests
[1622176124.866141] [holy7c06209:48162:0]          mpool.c:43   UCX  WARN  object 0x418ef00 was not returned to mpool ucp_requests
[1622176124.866169] [holy7c06209:48162:0]          mpool.c:43   UCX  WARN  object 0x418f280 was not returned to mpool ucp_requests
[1622176124.870803] [holy7c06209:48157:0]          mpool.c:43   UCX  WARN  object 0x4567cc0 was not returned to mpool ucp_requests
[1622176124.870830] [holy7c06209:48157:0]          mpool.c:43   UCX  WARN  object 0x4568040 was not returned to mpool ucp_requests
[1622176124.893435] [holy7c06209:48156:0]          mpool.c:43   UCX  WARN  object 0x342c1c0 was not returned to mpool ucp_requests