     Program PWSCF v.6.5 starts on 25May2021 at 16:37:40

     R & G space division:  proc/nbgrp/npool/nimage =      32
     Reading input from YCBCO50_212_BaO_cleave_2.0_sep.pwi
Warning: card &IONS ignored
Warning: card     ION_DYNAMICS = 'BFGS' ignored
Warning: card / ignored
Warning: card &CELL ignored
Warning: card     CELL_DYNAMICS = 'BFGS' ignored
Warning: card     PRESS_CONV_THR = 5 ignored
Warning: card / ignored

     Current dimensions of program PWSCF are:
     Max number of different atomic species (ntypx) = 10
     Max number of k-points (npk) =  40000
     Max angular momentum in pseudopotentials (lmaxx) =  3

     Message from routine setup:
     using ibrav=0 with symmetry is DISCOURAGED, use correct ibrav instead

     bravais-lattice index     =            0
     lattice parameter (alat)  =      14.8133  a.u.
     unit-cell volume          =    9113.2300 (a.u.)^3
     number of atoms/cell      =           56
     number of atomic types    =            5
     number of electrons       =       456.00
     number of Kohn-Sham states=          274
     kinetic-energy cutoff     =      60.0000  Ry
     charge density cutoff     =     720.0000  Ry
     convergence threshold     =      1.0E-08
     mixing beta               =       0.5000
     number of iterations used =           10  local-TF  mixing
     Exchange-correlation= SLA PW PBE PBE
                           (   1   4   3   4   0   0   0)

     celldm(1)=  14.813271  celldm(2)=   0.000000  celldm(3)=   0.000000
     celldm(4)=   0.000000  celldm(5)=   0.000000  celldm(6)=   0.000000

     crystal axes: (cart. coord. in units of alat)
               a(1) = (   1.000000   0.000000   0.000000 )
               a(2) = (   0.000000   0.477453   0.000000 )
               a(3) = (   0.000000   0.000000   5.872041 )

     reciprocal axes: (cart. coord. in units 2 pi/alat)
               b(1) = (  1.000000  0.000000  0.000000 )
               b(2) = (  0.000000  2.094448  0.000000 )
               b(3) = (  0.000000  0.000000  0.170299 )

     PseudoPot. # 1 for Ba read from file:
     ./pseudo/Ba.pbe-nsp-van.UPF
     MD5 check sum: 2b9c31dd849566dd297d80989662b7a0
     Pseudo is Ultrasoft + core correction, Zval = 10.0
     Generated by new atomic code, or converted to UPF format
     Using radial grid of  907 points,  6 beta functions with:
                l(1) =   0
                l(2) =   0
                l(3) =   1
                l(4) =   1
                l(5) =   2
                l(6) =   2
     Q(r) pseudized with  6 coefficients,  rinner =    1.200   1.200   1.200
                                                       1.200   1.200

     PseudoPot. # 2 for Ca read from file:
     ./pseudo/Ca.pbe-nsp-van.UPF
     MD5 check sum: 6471098428ff4fa451746d08035ff179
     Pseudo is Ultrasoft + core correction, Zval = 10.0
     Generated by new atomic code, or converted to UPF format
     Using radial grid of  845 points,  6 beta functions with:
                l(1) =   0
                l(2) =   0
                l(3) =   1
                l(4) =   1
                l(5) =   2
                l(6) =   2
     Q(r) pseudized with  6 coefficients,  rinner =    1.200   1.200   1.200
                                                       1.200   1.200

     PseudoPot. # 3 for Cu read from file:
     ./pseudo/Cu.pbe-n-van_ak.UPF
     MD5 check sum: 34e3282627ffb533726feb647e090d62
     Pseudo is Ultrasoft + core correction, Zval = 11.0
     Generated by new atomic code, or converted to UPF format
     Using radial grid of  867 points,  6 beta functions with:
                l(1) =   0
                l(2) =   0
                l(3) =   1
                l(4) =   1
                l(5) =   2
                l(6) =   2
     Q(r) pseudized with  8 coefficients,  rinner =    1.400   1.400   1.400
                                                       1.400   1.400

     PseudoPot. # 4 for O  read from file:
     ./pseudo/O.pbe-van_ak.UPF
     MD5 check sum: 783ce7fe4c79b6a4916957118fed0856
     Pseudo is Ultrasoft, Zval =  6.0
     Generated by new atomic code, or converted to UPF format
     Using radial grid of  737 points,  4 beta functions with:
                l(1) =   0
                l(2) =   0
                l(3) =   1
                l(4) =   1
     Q(r) pseudized with  8 coefficients,  rinner =    0.800   0.800   0.800

     PseudoPot. # 5 for Y  read from file:
     ./pseudo/Y.pbe-nsp-van.UPF
     MD5 check sum: 4412fed3ab108fed87a1b7d6a69a4a38
     Pseudo is Ultrasoft + core correction, Zval = 11.0
     Generated by new atomic code, or converted to UPF format
     Using radial grid of  885 points,  6 beta functions with:
                l(1) =   0
                l(2) =   0
                l(3) =   1
                l(4) =   1
                l(5) =   2
                l(6) =   2
     Q(r) pseudized with  6 coefficients,  rinner =    1.200   1.200   1.200
                                                       1.200   1.200

     atomic species   valence    mass     pseudopotential
        Ba            10.00   137.32700     Ba( 1.00)
        Ca            10.00    40.07800     Ca( 1.00)
        Cu            11.00    63.54600     Cu( 1.00)
        O              6.00    15.99900     O ( 1.00)
        Y             11.00    88.90584     Y ( 1.00)

      4 Sym. Ops. (no inversion) found ( 2 have fractional translation)

   Cartesian axes

     site n.     atom                  positions (alat units)
         1           O   tau(   1) = (  -0.0008343   0.2387265  -0.0222443  )
         2           O   tau(   2) = (   0.5008340   0.2387265  -0.0222443  )
         3           Cu  tau(   3) = (   0.5017257   0.0000000   0.0109608  )
         4           Cu  tau(   4) = (  -0.0017260   0.0000000   0.0109608  )
         5           O   tau(   5) = (  -0.0028933   0.0000000   0.2506504  )
         6           O   tau(   6) = (   0.5028929   0.0000000   0.2506504  )
         7           Ba  tau(   7) = (   0.7499995   0.2387265   0.2749435  )
         8           Ba  tau(   8) = (   0.2499998   0.2387265   0.2755214  )
         9           Cu  tau(   9) = (   0.4980963   0.0000000   0.5208446  )
        10           Cu  tau(  10) = (   0.0019033   0.0000000   0.5208446  )
        11           O   tau(  11) = (   0.2499998   0.0000000   0.5341884  )
        12           O   tau(  12) = (   0.5083351   0.2387265   0.5569851  )
        13           O   tau(  13) = (  -0.0083354   0.2387265   0.5569851  )
        14           O   tau(  14) = (   0.7499995   0.0000000   0.5573831  )
        15           Ca  tau(  15) = (   0.2499998   0.2387265   0.7436937  )
        16           Y   tau(  16) = (   0.7499995   0.2387265   0.7469544  )
        17           O   tau(  17) = (  -0.0063798   0.2387265   0.9248530  )
        18           O   tau(  18) = (   0.5063794   0.2387265   0.9248530  )
        19           O   tau(  19) = (   0.7499995   0.0000000   0.9338544  )
        20           O   tau(  20) = (   0.2499998   0.0000000   0.9461329  )
        21           Cu  tau(  21) = (   0.0015717   0.0000000   0.9686860  )
        22           Cu  tau(  22) = (   0.4984280   0.0000000   0.9686860  )
        23           Ba  tau(  23) = (   0.2499998   0.2387265   1.2085224  )
        24           Ba  tau(  24) = (   0.7499995   0.2387265   1.2233294  )
        25           O   tau(  25) = (   0.0063772   0.0000000   1.2547537  )
        26           O   tau(  26) = (   0.4936224   0.0000000   1.2547537  )
        27           O   tau(  27) = (   0.5384045   0.2387265   1.4952521  )
        28           O   tau(  28) = (  -0.0384049   0.2387265   1.4952521  )
        29           Cu  tau(  29) = (   0.5006120   0.0000000   1.4952546  )
        30           Cu  tau(  30) = (  -0.0006123   0.0000000   1.4952546  )
        31           O   tau(  31) = (   0.4936212   0.0000000   1.7357531  )
        32           O   tau(  32) = (   0.0063785   0.0000000   1.7357531  )
        33           Ba  tau(  33) = (   0.7499995   0.2387265   1.7671824  )
        34           Ba  tau(  34) = (   0.2499998   0.2387265   1.7819920  )
        35           Cu  tau(  35) = (   0.4984280   0.0000000   2.2769629  )
        36           Cu  tau(  36) = (   0.0015717   0.0000000   2.2769629  )
        37           O   tau(  37) = (   0.2499998   0.0000000   2.2995210  )
        38           O   tau(  38) = (   0.7499995   0.0000000   2.3117907  )
        39           O   tau(  39) = (   0.5063781   0.2387265   2.3207958  )
        40           O   tau(  40) = (  -0.0063785   0.2387265   2.3207958  )
        41           Y   tau(  41) = (   0.7499995   0.2387265   2.4986894  )
        42           Ca  tau(  42) = (   0.2499998   0.2387265   2.5019590  )
        43           O   tau(  43) = (   0.7499995   0.0000000   2.6882568  )
        44           O   tau(  44) = (  -0.0083354   0.2387265   2.6886587  )
        45           O   tau(  45) = (   0.5083351   0.2387265   2.6886587  )
        46           O   tau(  46) = (   0.2499998   0.0000000   2.7114567  )
        47           Cu  tau(  47) = (   0.0019059   0.0000000   2.7247903  )
        48           Cu  tau(  48) = (   0.4980938   0.0000000   2.7247903  )
        49           Ba  tau(  49) = (   0.2499998   0.2387265   2.9701300  )
        50           Ba  tau(  50) = (   0.7499995   0.2387265   2.9706722  )
        51           O   tau(  51) = (  -0.0028895   0.0000000   2.9949793  )
        52           O   tau(  52) = (   0.5028891   0.0000000   2.9949793  )
        53           Cu  tau(  53) = (   0.5017844   0.0000000   3.2346638  )
        54           Cu  tau(  54) = (  -0.0017847   0.0000000   3.2346638  )
        55           O   tau(  55) = (   0.5008990   0.2387265   3.2678703  )
        56           O   tau(  56) = (  -0.0008994   0.2387265   3.2678703  )

     number of k points=    25  Gaussian smearing, width (Ry)=  0.0100
                       cart. coord. in units 2pi/alat
        k(    1) = (   0.0000000   0.0000000   0.0000000), wk =   0.0312500
        k(    2) = (   0.0000000   0.2618060   0.0000000), wk =   0.0625000
        k(    3) = (   0.0000000   0.5236121   0.0000000), wk =   0.0625000
        k(    4) = (   0.0000000   0.7854181   0.0000000), wk =   0.0625000
        k(    5) = (   0.0000000  -1.0472241   0.0000000), wk =   0.0312500
        k(    6) = (   0.1250000   0.0000000   0.0000000), wk =   0.0625000
        k(    7) = (   0.1250000   0.2618060   0.0000000), wk =   0.1250000
        k(    8) = (   0.1250000   0.5236121   0.0000000), wk =   0.1250000
        k(    9) = (   0.1250000   0.7854181   0.0000000), wk =   0.1250000
        k(   10) = (   0.1250000  -1.0472241   0.0000000), wk =   0.0625000
        k(   11) = (   0.2500000   0.0000000   0.0000000), wk =   0.0625000
        k(   12) = (   0.2500000   0.2618060   0.0000000), wk =   0.1250000
        k(   13) = (   0.2500000   0.5236121   0.0000000), wk =   0.1250000
        k(   14) = (   0.2500000   0.7854181   0.0000000), wk =   0.1250000
        k(   15) = (   0.2500000  -1.0472241   0.0000000), wk =   0.0625000
        k(   16) = (   0.3750000   0.0000000   0.0000000), wk =   0.0625000
        k(   17) = (   0.3750000   0.2618060   0.0000000), wk =   0.1250000
        k(   18) = (   0.3750000   0.5236121   0.0000000), wk =   0.1250000
        k(   19) = (   0.3750000   0.7854181   0.0000000), wk =   0.1250000
        k(   20) = (   0.3750000  -1.0472241   0.0000000), wk =   0.0625000
        k(   21) = (  -0.5000000   0.0000000   0.0000000), wk =   0.0312500
        k(   22) = (  -0.5000000   0.2618060   0.0000000), wk =   0.0625000
        k(   23) = (  -0.5000000   0.5236121   0.0000000), wk =   0.0625000
        k(   24) = (  -0.5000000   0.7854181   0.0000000), wk =   0.0625000
        k(   25) = (  -0.5000000  -1.0472241   0.0000000), wk =   0.0312500

     Initial potential from superposition of free atoms

     starting charge  455.69457, renormalised to  456.00000

     negative rho (up, down):  9.329E-02 0.000E+00
     Starting wfcs are  396 randomized atomic wfcs

     Self-consistent Calculation

     iteration #  1     ecut=    60.00 Ry     beta= 0.50
     Davidson diagonalization with overlap
     ethr =  1.00E-02,  avg # of iterations =  2.0

     negative rho (up, down):  8.624E-02 0.000E+00

     total energy              =   -3708.28176005 Ry
     Harris-Foulkes estimate   =   -3716.55727624 Ry
     estimated scf accuracy    <      32.70229617 Ry

[...]

     iteration # 11     ecut=    60.00 Ry     beta= 0.50
     Davidson diagonalization with overlap
     c_bands:  1 eigenvalues not converged
     c_bands:  1 eigenvalues not converged
     ethr =  3.00E-05,  avg # of iterations =  9.7

[...]

     iteration # 24     ecut=    60.00 Ry     beta= 0.50
     Davidson diagonalization with overlap
     c_bands:  1 eigenvalues not converged
     c_bands:  1 eigenvalues not converged
     ethr =  9.34E-08,  avg # of iterations =  9.4

[...]

     total energy              =   -3711.63501864 Ry
     Harris-Foulkes estimate   =   -3711.63501865 Ry
     estimated scf accuracy    <       0.00000004 Ry

     iteration # 35     ecut=    60.00 Ry     beta= 0.50
     Davidson diagonalization with overlap
     ethr =  7.75E-12,  avg # of iterations =  1.5

[...]

     End of self-consistent calculation

          k = 0.0000 0.0000 0.0000 ( 71619 PWs)   bands (ev):

   -38.1820 -37.8918 -35.8103 -35.4839 -24.2385 -23.8623 -22.9620 -22.9394
   -22.8336 -22.8116 -22.8044 -22.6558 -18.6572 -18.5528 -18.3380 -18.2828
   -18.1852 -17.9035 -17.1582 -17.0227 -16.8401 -16.8030 -16.7185 -16.5251
   -15.5670 -15.3376 -15.2651 -15.1226 -15.1068 -15.0828 -14.8165 -14.7122
   -14.6701 -14.6358 -14.6128 -14.5998 -14.4827 -14.4504 -14.3012 -14.2776
   -14.2541 -14.1601 -14.1529 -14.1410 -14.1393 -14.1272 -14.1056 -14.0611
   -14.0464 -13.9654 -13.9123 -13.8055 -13.7178 -13.4908  -9.5886  -9.1425
    -9.0057  -8.9671  -8.6709  -8.6304  -8.2004  -8.1730  -8.0969  -8.0769
    -8.0681  -8.0114  -7.9909  -7.9905  -7.8732  -7.8513  -7.8001  -7.7768
    -7.7563  -7.6791  -7.6353  -7.6166  -7.6133  -7.4574  -3.1318  -3.0907
    -2.9726  -2.5890  -2.3179  -2.3063  -2.2308  -2.2244  -2.1938  -2.1884
    -2.1609  -2.0754  -2.0342  -1.9914  -1.9577  -1.9002  -1.8157  -1.7977
    -1.7914  -1.7851  -1.7435  -1.7014  -1.6843  -1.6839  -1.5763  -1.4809
    -1.3862  -1.3811  -1.2980  -1.2554  -1.2516  -1.1675  -1.1604  -1.1526
    -1.0659  -1.0654  -1.0652  -1.0637  -1.0384  -1.0087  -1.0061  -0.9120
    -0.8686  -0.8643  -0.8612  -0.8386  -0.8332  -0.8331  -0.7384  -0.6908
    -0.6463  -0.5973  -0.4920  -0.4020  -0.3992  -0.3943  -0.3386  -0.3214
    -0.2801  -0.2759  -0.2740  -0.2708  -0.2254  -0.1952  -0.1671  -0.1669
    -0.1340  -0.1014  -0.0868  -0.0837  -0.0758  -0.0574  -0.0119   0.0304
     0.0323   0.0417   0.0537   0.0587   0.0728   0.0816   0.1281   0.1295
     0.1669   0.1687   0.1994   0.2231   0.2564   0.2699   0.2842   0.2957
     0.3634   0.3844   0.4395   0.4469   0.4605   0.4620   0.4673   0.4785
     0.5629   0.6061   0.6139   0.6736   0.7015   0.8963   0.8966   0.9053
     0.9311   0.9421   0.9423   0.9850   1.0054   1.0376   1.0507   1.0725
     1.1129   1.1338   1.1350   1.1557   1.1766   1.1792   1.1984   1.2188
     1.2558   1.2955   1.3191   1.3260   1.3284   1.3481   1.4748   1.4848
     1.5468   1.6230   1.6293   1.6295   1.6392   1.6914   1.6984   1.7110
     1.7341   1.7429   1.7895   1.8254   1.8591   1.9340   1.9689   1.9806
     1.9987   2.1168   2.1528   2.1624   2.1720   2.2250   2.3106   2.3420
     2.4835   2.4887   2.4905   2.5545   2.7729   2.7811   4.6241   5.1333
     5.1507   5.3653   5.7022   5.9153   6.3522   6.3768   6.4882   6.5536
     6.6165   7.0522   7.1855   7.2012   7.2798   7.2814   7.3899   7.5733
     7.7823   7.8345   7.8992   7.9833   8.0439   8.0455   8.2048   8.2927
     8.3563   8.3999   8.4342   8.5454   8.5655   8.6611   8.7691   8.8683
     8.9007   9.0164

[...]

          k = 0.3750-1.0472 0.0000 ( 71526 PWs)   bands (ev):

[...]

          k =-0.5000 0.0000 0.0000 ( 71644 PWs)   bands (ev):

[...]

          k =-0.5000-1.0472 0.0000 ( 71492 PWs)   bands (ev):

   -38.1636 -37.8733 -35.7987 -35.4722 -24.1034 -23.7408 -22.7591 -22.7350
   -22.7294 -22.7088 -22.6207 -22.5421 -18.8253 -18.5456 -18.4827 -18.3623
   -18.2124 -18.0402 -17.2312 -17.0541 -16.9502 -16.9178 -16.7508 -16.5914
   -14.8764 -14.8078 -14.7952 -14.7797 -14.6533 -14.6482 -14.5936 -14.5748
   -14.5298 -14.4972 -14.4699 -14.4654 -14.4540 -14.3957 -14.3797 -14.3600
   -14.3231 -14.2809 -14.2391 -14.1868 -14.0331 -14.0135 -14.0135 -14.0128
   -14.0127 -14.0088 -13.9561 -13.9422 -13.7335 -13.5609  -9.6232  -9.4611
    -9.4574  -9.3301  -8.9896  -8.9536  -8.5443  -8.5209  -8.4936  -8.4729
    -8.3922  -8.2882  -8.2192  -8.1971  -8.1957  -8.1757  -8.1172  -8.1170
    -8.1049  -8.0914  -8.0910  -8.0552  -7.9022  -7.8932  -3.9340  -3.8295
    -3.7191  -3.6383  -3.6186  -3.5748  -3.4922  -3.3880  -3.1876  -3.1423
    -3.1404  -3.1397  -3.1357  -3.0323  -2.4843  -2.4649  -2.3747  -2.3500
    -2.3333  -2.2638  -2.2491  -2.1649  -2.1414  -2.1305  -2.1245  -2.0886
    -2.0773  -2.0614  -2.0530  -2.0041  -1.9935  -1.9798  -1.8639  -1.8390
    -1.7879  -1.7619  -1.6031  -1.5890  -1.5646  -1.5041  -1.4816  -1.3936
    -1.3681  -1.3389  -1.2529  -1.2336  -1.2237  -1.2128  -1.0771  -0.9718
    -0.9476  -0.9301  -0.9218  -0.8506  -0.8496  -0.8494  -0.8352  -0.8190
    -0.8092  -0.8079  -0.6809  -0.6793  -0.6642  -0.5835  -0.5820  -0.5100
    -0.4758  -0.4705  -0.4419  -0.4014  -0.2371  -0.1845  -0.1403  -0.1217
     0.0997   0.1494   0.1901   0.1914   0.3925   0.3950   0.4059   0.4227
     0.4570   0.5178   0.5383   0.6234   0.6463   0.6824   0.7701   0.8402
     0.8467   0.8877   0.9559   1.0319   1.0327   1.0617   1.0646   1.0917
     1.1202   1.1327   1.1480   1.2161   1.2671   1.2713   1.2738   1.2818
     1.2974   1.3492   1.3589   1.4039   1.4053   1.4223   1.4356   1.4356
     1.4427   1.4879   1.5101   1.5150   1.5213   1.5415   1.5772   1.6010
     1.7016   1.7064   1.7362   1.7367   1.8013   1.8269   1.8287   1.8294
     1.8351   1.9234   1.9902   2.0384   2.0936   2.1088   2.1090   2.1117
     2.1441   2.1682   2.2441   2.2797   2.4570   2.4573   2.4659   2.4669
     2.6267   2.6310   2.6414   2.6460   3.3915   3.4579   3.4776   3.5657
     3.5748   3.6524   3.7773   3.8254   3.8281   3.9055   5.4645   5.7580
     6.4685   6.6399   6.6501   6.6785   6.7425   6.8832   6.9294   7.0230
     7.1145   7.1236   7.5117   7.5812   7.6273   7.9982   8.2418   8.4468
     8.4510   8.5781   8.9472   9.0910   9.1715   9.2682   9.2882   9.3078
     9.3413   9.3447   9.3690   9.4132   9.6401   9.6690   9.6776   9.7199
     9.7437   9.7915

     the Fermi energy is     2.6377 ev

!    total energy              =   -3711.63501867 Ry
     Harris-Foulkes estimate   =   -3711.63501864 Ry
     estimated scf accuracy    <          6.5E-09 Ry

     The total energy is the sum of the following terms:

     one-electron contribution =  -57519.41774656 Ry
     hartree contribution      =   29063.69140128 Ry
     xc contribution           =   -1263.75971355 Ry
     ewald contribution        =   26007.86480942 Ry
     smearing contrib. (-TS)   =      -0.01376925 Ry

     convergence has been achieved in  35 iterations

     negative rho (up, down):  9.204E-02 0.000E+00

     Forces acting on atoms (cartesian axes, Ry/au):

     atom    1 type  4   force =    -0.00000657    0.00000000   -0.00010588
     atom    2 type  4   force =     0.00000657    0.00000000   -0.00010588
     atom    3 type  3   force =    -0.00001636    0.00000000   -0.00001425
     atom    4 type  3   force =     0.00001636    0.00000000   -0.00001425
     atom    5 type  4   force =     0.00000185    0.00000000   -0.00003662
     atom    6 type  4   force =    -0.00000185    0.00000000   -0.00003662
     atom    7 type  1   force =     0.00000000    0.00000000   -0.00018069
     atom    8 type  1   force =     0.00000000    0.00000000   -0.00016820
     atom    9 type  3   force =     0.00004824    0.00000000    0.00004843
     atom   10 type  3   force =    -0.00004824    0.00000000    0.00004843
     atom   11 type  4   force =     0.00000000    0.00000000    0.00023403
     atom   12 type  4   force =     0.00000658    0.00000000    0.00023526
     atom   13 type  4   force =    -0.00000658    0.00000000    0.00023526
     atom   14 type  4   force =     0.00000000    0.00000000    0.00035840
     atom   15 type  2   force =     0.00000000    0.00000000   -0.00095153
     atom   16 type  5   force =     0.00000000    0.00000000   -0.00146103
     atom   17 type  4   force =     0.00016315    0.00000000    0.00160023
     atom   18 type  4   force =    -0.00016315    0.00000000    0.00160023
     atom   19 type  4   force =     0.00000000    0.00000000    0.00185821
     atom   20 type  4   force =     0.00000000    0.00000000    0.00231716
     atom   21 type  3   force =    -0.00013855    0.00000000   -0.00181400
     atom   22 type  3   force =     0.00013855    0.00000000   -0.00181400
     atom   23 type  1   force =     0.00000000    0.00000000   -0.00572334
     atom   24 type  1   force =     0.00000000    0.00000000   -0.00653136
     atom   25 type  4   force =    -0.00087055    0.00000000    0.00604196
     atom   26 type  4   force =     0.00087055    0.00000000    0.00604196
     atom   27 type  4   force =     0.00008473    0.00000000    0.01399100
     atom   28 type  4   force =    -0.00008473    0.00000000    0.01399100
     atom   29 type  3   force =     0.00254164    0.00000000   -0.01307492
     atom   30 type  3   force =    -0.00254164    0.00000000   -0.01307492
     atom   31 type  4   force =    -0.00924088    0.00000000    0.02386371
     atom   32 type  4   force =     0.00924088    0.00000000    0.02386371
     atom   33 type  1   force =     0.00000000    0.00000000   -0.02094168
     atom   34 type  1   force =     0.00000000    0.00000000   -0.00692817
     atom   35 type  3   force =    -0.00868485    0.00000000   -0.00130873
     atom   36 type  3   force =     0.00868485    0.00000000   -0.00130873
     atom   37 type  4   force =     0.00000000    0.00000000    0.00573052
     atom   38 type  4   force =     0.00000000    0.00000000    0.01193219
     atom   39 type  4   force =     0.00196678    0.00000000    0.00501466
     atom   40 type  4   force =    -0.00196678    0.00000000    0.00501466
     atom   41 type  5   force =     0.00000000    0.00000000   -0.03606122
     atom   42 type  2   force =     0.00000000    0.00000000   -0.02833359
     atom   43 type  4   force =     0.00000000    0.00000000    0.00527416
     atom   44 type  4   force =     0.00040144    0.00000000    0.00266269
     atom   45 type  4   force =    -0.00040144    0.00000000    0.00266269
     atom   46 type  4   force =     0.00000000    0.00000000    0.00390484
     atom   47 type  3   force =     0.00055363    0.00000000    0.00104508
     atom   48 type  3   force =    -0.00055363    0.00000000    0.00104508
     atom   49 type  1   force =     0.00000000    0.00000000   -0.00084975
     atom   50 type  1   force =     0.00000000    0.00000000   -0.00100316
     atom   51 type  4   force =     0.00006976    0.00000000    0.00076834
     atom   52 type  4   force =    -0.00006976    0.00000000    0.00076834
     atom   53 type  3   force =    -0.00004537    0.00000000   -0.00041032
     atom   54 type  3   force =     0.00004537    0.00000000   -0.00041032
     atom   55 type  4   force =     0.00000344    0.00000000    0.00025545
     atom   56 type  4   force =    -0.00000344    0.00000000    0.00025545

     Total force =     0.072602     Total SCF correction =     0.000397

     Computing stress (Cartesian axis) and pressure

     negative rho (up, down):  9.204E-02 0.000E+00
          total   stress  (Ry/bohr**3)                   (kbar)     P=       -7.36
  -0.00007579   0.00000000   0.00000000          -11.15        0.00        0.00
   0.00000000  -0.00003904   0.00000000            0.00       -5.74        0.00
   0.00000000   0.00000000  -0.00003534            0.00        0.00       -5.20

     General routines

     Parallel routines

   This run was terminated on:  17:10:40  25May2021

   JOB DONE.
[1621977040.954217] [holy7c04203:187635:0]          mpool.c:43   UCX  WARN  object 0x2c67680 was not returned to mpool ucp_requests
[1621977040.954236] [holy7c04203:187635:0]          mpool.c:43   UCX  WARN  object 0x2c67a00 was not returned to mpool ucp_requests
[1621977040.954239] [holy7c04203:187635:0]          mpool.c:43   UCX  WARN  object 0x2c67f40 was not returned to mpool ucp_requests
[1621977040.959327] [holy7c04510:52050:0]          mpool.c:43   UCX  WARN  object 0x2e8bcc0 was not returned to mpool ucp_requests
[1621977040.957862] [holy7c04312:199942:0]          mpool.c:43   UCX  WARN  object 0x3291bc0 was not returned to mpool ucp_requests
[1621977040.959067] [holy7c04504:223907:0]          mpool.c:43   UCX  WARN  object 0x27ff540 was not returned to mpool ucp_requests
[1621977040.959085] [holy7c04504:223907:0]          mpool.c:43   UCX  WARN  object 0x27ffa80 was not returned to mpool ucp_requests
[1621977040.963173] [holy7c04202:111201:0]          mpool.c:43   UCX  WARN  object 0x4390180 was not returned to mpool ucp_requests
[1621977040.964646] [holy7c04509:223603:0]          mpool.c:43   UCX  WARN  object 0x33972c0 was not returned to mpool ucp_requests
[1621977040.957330] [holy7c04203:187633:0]          mpool.c:43   UCX  WARN  object 0x3037a80 was not returned to mpool ucp_requests
[1621977040.957348] [holy7c04203:187633:0]          mpool.c:43   UCX  WARN  object 0x3038180 was not returned to mpool ucp_requests
[1621977040.966663] [holy7c04203:187634:0]          mpool.c:43   UCX  WARN  object 0x419c600 was not returned to mpool ucp_requests
[1621977040.966671] [holy7c04510:52051:0]          mpool.c:43   UCX  WARN  object 0x437cd80 was not returned to mpool ucp_requests
[1621977040.967929] [holy7c04312:199943:0]          mpool.c:43   UCX  WARN  object 0x2d23140 was not returned to mpool ucp_requests
[1621977040.964096] [holy7c04202:111199:0]          mpool.c:43   UCX  WARN  object 0x2ff3280 was not returned to mpool ucp_requests
[1621977040.965986] [holy7c04202:111204:0]          mpool.c:43   UCX  WARN  object 0x2cc89c0 was not returned to mpool ucp_requests
[1621977040.966005] [holy7c04202:111204:0]          mpool.c:43   UCX  WARN  object 0x2cc9280 was not returned to mpool ucp_requests
[1621977040.967485] [holy7c04509:223633:0]          mpool.c:43   UCX  WARN  object 0x459b6c0 was not returned to mpool ucp_requests
[1621977040.967498] [holy7c04509:223633:0]          mpool.c:43   UCX  WARN  object 0x459c300 was not returned to mpool ucp_requests
[1621977040.967997] [holy7c04509:223604:0]          mpool.c:43   UCX  WARN  object 0x2ee3040 was not returned to mpool ucp_requests