     Program PWSCF v.6.5 starts on 27May2021 at 23:56: 5

     R & G space division:  proc/nbgrp/npool/nimage =      32
     Reading input from YCBCO50_212_Y_cleave_0.75_sep.pwi
Warning: card &IONS ignored
Warning: card     ION_DYNAMICS = 'BFGS' ignored
Warning: card / ignored
Warning: card &CELL ignored
Warning: card     CELL_DYNAMICS = 'BFGS' ignored
Warning: card     PRESS_CONV_THR = 5 ignored
Warning: card / ignored

     Current dimensions of program PWSCF are:
     Max number of different atomic species (ntypx) = 10
     Max number of k-points (npk) =  40000
     Max angular momentum in pseudopotentials (lmaxx) =  3

     Message from routine setup:
     using ibrav=0 with symmetry is DISCOURAGED, use correct ibrav instead

     bravais-lattice index     =            0
     lattice parameter (alat)  =      14.8133  a.u.
     unit-cell volume          =    8865.7494 (a.u.)^3
     number of atoms/cell      =           56
     number of atomic types    =            5
     number of electrons       =       456.00
     number of Kohn-Sham states=          274
     kinetic-energy cutoff     =      60.0000  Ry
     charge density cutoff     =     720.0000  Ry
     convergence threshold     =      1.0E-08
     mixing beta               =       0.5000
     number of iterations used =           10  local-TF  mixing
     Exchange-correlation= SLA PW PBE PBE
                           (   1   4   3   4   0   0   0)

     celldm(1)=  14.813271  celldm(2)=   0.000000  celldm(3)=   0.000000
     celldm(4)=   0.000000  celldm(5)=   0.000000  celldm(6)=   0.000000

     crystal axes: (cart. coord. in units of alat)
               a(1) = (   1.000000   0.000000   0.000000 )
               a(2) = (   0.000000   0.477453   0.000000 )
               a(3) = (   0.000000   0.000000   5.712578 )

     reciprocal axes: (cart. coord. in units 2 pi/alat)
               b(1) = (  1.000000  0.000000  0.000000 )
               b(2) = (  0.000000  2.094448  0.000000 )
               b(3) = (  0.000000  0.000000  0.175052 )

     PseudoPot. # 1 for Ba read from file:
     ./pseudo/Ba.pbe-nsp-van.UPF
     MD5 check sum: 2b9c31dd849566dd297d80989662b7a0
     Pseudo is Ultrasoft + core correction, Zval = 10.0
     Generated by new atomic code, or converted to UPF format
     Using radial grid of  907 points,  6 beta functions with:
                l(1) =   0
                l(2) =   0
                l(3) =   1
                l(4) =   1
                l(5) =   2
                l(6) =   2
     Q(r) pseudized with  6 coefficients,  rinner =    1.200   1.200   1.200
                                                       1.200   1.200

     PseudoPot. # 2 for Ca read from file:
     ./pseudo/Ca.pbe-nsp-van.UPF
     MD5 check sum: 6471098428ff4fa451746d08035ff179
     Pseudo is Ultrasoft + core correction, Zval = 10.0
     Generated by new atomic code, or converted to UPF format
     Using radial grid of  845 points,  6 beta functions with:
                l(1) =   0
                l(2) =   0
                l(3) =   1
                l(4) =   1
                l(5) =   2
                l(6) =   2
     Q(r) pseudized with  6 coefficients,  rinner =    1.200   1.200   1.200
                                                       1.200   1.200

     PseudoPot. # 3 for Cu read from file:
     ./pseudo/Cu.pbe-n-van_ak.UPF
     MD5 check sum: 34e3282627ffb533726feb647e090d62
     Pseudo is Ultrasoft + core correction, Zval = 11.0
     Generated by new atomic code, or converted to UPF format
     Using radial grid of  867 points,  6 beta functions with:
                l(1) =   0
                l(2) =   0
                l(3) =   1
                l(4) =   1
                l(5) =   2
                l(6) =   2
     Q(r) pseudized with  8 coefficients,  rinner =    1.400   1.400   1.400
                                                       1.400   1.400

     PseudoPot. # 4 for O  read from file:
     ./pseudo/O.pbe-van_ak.UPF
     MD5 check sum: 783ce7fe4c79b6a4916957118fed0856
     Pseudo is Ultrasoft, Zval =  6.0
     Generated by new atomic code, or converted to UPF format
     Using radial grid of  737 points,  4 beta functions with:
                l(1) =   0
                l(2) =   0
                l(3) =   1
                l(4) =   1
     Q(r) pseudized with  8 coefficients,  rinner =    0.800   0.800   0.800

     PseudoPot. # 5 for Y  read from file:
     ./pseudo/Y.pbe-nsp-van.UPF
     MD5 check sum: 4412fed3ab108fed87a1b7d6a69a4a38
     Pseudo is Ultrasoft + core correction, Zval = 11.0
     Generated by new atomic code, or converted to UPF format
     Using radial grid of  885 points,  6 beta functions with:
                l(1) =   0
                l(2) =   0
                l(3) =   1
                l(4) =   1
                l(5) =   2
                l(6) =   2
     Q(r) pseudized with  6 coefficients,  rinner =    1.200   1.200   1.200
                                                       1.200   1.200

     atomic species   valence    mass     pseudopotential
        Ba            10.00   137.32700     Ba( 1.00)
        Ca            10.00    40.07800     Ca( 1.00)
        Cu            11.00    63.54600     Cu( 1.00)
        O              6.00    15.99900     O ( 1.00)
        Y             11.00    88.90584     Y ( 1.00)

      4 Sym. Ops. (no inversion) found ( 2 have fractional translation)

   Cartesian axes

     site n.     atom                  positions (alat units)
         1           O   tau(   1) = (  -0.0008343   0.2387265  -0.0222443  )
         2           O   tau(   2) = (   0.5008340   0.2387265  -0.0222443  )
         3           Cu  tau(   3) = (   0.5017257   0.0000000   0.0109608  )
         4           Cu  tau(   4) = (  -0.0017260   0.0000000   0.0109608  )
         5           O   tau(   5) = (  -0.0028933   0.0000000   0.2506504  )
         6           O   tau(   6) = (   0.5028929   0.0000000   0.2506504  )
         7           Ba  tau(   7) = (   0.7499995   0.2387265   0.2749435  )
         8           Ba  tau(   8) = (   0.2499998   0.2387265   0.2755214  )
         9           Cu  tau(   9) = (   0.4980963   0.0000000   0.5208446  )
        10           Cu  tau(  10) = (   0.0019033   0.0000000   0.5208446  )
        11           O   tau(  11) = (   0.2499998   0.0000000   0.5341884  )
        12           O   tau(  12) = (   0.5083351   0.2387265   0.5569851  )
        13           O   tau(  13) = (  -0.0083354   0.2387265   0.5569851  )
        14           O   tau(  14) = (   0.7499995   0.0000000   0.5573831  )
        15           Ca  tau(  15) = (   0.2499998   0.2387265   0.7436937  )
        16           Y   tau(  16) = (   0.7499995   0.2387265   0.7469544  )
        17           O   tau(  17) = (  -0.0063798   0.2387265   0.9248530  )
        18           O   tau(  18) = (   0.5063794   0.2387265   0.9248530  )
        19           O   tau(  19) = (   0.7499995   0.0000000   0.9338544  )
        20           O   tau(  20) = (   0.2499998   0.0000000   0.9461329  )
        21           Cu  tau(  21) = (   0.0015717   0.0000000   0.9686860  )
        22           Cu  tau(  22) = (   0.4984280   0.0000000   0.9686860  )
        23           Ba  tau(  23) = (   0.2499998   0.2387265   1.2085224  )
        24           Ba  tau(  24) = (   0.7499995   0.2387265   1.2233294  )
        25           O   tau(  25) = (   0.0063772   0.0000000   1.2547537  )
        26           O   tau(  26) = (   0.4936224   0.0000000   1.2547537  )
        27           O   tau(  27) = (   0.5384045   0.2387265   1.4952521  )
        28           O   tau(  28) = (  -0.0384049   0.2387265   1.4952521  )
        29           Cu  tau(  29) = (   0.5006120   0.0000000   1.4952546  )
        30           Cu  tau(  30) = (  -0.0006123   0.0000000   1.4952546  )
        31           O   tau(  31) = (   0.4936212   0.0000000   1.7357531  )
        32           O   tau(  32) = (   0.0063785   0.0000000   1.7357531  )
        33           Ba  tau(  33) = (   0.7499995   0.2387265   1.7671824  )
        34           Ba  tau(  34) = (   0.2499998   0.2387265   1.7819920  )
        35           Cu  tau(  35) = (   0.4984280   0.0000000   2.0218232  )
        36           Cu  tau(  36) = (   0.0015717   0.0000000   2.0218232  )
        37           O   tau(  37) = (   0.2499998   0.0000000   2.0443814  )
        38           O   tau(  38) = (   0.7499995   0.0000000   2.0566511  )
        39           O   tau(  39) = (   0.5063781   0.2387265   2.0656562  )
        40           O   tau(  40) = (  -0.0063785   0.2387265   2.0656562  )
        41           Y   tau(  41) = (   0.7499995   0.2387265   2.2435498  )
        42           Ca  tau(  42) = (   0.2499998   0.2387265   2.2468194  )
        43           O   tau(  43) = (   0.7499995   0.0000000   2.5287946  )
        44           O   tau(  44) = (  -0.0083354   0.2387265   2.5291964  )
        45           O   tau(  45) = (   0.5083351   0.2387265   2.5291964  )
        46           O   tau(  46) = (   0.2499998   0.0000000   2.5519944  )
        47           Cu  tau(  47) = (   0.0019059   0.0000000   2.5653280  )
        48           Cu  tau(  48) = (   0.4980938   0.0000000   2.5653280  )
        49           Ba  tau(  49) = (   0.2499998   0.2387265   2.8106677  )
        50           Ba  tau(  50) = (   0.7499995   0.2387265   2.8112099  )
        51           O   tau(  51) = (  -0.0028895   0.0000000   2.8355170  )
        52           O   tau(  52) = (   0.5028891   0.0000000   2.8355170  )
        53           Cu  tau(  53) = (   0.5017844   0.0000000   3.0752016  )
        54           Cu  tau(  54) = (  -0.0017847   0.0000000   3.0752016  )
        55           O   tau(  55) = (   0.5008990   0.2387265   3.1084080  )
        56           O   tau(  56) = (  -0.0008994   0.2387265   3.1084080  )

     number of k points=    25  Gaussian smearing, width (Ry)=  0.0100
                       cart. coord. in units 2pi/alat
        k(    1) = (   0.0000000   0.0000000   0.0000000), wk =   0.0312500
        k(    2) = (   0.0000000   0.2618060   0.0000000), wk =   0.0625000
        k(    3) = (   0.0000000   0.5236121   0.0000000), wk =   0.0625000
        k(    4) = (   0.0000000   0.7854181   0.0000000), wk =   0.0625000
        k(    5) = (   0.0000000  -1.0472241   0.0000000), wk =   0.0312500
        k(    6) = (   0.1250000   0.0000000   0.0000000), wk =   0.0625000
        k(    7) = (   0.1250000   0.2618060   0.0000000), wk =   0.1250000
        k(    8) = (   0.1250000   0.5236121   0.0000000), wk =   0.1250000
        k(    9) = (   0.1250000   0.7854181   0.0000000), wk =   0.1250000
        k(   10) = (   0.1250000  -1.0472241   0.0000000), wk =   0.0625000
        k(   11) = (   0.2500000   0.0000000   0.0000000), wk =   0.0625000
        k(   12) = (   0.2500000   0.2618060   0.0000000), wk =   0.1250000
        k(   13) = (   0.2500000   0.5236121   0.0000000), wk =   0.1250000
        k(   14) = (   0.2500000   0.7854181   0.0000000), wk =   0.1250000
        k(   15) = (   0.2500000  -1.0472241   0.0000000), wk =   0.0625000
        k(   16) = (   0.3750000   0.0000000   0.0000000), wk =   0.0625000
        k(   17) = (   0.3750000   0.2618060   0.0000000), wk =   0.1250000
        k(   18) = (   0.3750000   0.5236121   0.0000000), wk =   0.1250000
        k(   19) = (   0.3750000   0.7854181   0.0000000), wk =   0.1250000
        k(   20) = (   0.3750000  -1.0472241   0.0000000), wk =   0.0625000
        k(   21) = (  -0.5000000   0.0000000   0.0000000), wk =   0.0312500
        k(   22) = (  -0.5000000   0.2618060   0.0000000), wk =   0.0625000
        k(   23) = (  -0.5000000   0.5236121   0.0000000), wk =   0.0625000
        k(   24) = (  -0.5000000   0.7854181   0.0000000), wk =   0.0625000
        k(   25) = (  -0.5000000  -1.0472241   0.0000000), wk =   0.0312500

     Initial potential from superposition of free atoms

     starting charge  455.69457, renormalised to  456.00000

     negative rho (up, down):  9.342E-02 0.000E+00
     Starting wfcs are  396 randomized atomic wfcs

     Self-consistent Calculation

     iteration #  1     ecut=    60.00 Ry     beta= 0.50
     Davidson diagonalization with overlap
     ethr =  1.00E-02,  avg # of iterations =  2.0

     negative rho (up, down):  8.588E-02 0.000E+00

     total energy              =   -3708.47131231 Ry
     Harris-Foulkes estimate   =   -3716.34815912 Ry
     estimated scf accuracy    <      29.99458372 Ry

[...]

     iteration # 16     ecut=    60.00 Ry     beta= 0.50
     Davidson diagonalization with overlap
     c_bands:  3 eigenvalues not converged
     ethr =  9.17E-06,  avg # of iterations =  4.0

[...]

     iteration # 20     ecut=    60.00 Ry     beta= 0.50
     Davidson diagonalization with overlap
     c_bands:  1 eigenvalues not converged
     c_bands:  1 eigenvalues not converged
     ethr =  6.05E-07,  avg # of iterations =  9.0

[...]

     total energy              =   -3711.58198486 Ry
     Harris-Foulkes estimate   =   -3711.58198487 Ry
     estimated scf accuracy    <       0.00000002 Ry

     iteration # 37     ecut=    60.00 Ry     beta= 0.50
     Davidson diagonalization with overlap
     ethr =  2.96E-12,  avg # of iterations =  1.0

[...]

     End of self-consistent calculation

          k = 0.0000 0.0000 0.0000 ( 69653 PWs)   bands (ev):

   -39.8103 -37.9751 -37.2257 -35.6018 -22.7702 -22.6999 -22.6418 -22.6251
   -22.5625 -22.4982 -22.4908 -22.3368 -19.9100 -19.8372 -19.7469 -18.4505
   -18.3464 -18.3211 -18.2709 -18.2282 -17.9783 -16.9499 -16.8149 -16.6314
   -15.5084 -15.3623 -15.0530 -14.9340 -14.8578 -14.8520 -14.8082 -14.8056
   -14.6550 -14.6056 -14.5062 -14.4292 -14.4073 -14.4059 -14.3670 -14.3142
   -14.2590 -14.0529 -13.9504 -13.9425 -13.9380 -13.9378 -13.9328 -13.8988
   -13.8979 -13.8357 -13.5885 -13.5443 -13.5381 -13.4554  -8.0368  -8.0080
    -7.9294  -7.8991  -7.8197  -7.7876  -7.7363  -7.7139  -7.6941  -7.6863
    -7.6815  -7.6607  -7.5852  -7.5739  -7.5505  -7.5216  -7.4686  -7.4627
    -7.4435  -7.3681  -7.3581  -7.3105  -7.2925  -7.1426  -3.1033  -2.9370
    -2.7603  -2.6809  -2.3240  -2.1775  -2.1270  -2.0808  -2.0489  -2.0387
    -2.0225  -1.9924  -1.9898  -1.8591  -1.8337  -1.8244  -1.7869  -1.7474
    -1.6155  -1.5794  -1.4804  -1.4591  -1.4544  -1.3905  -1.3335  -1.2805
    -1.2685  -1.2222  -1.2146  -1.1709  -1.1184  -1.0953  -1.0559  -0.9079
    -0.9014  -0.8763  -0.8754  -0.8748  -0.8739  -0.8610  -0.8256  -0.8187
    -0.7827  -0.7339  -0.6710  -0.6651  -0.6483  -0.6218  -0.6182  -0.5792
    -0.4836  -0.4738  -0.3761  -0.2771  -0.2546  -0.2094  -0.2025  -0.1875
    -0.1350  -0.1329  -0.0897  -0.0850  -0.0772  -0.0583  -0.0158   0.0406
     0.0553   0.0845   0.0914   0.1026   0.1034   0.1191   0.1423   0.1518
     0.1768   0.2234   0.2254   0.2407   0.2838   0.3141   0.3192   0.3485
     0.3533   0.3584   0.3849   0.4276   0.4335   0.4439   0.4558   0.4617
     0.4695   0.5179   0.5826   0.6302   0.6451   0.6526   0.6568   0.6901
     0.7067   0.7651   0.8503   0.8737   0.8876   1.0083   1.0373   1.0557
     1.0779   1.0887   1.1422   1.1453   1.1790   1.2164   1.2367   1.3129
     1.3134   1.3214   1.3325   1.3390   1.3507   1.4451   1.4510   1.4644
     1.5142   1.5373   1.5411   1.5716   1.6014   1.6393   1.6958   1.7255
     1.7538   1.7797   1.8120   1.8146   1.8384   1.8677   1.8895   1.9153
     1.9336   1.9424   2.0342   2.0805   2.1616   2.1712   2.1996   2.2791
     2.2829   2.3393   2.3530   2.3714   2.4176   2.4291   2.4940   2.5113
     2.6222   2.6761   2.6838   2.7931   2.9676   2.9838   4.6530   5.3268
     5.4079   5.8207   6.2022   6.3332   6.5462   6.6818   6.7305   6.7374
     6.7895   6.9852   7.2502   7.3762   7.4415   7.4554   7.4699   7.4900
     7.6651   7.8370   8.1501   8.2262   8.2366   8.2512   8.2561   8.3587
     8.3808   8.5583   8.5607   8.6080   8.6411   8.7257   8.9060   8.9694
     8.9926   9.0237

[...]

          k = 0.3750-1.0472 0.0000 ( 69570 PWs)   bands (ev):

[...]

          k =-0.5000 0.0000 0.0000 ( 69680 PWs)   bands (ev):

[...]

          k =-0.5000-1.0472 0.0000 ( 69548 PWs)   bands (ev):

   -39.7957 -37.9567 -37.2162 -35.5902 -22.5672 -22.5377 -22.5132 -22.4517
   -22.4131 -22.4018 -22.3091 -22.2210 -20.1164 -19.8763 -19.7006 -18.6187
   -18.4416 -18.3135 -18.2762 -18.1806 -18.1555 -17.0227 -16.8463 -16.7419
   -15.0036 -14.8218 -14.7933 -14.6781 -14.6151 -14.5880 -14.5570 -14.5532
   -14.4526 -14.3780 -14.3328 -14.2635 -14.1955 -14.1851 -14.1588 -14.1371
   -14.1093 -14.1000 -14.0390 -13.9950 -13.9298 -13.9272 -13.8982 -13.8909
   -13.8235 -13.8227 -13.8169 -13.8163 -13.7170 -13.7041  -8.3525  -8.3018
    -8.3007  -8.2207  -8.1836  -8.1749  -8.0732  -8.0410  -8.0274  -8.0040
    -7.9774  -7.9603  -7.9249  -7.9226  -7.8947  -7.8862  -7.8819  -7.8793
    -7.7403  -7.7318  -7.7064  -7.7048  -7.5623  -7.5342  -3.8588  -3.7340
    -3.6167  -3.5125  -3.3254  -3.2682  -3.2513  -3.1791  -3.1538  -3.1474
    -2.9505  -2.9498  -2.9410  -2.9372  -2.3244  -2.2946  -2.2916  -2.2627
    -2.1902  -2.1820  -2.1057  -2.0965  -2.0857  -2.0677  -2.0327  -1.9846
    -1.9491  -1.8870  -1.8742  -1.8489  -1.8231  -1.7449  -1.6889  -1.6657
    -1.5541  -1.5166  -1.4533  -1.4094  -1.3999  -1.3092  -1.3010  -1.2491
    -1.1515  -1.1181  -1.0741  -1.0483  -0.9718  -0.9451  -0.9432  -0.9134
    -0.9001  -0.8706  -0.7387  -0.7138  -0.7106  -0.7040  -0.6548  -0.6273
    -0.6256  -0.6241  -0.6110  -0.6104  -0.5708  -0.5614  -0.5367  -0.4601
    -0.4482  -0.3637  -0.2527  -0.2296  -0.2265  -0.2215   0.1947   0.2039
     0.3444   0.3547   0.3583   0.4512   0.4573   0.5282   0.5806   0.6002
     0.6542   0.6635   0.7007   0.7853   0.8317   0.9315   0.9400   1.0051
     1.1340   1.1444   1.1836   1.2294   1.2447   1.2817   1.3023   1.3033
     1.3118   1.3521   1.3632   1.3881   1.4032   1.4159   1.4241   1.4418
     1.4621   1.4846   1.4962   1.5582   1.5605   1.5753   1.6392   1.6403
     1.6749   1.6940   1.6952   1.7052   1.7928   1.8192   1.8253   1.8937
     1.9066   1.9153   1.9363   1.9557   1.9690   2.0071   2.0109   2.0339
     2.1197   2.1308   2.1807   2.2010   2.2920   2.2949   2.2960   2.2991
     2.3123   2.4226   2.5942   2.6004   2.6469   2.6558   2.6571   2.6659
     2.8181   2.8332   2.8535   2.8648   3.4973   3.5094   3.5928   3.6769
     3.7634   3.7761   3.8566   3.9283   4.1564   4.2454   5.3985   6.2255
     6.2323   6.8308   6.8408   6.8767   6.8812   6.9255   6.9994   7.1051
     7.4653   7.5275   7.7225   7.8609   7.8902   8.2053   8.3659   8.5601
     8.6148   8.7883   8.8103   8.8195   9.1995   9.2272   9.3570   9.5006
     9.5024   9.5503   9.6166   9.6383   9.6490   9.6525   9.7247   9.8479
     9.9162   9.9318

     the Fermi energy is     2.8270 ev

!    total energy              =   -3711.58198486 Ry
     Harris-Foulkes estimate   =   -3711.58198486 Ry
     estimated scf accuracy    <          4.9E-09 Ry

     The total energy is the sum of the following terms:

     one-electron contribution =  -63464.09345438 Ry
     hartree contribution      =   32038.59383014 Ry
     xc contribution           =   -1263.73022861 Ry
     ewald contribution        =   28977.66131973 Ry
     smearing contrib. (-TS)   =      -0.01345173 Ry

     convergence has been achieved in  37 iterations

     negative rho (up, down):  9.175E-02 0.000E+00

     Forces acting on atoms (cartesian axes, Ry/au):

     atom    1 type  4   force =    -0.00000337    0.00000000   -0.00010046
     atom    2 type  4   force =     0.00000337    0.00000000   -0.00010046
     atom    3 type  3   force =    -0.00001779    0.00000000   -0.00008749
     atom    4 type  3   force =     0.00001779    0.00000000   -0.00008749
     atom    5 type  4   force =     0.00000016    0.00000000   -0.00006348
     atom    6 type  4   force =    -0.00000016    0.00000000   -0.00006348
     atom    7 type  1   force =     0.00000000    0.00000000   -0.00006424
     atom    8 type  1   force =     0.00000000    0.00000000   -0.00005892
     atom    9 type  3   force =     0.00001838    0.00000000   -0.00007865
     atom   10 type  3   force =    -0.00001838    0.00000000   -0.00007865
     atom   11 type  4   force =     0.00000000    0.00000000    0.00002285
     atom   12 type  4   force =    -0.00000946    0.00000000   -0.00004017
     atom   13 type  4   force =     0.00000946    0.00000000   -0.00004017
     atom   14 type  4   force =     0.00000000    0.00000000    0.00002219
     atom   15 type  2   force =     0.00000000    0.00000000   -0.00016516
     atom   16 type  5   force =     0.00000000    0.00000000   -0.00024968
     atom   17 type  4   force =     0.00004627    0.00000000    0.00023100
     atom   18 type  4   force =    -0.00004627    0.00000000    0.00023100
     atom   19 type  4   force =     0.00000000    0.00000000    0.00025861
     atom   20 type  4   force =     0.00000000    0.00000000    0.00037730
     atom   21 type  3   force =    -0.00004983    0.00000000   -0.00052992
     atom   22 type  3   force =     0.00004983    0.00000000   -0.00052992
     atom   23 type  1   force =     0.00000000    0.00000000   -0.00074620
     atom   24 type  1   force =     0.00000000    0.00000000   -0.00080788
     atom   25 type  4   force =    -0.00007553    0.00000000    0.00194521
     atom   26 type  4   force =     0.00007553    0.00000000    0.00194521
     atom   27 type  4   force =     0.00023078    0.00000000    0.00251333
     atom   28 type  4   force =    -0.00023078    0.00000000    0.00251333
     atom   29 type  3   force =     0.00058901    0.00000000   -0.00441561
     atom   30 type  3   force =    -0.00058901    0.00000000   -0.00441561
     atom   31 type  4   force =     0.00033919    0.00000000    0.00541936
     atom   32 type  4   force =    -0.00033919    0.00000000    0.00541936
     atom   33 type  1   force =     0.00000000    0.00000000   -0.01383936
     atom   34 type  1   force =     0.00000000    0.00000000   -0.00969502
     atom   35 type  3   force =    -0.00301308    0.00000000    0.00238269
     atom   36 type  3   force =     0.00301308    0.00000000    0.00238269
     atom   37 type  4   force =     0.00000000    0.00000000    0.03147150
     atom   38 type  4   force =     0.00000000    0.00000000    0.05413510
     atom   39 type  4   force =     0.01271964    0.00000000    0.04495990
     atom   40 type  4   force =    -0.01271964    0.00000000    0.04495990
     atom   41 type  5   force =     0.00000000    0.00000000    0.01491761
     atom   42 type  2   force =     0.00000000    0.00000000    0.01714360
     atom   43 type  4   force =     0.00000000    0.00000000   -0.04330485
     atom   44 type  4   force =    -0.00190128    0.00000000   -0.03292004
     atom   45 type  4   force =     0.00190128    0.00000000   -0.03292004
     atom   46 type  4   force =     0.00000000    0.00000000   -0.01668756
     atom   47 type  3   force =    -0.00007113    0.00000000   -0.01488633
     atom   48 type  3   force =     0.00007113    0.00000000   -0.01488633
     atom   49 type  1   force =     0.00000000    0.00000000   -0.01823709
     atom   50 type  1   force =     0.00000000    0.00000000   -0.02326810
     atom   51 type  4   force =     0.00047218    0.00000000    0.00005602
     atom   52 type  4   force =    -0.00047218    0.00000000    0.00005602
     atom   53 type  3   force =    -0.00011605    0.00000000   -0.00086890
     atom   54 type  3   force =     0.00011605    0.00000000   -0.00086890
     atom   55 type  4   force =    -0.00000385    0.00000000    0.00087116
     atom   56 type  4   force =     0.00000385    0.00000000    0.00087116

     Total force =     0.122022     Total SCF correction =     0.000391

     Computing stress (Cartesian axis) and pressure

     negative rho (up, down):  9.175E-02 0.000E+00
          total   stress  (Ry/bohr**3)                   (kbar)     P=       -8.70
  -0.00001444   0.00000000   0.00000000           -2.12        0.00        0.00
   0.00000000  -0.00000421   0.00000000            0.00       -0.62        0.00
   0.00000000   0.00000000  -0.00015874            0.00        0.00      -23.35

     General routines

     Parallel routines

   This run was terminated on:   0:30:53  28May2021

   JOB DONE.
[1622176253.730195] [holy7c16602:269547:0]          mpool.c:43   UCX  WARN  object 0x3fb9680 was not returned to mpool ucp_requests
[1622176253.740208] [holy7c16510:82131:0]          mpool.c:43   UCX  WARN  object 0x38f0980 was not returned to mpool ucp_requests
[1622176253.740623] [holy7c16602:269548:0]          mpool.c:43   UCX  WARN  object 0x3cdc580 was not returned to mpool ucp_requests
[1622176253.745925] [holy7c08101:192842:0]          mpool.c:43   UCX  WARN  object 0x3bb07c0 was not returned to mpool ucp_requests
[1622176253.742222] [holy7c16601:22377:0]          mpool.c:43   UCX  WARN  object 0x3a54600 was not returned to mpool ucp_requests
[1622176253.746952] [holy7c04107:184518:0]          mpool.c:43   UCX  WARN  object 0x42ecd40 was not returned to mpool ucp_requests
[1622176253.746398] [holy7c06606:85605:0]          mpool.c:43   UCX  WARN  object 0x40a9680 was not returned to mpool ucp_requests
[1622176253.746423] [holy7c06606:85605:0]          mpool.c:43   UCX  WARN  object 0x40a9a00 was not returned to mpool ucp_requests
[1622176253.749436] [holy7c16512:258345:0]          mpool.c:43   UCX  WARN  object 0x4538880 was not returned to mpool ucp_requests
[1622176253.749454] [holy7c16512:258345:0]          mpool.c:43   UCX  WARN  object 0x4538a40 was not returned to mpool ucp_requests
[1622176253.744055] [holy7c16601:22380:0]          mpool.c:43   UCX  WARN  object 0x377cc00 was not returned to mpool ucp_requests
[1622176253.744077] [holy7c16601:22380:0]          mpool.c:43   UCX  WARN  object 0x377d300 was not returned to mpool ucp_requests
[1622176253.747068] [holy7c08208:266458:0]          mpool.c:43   UCX  WARN  object 0x2992280 was not returned to mpool ucp_requests
[1622176253.747096] [holy7c08208:266458:0]          mpool.c:43   UCX  WARN  object 0x2992440 was not returned to mpool ucp_requests
[1622176253.756799] [holy7c12208:68400:0]          mpool.c:43   UCX  WARN  object 0x37bb3c0 was not returned to mpool ucp_requests
[1622176253.768980] [holy7c04102:265618:0]          mpool.c:43   UCX  WARN  object 0x369cd00 was not returned to mpool ucp_requests
[1622176253.746005] [holy7c16601:22378:0]          mpool.c:43   UCX  WARN  object 0x4704980 was not returned to mpool ucp_requests
[1622176253.765033] [holy7c06207:185321:0]          mpool.c:43   UCX  WARN  object 0x478a280 was not returned to mpool ucp_requests
[1622176253.765056] [holy7c06207:185321:0]          mpool.c:43   UCX  WARN  object 0x478a440 was not returned to mpool ucp_requests