     Program PWSCF v.6.5 starts on 28May2021 at 10: 0:21

     R & G space division:  proc/nbgrp/npool/nimage =      32
     Reading input from YCBCO50_212_CuO_cleave_2.0_sep.pwi
Warning: card &IONS ignored
Warning: card     ION_DYNAMICS = 'BFGS' ignored
Warning: card / ignored
Warning: card &CELL ignored
Warning: card     CELL_DYNAMICS = 'BFGS' ignored
Warning: card     PRESS_CONV_THR = 5 ignored
Warning: card / ignored

     Current dimensions of program PWSCF are:
     Max number of different atomic species (ntypx) = 10
     Max number of k-points (npk) =  40000
     Max angular momentum in pseudopotentials (lmaxx) =  3

     Message from routine setup:
     using ibrav=0 with symmetry is DISCOURAGED, use correct ibrav instead

     bravais-lattice index     =            0
     lattice parameter (alat)  =      14.8133  a.u.
     unit-cell volume          =    9113.2300 (a.u.)^3
     number of atoms/cell      =           56
     number of atomic types    =            5
     number of electrons       =       456.00
     number of Kohn-Sham states=          274
     kinetic-energy cutoff     =      60.0000  Ry
     charge density cutoff     =     720.0000  Ry
     convergence threshold     =      1.0E-08
     mixing beta               =       0.5000
     number of iterations used =           10  local-TF  mixing
     Exchange-correlation= SLA PW PBE PBE
                           (   1   4   3   4   0   0   0)

     celldm(1)=  14.813271  celldm(2)=   0.000000  celldm(3)=   0.000000
     celldm(4)=   0.000000  celldm(5)=   0.000000  celldm(6)=   0.000000

     crystal axes: (cart. coord. in units of alat)
               a(1) = (   1.000000   0.000000   0.000000 )
               a(2) = (   0.000000   0.477453   0.000000 )
               a(3) = (   0.000000   0.000000   5.872041 )

     reciprocal axes: (cart. coord. in units 2 pi/alat)
               b(1) = (  1.000000  0.000000  0.000000 )
               b(2) = (  0.000000  2.094448  0.000000 )
               b(3) = (  0.000000  0.000000  0.170299 )

     PseudoPot. # 1 for Ba read from file:
     ./pseudo/Ba.pbe-nsp-van.UPF
     MD5 check sum: 2b9c31dd849566dd297d80989662b7a0
     Pseudo is Ultrasoft + core correction, Zval = 10.0
     Generated by new atomic code, or converted to UPF format
     Using radial grid of  907 points,  6 beta functions with:
                l(1) =   0
                l(2) =   0
                l(3) =   1
                l(4) =   1
                l(5) =   2
                l(6) =   2
     Q(r) pseudized with  6 coefficients,  rinner =    1.200   1.200   1.200
                                                       1.200   1.200

     PseudoPot. # 2 for Ca read from file:
     ./pseudo/Ca.pbe-nsp-van.UPF
     MD5 check sum: 6471098428ff4fa451746d08035ff179
     Pseudo is Ultrasoft + core correction, Zval = 10.0
     Generated by new atomic code, or converted to UPF format
     Using radial grid of  845 points,  6 beta functions with:
                l(1) =   0
                l(2) =   0
                l(3) =   1
                l(4) =   1
                l(5) =   2
                l(6) =   2
     Q(r) pseudized with  6 coefficients,  rinner =    1.200   1.200   1.200
                                                       1.200   1.200

     PseudoPot. # 3 for Cu read from file:
     ./pseudo/Cu.pbe-n-van_ak.UPF
     MD5 check sum: 34e3282627ffb533726feb647e090d62
     Pseudo is Ultrasoft + core correction, Zval = 11.0
     Generated by new atomic code, or converted to UPF format
     Using radial grid of  867 points,  6 beta functions with:
                l(1) =   0
                l(2) =   0
                l(3) =   1
                l(4) =   1
                l(5) =   2
                l(6) =   2
     Q(r) pseudized with  8 coefficients,  rinner =    1.400   1.400   1.400
                                                       1.400   1.400

     PseudoPot. # 4 for O  read from file:
     ./pseudo/O.pbe-van_ak.UPF
     MD5 check sum: 783ce7fe4c79b6a4916957118fed0856
     Pseudo is Ultrasoft, Zval =  6.0
     Generated by new atomic code, or converted to UPF format
     Using radial grid of  737 points,  4 beta functions with:
                l(1) =   0
                l(2) =   0
                l(3) =   1
                l(4) =   1
     Q(r) pseudized with  8 coefficients,  rinner =    0.800   0.800   0.800

     PseudoPot. # 5 for Y  read from file:
     ./pseudo/Y.pbe-nsp-van.UPF
     MD5 check sum: 4412fed3ab108fed87a1b7d6a69a4a38
     Pseudo is Ultrasoft + core correction, Zval = 11.0
     Generated by new atomic code, or converted to UPF format
     Using radial grid of  885 points,  6 beta functions with:
                l(1) =   0
                l(2) =   0
                l(3) =   1
                l(4) =   1
                l(5) =   2
                l(6) =   2
     Q(r) pseudized with  6 coefficients,  rinner =    1.200   1.200   1.200
                                                       1.200   1.200

     atomic species   valence    mass     pseudopotential
        Ba            10.00   137.32700     Ba( 1.00)
        Ca            10.00    40.07800     Ca( 1.00)
        Cu            11.00    63.54600     Cu( 1.00)
        O              6.00    15.99900     O ( 1.00)
        Y             11.00    88.90584     Y ( 1.00)

      4 Sym. Ops. (no inversion) found ( 2 have fractional translation)

   Cartesian axes

     site n.     atom                  positions (alat units)
         1           O   tau(   1) = (  -0.0008343   0.2387265  -0.0222443  )
         2           O   tau(   2) = (   0.5008340   0.2387265  -0.0222443  )
         3           Cu  tau(   3) = (   0.5017257   0.0000000   0.0109608  )
         4           Cu  tau(   4) = (  -0.0017260   0.0000000   0.0109608  )
         5           O   tau(   5) = (  -0.0028933   0.0000000   0.2506504  )
         6           O   tau(   6) = (   0.5028929   0.0000000   0.2506504  )
         7           Ba  tau(   7) = (   0.7499995   0.2387265   0.2749435  )
         8           Ba  tau(   8) = (   0.2499998   0.2387265   0.2755214  )
         9           Cu  tau(   9) = (   0.4980963   0.0000000   0.5208446  )
        10           Cu  tau(  10) = (   0.0019033   0.0000000   0.5208446  )
        11           O   tau(  11) = (   0.2499998   0.0000000   0.5341884  )
        12           O   tau(  12) = (   0.5083351   0.2387265   0.5569851  )
        13           O   tau(  13) = (  -0.0083354   0.2387265   0.5569851  )
        14           O   tau(  14) = (   0.7499995   0.0000000   0.5573831  )
        15           Ca  tau(  15) = (   0.2499998   0.2387265   0.7436937  )
        16           Y   tau(  16) = (   0.7499995   0.2387265   0.7469544  )
        17           O   tau(  17) = (  -0.0063798   0.2387265   0.9248530  )
        18           O   tau(  18) = (   0.5063794   0.2387265   0.9248530  )
        19           O   tau(  19) = (   0.7499995   0.0000000   0.9338544  )
        20           O   tau(  20) = (   0.2499998   0.0000000   0.9461329  )
        21           Cu  tau(  21) = (   0.0015717   0.0000000   0.9686860  )
        22           Cu  tau(  22) = (   0.4984280   0.0000000   0.9686860  )
        23           Ba  tau(  23) = (   0.2499998   0.2387265   1.2085224  )
        24           Ba  tau(  24) = (   0.7499995   0.2387265   1.2233294  )
        25           O   tau(  25) = (   0.0063772   0.0000000   1.2547537  )
        26           O   tau(  26) = (   0.4936224   0.0000000   1.2547537  )
        27           O   tau(  27) = (   0.5384045   0.2387265   1.4952521  )
        28           O   tau(  28) = (  -0.0384049   0.2387265   1.4952521  )
        29           Cu  tau(  29) = (   0.5006120   0.0000000   1.4952546  )
        30           Cu  tau(  30) = (  -0.0006123   0.0000000   1.4952546  )
        31           O   tau(  31) = (   0.4936212   0.0000000   1.9908927  )
        32           O   tau(  32) = (   0.0063785   0.0000000   1.9908927  )
        33           Ba  tau(  33) = (   0.7499995   0.2387265   2.0223220  )
        34           Ba  tau(  34) = (   0.2499998   0.2387265   2.0371316  )
        35           Cu  tau(  35) = (   0.4984280   0.0000000   2.2769629  )
        36           Cu  tau(  36) = (   0.0015717   0.0000000   2.2769629  )
        37           O   tau(  37) = (   0.2499998   0.0000000   2.2995210  )
        38           O   tau(  38) = (   0.7499995   0.0000000   2.3117907  )
        39           O   tau(  39) = (   0.5063781   0.2387265   2.3207958  )
        40           O   tau(  40) = (  -0.0063785   0.2387265   2.3207958  )
        41           Y   tau(  41) = (   0.7499995   0.2387265   2.4986894  )
        42           Ca  tau(  42) = (   0.2499998   0.2387265   2.5019590  )
        43           O   tau(  43) = (   0.7499995   0.0000000   2.6882568  )
        44           O   tau(  44) = (  -0.0083354   0.2387265   2.6886587  )
        45           O   tau(  45) = (   0.5083351   0.2387265   2.6886587  )
        46           O   tau(  46) = (   0.2499998   0.0000000   2.7114567  )
        47           Cu  tau(  47) = (   0.0019059   0.0000000   2.7247903  )
        48           Cu  tau(  48) = (   0.4980938   0.0000000   2.7247903  )
        49           Ba  tau(  49) = (   0.2499998   0.2387265   2.9701300  )
        50           Ba  tau(  50) = (   0.7499995   0.2387265   2.9706722  )
        51           O   tau(  51) = (  -0.0028895   0.0000000   2.9949793  )
        52           O   tau(  52) = (   0.5028891   0.0000000   2.9949793  )
        53           Cu  tau(  53) = (   0.5017844   0.0000000   3.2346638  )
        54           Cu  tau(  54) = (  -0.0017847   0.0000000   3.2346638  )
        55           O   tau(  55) = (   0.5008990   0.2387265   3.2678703  )
        56           O   tau(  56) = (  -0.0008994   0.2387265   3.2678703  )

     number of k points=    25  Gaussian smearing, width (Ry)=  0.0100
                       cart. coord. in units 2pi/alat
        k(    1) = (   0.0000000   0.0000000   0.0000000), wk =   0.0312500
        k(    2) = (   0.0000000   0.2618060   0.0000000), wk =   0.0625000
        k(    3) = (   0.0000000   0.5236121   0.0000000), wk =   0.0625000
        k(    4) = (   0.0000000   0.7854181   0.0000000), wk =   0.0625000
        k(    5) = (   0.0000000  -1.0472241   0.0000000), wk =   0.0312500
        k(    6) = (   0.1250000   0.0000000   0.0000000), wk =   0.0625000
        k(    7) = (   0.1250000   0.2618060   0.0000000), wk =   0.1250000
        k(    8) = (   0.1250000   0.5236121   0.0000000), wk =   0.1250000
        k(    9) = (   0.1250000   0.7854181   0.0000000), wk =   0.1250000
        k(   10) = (   0.1250000  -1.0472241   0.0000000), wk =   0.0625000
        k(   11) = (   0.2500000   0.0000000   0.0000000), wk =   0.0625000
        k(   12) = (   0.2500000   0.2618060   0.0000000), wk =   0.1250000
        k(   13) = (   0.2500000   0.5236121   0.0000000), wk =   0.1250000
        k(   14) = (   0.2500000   0.7854181   0.0000000), wk =   0.1250000
        k(   15) = (   0.2500000  -1.0472241   0.0000000), wk =   0.0625000
        k(   16) = (   0.3750000   0.0000000   0.0000000), wk =   0.0625000
        k(   17) = (   0.3750000   0.2618060   0.0000000), wk =   0.1250000
        k(   18) = (   0.3750000   0.5236121   0.0000000), wk =   0.1250000
        k(   19) = (   0.3750000   0.7854181   0.0000000), wk =   0.1250000
        k(   20) = (   0.3750000  -1.0472241   0.0000000), wk =   0.0625000
        k(   21) = (  -0.5000000   0.0000000   0.0000000), wk =   0.0312500
        k(   22) = (  -0.5000000   0.2618060   0.0000000), wk =   0.0625000
        k(   23) = (  -0.5000000   0.5236121   0.0000000), wk =   0.0625000
        k(   24) = (  -0.5000000   0.7854181   0.0000000), wk =   0.0625000
        k(   25) = (  -0.5000000  -1.0472241   0.0000000), wk =   0.0312500

     Initial potential from superposition of free atoms

     starting charge  455.69457, renormalised to  456.00000

     negative rho (up, down):  9.316E-02 0.000E+00
     Starting wfcs are  396 randomized atomic wfcs

     Self-consistent Calculation

     iteration #  1     ecut=    60.00 Ry     beta= 0.50
     Davidson diagonalization with overlap
     ethr =  1.00E-02,  avg # of iterations =  2.0

     negative rho (up, down):  8.605E-02 0.000E+00

     total energy              =   -3708.22808095 Ry
     Harris-Foulkes estimate   =   -3716.41650575 Ry
     estimated scf accuracy    <      31.25409547 Ry

[...]

     iteration #  7     ecut=    60.00 Ry     beta= 0.50
     Davidson diagonalization with overlap
     c_bands:  1 eigenvalues not converged
     ethr =  2.72E-04,  avg # of iterations =  6.8

[...]

     iteration # 25     ecut=    60.00 Ry     beta= 0.50
     Davidson diagonalization with overlap
     c_bands:  1 eigenvalues not converged
     c_bands:  1 eigenvalues not converged
     ethr =  1.21E-08,  avg # of iterations =  5.9

[...]

     total energy              =   -3711.53414739 Ry
     Harris-Foulkes estimate   =   -3711.53414738 Ry
     estimated scf accuracy    <       0.00000001 Ry

     iteration # 35     ecut=    60.00 Ry     beta= 0.50
     Davidson diagonalization with overlap
     ethr =  2.30E-12,  avg # of iterations =  1.1

[...]

     End of self-consistent calculation

          k = 0.0000 0.0000 0.0000 ( 71619 PWs)   bands (ev):

   -38.3176 -38.2559 -35.9521 -35.8821 -23.0631 -23.0526 -23.0261 -22.9348
   -22.9243 -22.9079 -22.7425 -22.5007 -18.7908 -18.7378 -18.6905 -18.6304
   -18.3216 -18.2587 -17.2982 -17.2309 -17.1647 -17.0987 -16.9834 -16.9102
   -15.6951 -15.6543 -15.2368 -15.2182 -15.0246 -14.9084 -14.8529 -14.8433
   -14.8000 -14.7691 -14.7108 -14.7010 -14.6896 -14.6792 -14.5586 -14.5465
   -14.3812 -14.3393 -14.2690 -14.2385 -14.2302 -14.2279 -14.2228 -14.2134
   -14.1844 -14.1118 -14.0440 -13.9872 -13.1056 -12.6393  -8.3496  -8.3020
    -8.2869  -8.1944  -8.1814  -8.1457  -8.1122  -8.1023  -8.0136  -7.9742
    -7.9640  -7.9184  -7.8841  -7.8776  -7.8677  -7.7977  -7.7930  -7.7546
    -7.7420  -7.7363  -7.7260  -7.5606  -7.3441  -7.2409  -3.2416  -3.2190
    -3.1272  -3.0325  -2.4163  -2.4103  -2.3275  -2.3274  -2.3231  -2.2918
    -2.1809  -2.1310  -2.1217  -2.0958  -2.0902  -2.0645  -2.0302  -2.0193
    -1.9628  -1.9270  -1.9196  -1.8672  -1.8135  -1.7590  -1.6207  -1.5926
    -1.4339  -1.3851  -1.3734  -1.3469  -1.2845  -1.2120  -1.1820  -1.1675
    -1.1617  -1.1602  -1.1534  -1.1512  -1.1285  -1.1272  -1.0637  -0.9913
    -0.9366  -0.9297  -0.6871  -0.6462  -0.5743  -0.5108  -0.4998  -0.4907
    -0.4896  -0.4793  -0.4636  -0.4455  -0.4338  -0.4142  -0.3781  -0.3734
    -0.3717  -0.3714  -0.3575  -0.3193  -0.2905  -0.2201  -0.1969  -0.1858
    -0.1854  -0.1777  -0.1636  -0.1362  -0.1143  -0.1006  -0.0929  -0.0680
    -0.0655  -0.0650  -0.0621   0.0017   0.0333   0.0407   0.0560   0.0728
     0.0800   0.0829   0.1226   0.1562   0.1673   0.1836   0.2355   0.2785
     0.3122   0.3261   0.3426   0.3437   0.3530   0.3673   0.3717   0.3735
     0.5322   0.5608   0.6286   0.6835   0.7071   0.7440   0.7962   0.8080
     0.8207   0.8420   0.8469   0.8818   0.9574   0.9914   1.0040   1.0251
     1.0291   1.0339   1.0345   1.0374   1.1163   1.1400   1.1510   1.1855
     1.1888   1.1967   1.2120   1.2399   1.2714   1.2959   1.3623   1.4141
     1.4248   1.4572   1.5262   1.5331   1.5332   1.5989   1.5989   1.6061
     1.6312   1.6586   1.6711   1.7181   1.7586   1.8676   1.8803   1.9389
     2.0395   2.0460   2.1655   2.2121   2.2143   2.2899   2.3024   2.3931
     2.3988   2.4240   2.4306   2.4725   2.6714   2.7228   4.7822   5.0462
     5.0638   5.7106   5.8080   6.4079   6.4395   6.5292   6.6947   6.7500
     6.8336   7.0866   7.0972   7.1835   7.1906   7.3279   7.3818   7.7183
     7.8555   7.9045   7.9431   7.9635   8.0209   8.2372   8.2575   8.2957
     8.2970   8.3912   8.4246   8.4887   8.7745   8.8998   8.9264   8.9607
     8.9863   9.1102

[...]

          k = 0.3750-1.0472 0.0000 ( 71526 PWs)   bands (ev):

[...]

          k =-0.5000 0.0000 0.0000 ( 71644 PWs)   bands (ev):

[...]

          k =-0.5000-1.0472 0.0000 ( 71492 PWs)   bands (ev):

   -38.2992 -38.2375 -35.9405 -35.8705 -22.8916 -22.8603 -22.8495 -22.8305
   -22.8203 -22.7259 -22.6240 -22.3591 -18.9614 -18.9006 -18.6202 -18.5596
   -18.4964 -18.4421 -17.3747 -17.3017 -17.1961 -17.1313 -17.0904 -17.0237
   -14.9920 -14.9614 -14.9110 -14.8967 -14.7706 -14.7341 -14.7044 -14.6825
   -14.6732 -14.6475 -14.6249 -14.5432 -14.5204 -14.5044 -14.4941 -14.4798
   -14.4768 -14.4438 -14.2396 -14.2350 -14.2342 -14.2309 -14.1649 -14.1209
   -14.1125 -14.1118 -14.1006 -14.0998 -12.9173 -12.9058  -8.6451  -8.6349
    -8.5944  -8.5843  -8.5002  -8.4486  -8.4226  -8.3202  -8.3099  -8.2967
    -8.2908  -8.2838  -8.2189  -8.2164  -8.2063  -8.2051  -8.1843  -8.1739
    -8.1665  -8.0009  -7.9263  -7.8594  -7.8369  -7.7727  -4.0601  -4.0206
    -3.8316  -3.7960  -3.6710  -3.6049  -3.5685  -3.4799  -3.2380  -3.2371
    -3.2287  -3.2277  -3.1956  -3.1421  -2.5850  -2.5756  -2.4812  -2.4674
    -2.4278  -2.3706  -2.3533  -2.3177  -2.3164  -2.3052  -2.2321  -2.2187
    -2.2139  -2.1810  -2.1542  -2.1334  -2.0820  -1.9999  -1.9931  -1.9882
    -1.9632  -1.9405  -1.7256  -1.6819  -1.6056  -1.5578  -1.3935  -1.3685
    -1.3572  -1.3503  -1.3230  -1.3148  -1.1527  -1.1151  -1.0672  -1.0429
    -1.0373  -1.0110  -0.9633  -0.9384  -0.9210  -0.9207  -0.9099  -0.9014
    -0.8196  -0.7903  -0.7722  -0.7415  -0.7395  -0.6402  -0.5594  -0.5564
    -0.5401  -0.5176  -0.4715  -0.4494  -0.2817  -0.2509  -0.0156   0.0210
     0.2063   0.2121   0.2746   0.2820   0.3170   0.3289   0.3403   0.3599
     0.3625   0.4080   0.4840   0.5941   0.5980   0.8114   0.8141   0.8620
     0.8721   0.8918   0.9114   0.9479   0.9488   0.9794   0.9799   1.0297
     1.0321   1.0348   1.0974   1.1267   1.1409   1.1597   1.1740   1.1993
     1.2114   1.2505   1.2583   1.2756   1.2818   1.2973   1.3233   1.3271
     1.3700   1.4055   1.4186   1.5266   1.5980   1.6128   1.6646   1.6799
     1.6834   1.7138   1.7811   1.8115   1.8270   1.8401   1.9035   1.9083
     1.9347   1.9676   1.9755   2.0107   2.0115   2.0231   2.0246   2.1345
     2.1990   2.2490   2.2522   2.2952   2.3591   2.3679   2.3680   2.3771
     2.5088   2.5145   2.5586   2.5793   2.7272   2.7989   3.2760   3.3079
     3.3396   3.3734   3.4356   3.4687   3.5475   3.5691   6.0562   6.5408
     6.5494   6.5593   6.5924   6.7468   6.8090   7.1664   7.3513   7.4135
     7.7141   7.9626   8.0328   8.0409   8.2592   8.6332   8.7110   8.7812
     8.9491   8.9826   9.0056   9.1130   9.1326   9.1866   9.2050   9.2234
     9.2696   9.3084   9.4017   9.4021   9.5613   9.5925   9.5967   9.6100
     9.6108   9.6217

     the Fermi energy is     2.5394 ev

!    total energy              =   -3711.53414735 Ry
     Harris-Foulkes estimate   =   -3711.53414739 Ry
     estimated scf accuracy    <          6.6E-09 Ry

     The total energy is the sum of the following terms:

     one-electron contribution =  -56867.16994346 Ry
     hartree contribution      =   28737.07786752 Ry
     xc contribution           =   -1263.80181970 Ry
     ewald contribution        =   25682.37946433 Ry
     smearing contrib. (-TS)   =      -0.01971603 Ry

     convergence has been achieved in  35 iterations

     negative rho (up, down):  9.200E-02 0.000E+00

     Forces acting on atoms (cartesian axes, Ry/au):

     atom    1 type  4   force =    -0.00000783    0.00000000   -0.00048289
     atom    2 type  4   force =     0.00000783    0.00000000   -0.00048289
     atom    3 type  3   force =    -0.00000516    0.00000000    0.00011535
     atom    4 type  3   force =     0.00000516    0.00000000    0.00011535
     atom    5 type  4   force =     0.00000244    0.00000000    0.00009991
     atom    6 type  4   force =    -0.00000244    0.00000000    0.00009991
     atom    7 type  1   force =     0.00000000    0.00000000   -0.00037100
     atom    8 type  1   force =     0.00000000    0.00000000   -0.00033981
     atom    9 type  3   force =     0.00010575    0.00000000   -0.00030166
     atom   10 type  3   force =    -0.00010575    0.00000000   -0.00030166
     atom   11 type  4   force =     0.00000000    0.00000000    0.00105244
     atom   12 type  4   force =     0.00004531    0.00000000    0.00129037
     atom   13 type  4   force =    -0.00004531    0.00000000    0.00129037
     atom   14 type  4   force =     0.00000000    0.00000000    0.00137799
     atom   15 type  2   force =     0.00000000    0.00000000   -0.00312163
     atom   16 type  5   force =     0.00000000    0.00000000   -0.00461687
     atom   17 type  4   force =     0.00089727    0.00000000    0.00589552
     atom   18 type  4   force =    -0.00089727    0.00000000    0.00589552
     atom   19 type  4   force =     0.00000000    0.00000000    0.00384783
     atom   20 type  4   force =     0.00000000    0.00000000    0.00498631
     atom   21 type  3   force =     0.00052693    0.00000000   -0.00162396
     atom   22 type  3   force =    -0.00052693    0.00000000   -0.00162396
     atom   23 type  1   force =     0.00000000    0.00000000    0.00729082
     atom   24 type  1   force =     0.00000000    0.00000000    0.01359323
     atom   25 type  4   force =     0.00239599    0.00000000   -0.01747511
     atom   26 type  4   force =    -0.00239599    0.00000000   -0.01747511
     atom   27 type  4   force =    -0.01208060    0.00000000    0.02828708
     atom   28 type  4   force =     0.01208060    0.00000000    0.02828708
     atom   29 type  3   force =     0.01183550    0.00000000   -0.02097477
     atom   30 type  3   force =    -0.01183550    0.00000000   -0.02097477
     atom   31 type  4   force =     0.01411927    0.00000000    0.02436803
     atom   32 type  4   force =    -0.01411927    0.00000000    0.02436803
     atom   33 type  1   force =     0.00000000    0.00000000   -0.00946342
     atom   34 type  1   force =     0.00000000    0.00000000   -0.01723370
     atom   35 type  3   force =    -0.00340840    0.00000000   -0.02082277
     atom   36 type  3   force =     0.00340840    0.00000000   -0.02082277
     atom   37 type  4   force =     0.00000000    0.00000000    0.00344484
     atom   38 type  4   force =     0.00000000    0.00000000    0.00097052
     atom   39 type  4   force =     0.00275937    0.00000000    0.00061642
     atom   40 type  4   force =    -0.00275937    0.00000000    0.00061642
     atom   41 type  5   force =     0.00000000    0.00000000    0.00199068
     atom   42 type  2   force =     0.00000000    0.00000000    0.00036037
     atom   43 type  4   force =     0.00000000    0.00000000    0.00021132
     atom   44 type  4   force =     0.00003080    0.00000000   -0.00128084
     atom   45 type  4   force =    -0.00003080    0.00000000   -0.00128084
     atom   46 type  4   force =     0.00000000    0.00000000   -0.00006268
     atom   47 type  3   force =    -0.00003289    0.00000000    0.00033367
     atom   48 type  3   force =     0.00003289    0.00000000    0.00033367
     atom   49 type  1   force =     0.00000000    0.00000000    0.00017335
     atom   50 type  1   force =     0.00000000    0.00000000    0.00022365
     atom   51 type  4   force =    -0.00004354    0.00000000   -0.00073365
     atom   52 type  4   force =     0.00004354    0.00000000   -0.00073365
     atom   53 type  3   force =    -0.00003577    0.00000000    0.00089562
     atom   54 type  3   force =     0.00003577    0.00000000    0.00089562
     atom   55 type  4   force =     0.00002142    0.00000000   -0.00036340
     atom   56 type  4   force =    -0.00002142    0.00000000   -0.00036340

     Total force =     0.083487     Total SCF correction =     0.000326

     Computing stress (Cartesian axis) and pressure

     negative rho (up, down):  9.200E-02 0.000E+00
          total   stress  (Ry/bohr**3)                   (kbar)     P=       -6.05
  -0.00000156   0.00000000   0.00000000           -0.23        0.00        0.00
   0.00000000  -0.00008570   0.00000000            0.00      -12.61        0.00
   0.00000000   0.00000000  -0.00003612            0.00        0.00       -5.31

     General routines

     Parallel routines

   This run was terminated on:  10:32:32  28May2021

   JOB DONE.
[1622212352.698933] [holy7c04101:173671:0]          mpool.c:43   UCX  WARN  object 0x3a59c40 was not returned to mpool ucp_requests
[1622212352.698055] [holy7c04106:107468:0]          mpool.c:43   UCX  WARN  object 0x33b7e40 was not returned to mpool ucp_requests
[1622212352.698073] [holy7c04106:107468:0]          mpool.c:43   UCX  WARN  object 0x33b81c0 was not returned to mpool ucp_requests
[1622212352.700621] [holy7c04103:132132:0]          mpool.c:43   UCX  WARN  object 0x38a3c80 was not returned to mpool ucp_requests
[1622212352.700641] [holy7c04103:132132:0]          mpool.c:43   UCX  WARN  object 0x38a4000 was not returned to mpool ucp_requests
[1622212352.702905] [holy7c04105:155963:0]          mpool.c:43   UCX  WARN  object 0x3bc4400 was not returned to mpool ucp_requests
[1622212352.702928] [holy7c04105:155963:0]          mpool.c:43   UCX  WARN  object 0x3bc45c0 was not returned to mpool ucp_requests
[1622212352.715347] [holy7c04107:228218:0]          mpool.c:43   UCX  WARN  object 0x3c83900 was not returned to mpool ucp_requests
[1622212352.699978] [holy7c04101:173672:0]          mpool.c:43   UCX  WARN  object 0x3f62d80 was not returned to mpool ucp_requests
[1622212352.699995] [holy7c04101:173672:0]          mpool.c:43   UCX  WARN  object 0x3f62f40 was not returned to mpool ucp_requests
[1622212352.709264] [holy7c04101:173670:0]          mpool.c:43   UCX  WARN  object 0x2e5c440 was not returned to mpool ucp_requests
[1622212352.700281] [holy7c04103:132134:0]          mpool.c:43   UCX  WARN  object 0x4327a80 was not returned to mpool ucp_requests
[1622212352.700311] [holy7c04103:132134:0]          mpool.c:43   UCX  WARN  object 0x4327c40 was not returned to mpool ucp_requests
[1622212352.709124] [holy7c04103:132133:0]          mpool.c:43   UCX  WARN  object 0x29b0180 was not returned to mpool ucp_requests
[1622212352.708508] [holy7c04104:87181:0]          mpool.c:43   UCX  WARN  object 0x45b39c0 was not returned to mpool ucp_requests
[1622212352.702932] [holy7c04105:155965:0]          mpool.c:43   UCX  WARN  object 0x3703300 was not returned to mpool ucp_requests
[1622212352.712377] [holy7c04105:155967:0]          mpool.c:43   UCX  WARN  object 0x477a140 was not returned to mpool ucp_requests
[1622212352.711658] [holy7c04107:228217:0]          mpool.c:43   UCX  WARN  object 0x2f50000 was not returned to mpool ucp_requests