     Program PWSCF v.6.5 starts on 28May2021 at 10: 5: 0

     R & G space division:  proc/nbgrp/npool/nimage =      32
     Reading input from YCBCO50_212_Y_cleave_2.25_sep.pwi
Warning: card &IONS ignored
Warning: card     ION_DYNAMICS = 'BFGS' ignored
Warning: card / ignored
Warning: card &CELL ignored
Warning: card     CELL_DYNAMICS = 'BFGS' ignored
Warning: card     PRESS_CONV_THR = 5 ignored
Warning: card / ignored

     Current dimensions of program PWSCF are:
     Max number of different atomic species (ntypx) = 10
     Max number of k-points (npk) =  40000
     Max angular momentum in pseudopotentials (lmaxx) =  3

     Message from routine setup:
     using ibrav=0 with symmetry is DISCOURAGED, use correct ibrav instead

     bravais-lattice index     =            0
     lattice parameter (alat)  =      14.8133  a.u.
     unit-cell volume          =    9162.7262 (a.u.)^3
     number of atoms/cell      =           56
     number of atomic types    =            5
     number of electrons       =       456.00
     number of Kohn-Sham states=          274
     kinetic-energy cutoff     =      60.0000  Ry
     charge density cutoff     =     720.0000  Ry
     convergence threshold     =      1.0E-08
     mixing beta               =       0.5000
     number of iterations used =           10  local-TF  mixing
     Exchange-correlation= SLA PW PBE PBE
                           (   1   4   3   4   0   0   0)

     celldm(1)=  14.813271  celldm(2)=   0.000000  celldm(3)=   0.000000
     celldm(4)=   0.000000  celldm(5)=   0.000000  celldm(6)=   0.000000

     crystal axes: (cart. coord. in units of alat)
               a(1) = (   1.000000   0.000000   0.000000 )
               a(2) = (   0.000000   0.477453   0.000000 )
               a(3) = (   0.000000   0.000000   5.903933 )

     reciprocal axes: (cart. coord. in units 2 pi/alat)
               b(1) = (  1.000000  0.000000  0.000000 )
               b(2) = (  0.000000  2.094448  0.000000 )
               b(3) = (  0.000000  0.000000  0.169379 )

     PseudoPot. # 1 for Ba read from file:
     ./pseudo/Ba.pbe-nsp-van.UPF
     MD5 check sum: 2b9c31dd849566dd297d80989662b7a0
     Pseudo is Ultrasoft + core correction, Zval = 10.0
     Generated by new atomic code, or converted to UPF format
     Using radial grid of  907 points,  6 beta functions with:
                l(1) =   0
                l(2) =   0
                l(3) =   1
                l(4) =   1
                l(5) =   2
                l(6) =   2
     Q(r) pseudized with  6 coefficients,  rinner =    1.200   1.200   1.200
                                                       1.200   1.200

     PseudoPot. # 2 for Ca read from file:
     ./pseudo/Ca.pbe-nsp-van.UPF
     MD5 check sum: 6471098428ff4fa451746d08035ff179
     Pseudo is Ultrasoft + core correction, Zval = 10.0
     Generated by new atomic code, or converted to UPF format
     Using radial grid of  845 points,  6 beta functions with:
                l(1) =   0
                l(2) =   0
                l(3) =   1
                l(4) =   1
                l(5) =   2
                l(6) =   2
     Q(r) pseudized with  6 coefficients,  rinner =    1.200   1.200   1.200
                                                       1.200   1.200

     PseudoPot. # 3 for Cu read from file:
     ./pseudo/Cu.pbe-n-van_ak.UPF
     MD5 check sum: 34e3282627ffb533726feb647e090d62
     Pseudo is Ultrasoft + core correction, Zval = 11.0
     Generated by new atomic code, or converted to UPF format
     Using radial grid of  867 points,  6 beta functions with:
                l(1) =   0
                l(2) =   0
                l(3) =   1
                l(4) =   1
                l(5) =   2
                l(6) =   2
     Q(r) pseudized with  8 coefficients,  rinner =    1.400   1.400   1.400
                                                       1.400   1.400

     PseudoPot. # 4 for O  read from file:
     ./pseudo/O.pbe-van_ak.UPF
     MD5 check sum: 783ce7fe4c79b6a4916957118fed0856
     Pseudo is Ultrasoft, Zval =  6.0
     Generated by new atomic code, or converted to UPF format
     Using radial grid of  737 points,  4 beta functions with:
                l(1) =   0
                l(2) =   0
                l(3) =   1
                l(4) =   1
     Q(r) pseudized with  8 coefficients,  rinner =    0.800   0.800   0.800

     PseudoPot. # 5 for Y  read from file:
     ./pseudo/Y.pbe-nsp-van.UPF
     MD5 check sum: 4412fed3ab108fed87a1b7d6a69a4a38
     Pseudo is Ultrasoft + core correction, Zval = 11.0
     Generated by new atomic code, or converted to UPF format
     Using radial grid of  885 points,  6 beta functions with:
                l(1) =   0
                l(2) =   0
                l(3) =   1
                l(4) =   1
                l(5) =   2
                l(6) =   2
     Q(r) pseudized with  6 coefficients,  rinner =    1.200   1.200   1.200
                                                       1.200   1.200

     atomic species   valence    mass     pseudopotential
        Ba            10.00   137.32700     Ba( 1.00)
        Ca            10.00    40.07800     Ca( 1.00)
        Cu            11.00    63.54600     Cu( 1.00)
        O              6.00    15.99900     O ( 1.00)
        Y             11.00    88.90584     Y ( 1.00)

      4 Sym. Ops. (no inversion) found ( 2 have fractional translation)

   Cartesian axes

     site n.     atom                  positions (alat units)
         1           O   tau(   1) = (  -0.0008343   0.2387265  -0.0222443  )
         2           O   tau(   2) = (   0.5008340   0.2387265  -0.0222443  )
         3           Cu  tau(   3) = (   0.5017257   0.0000000   0.0109608  )
         4           Cu  tau(   4) = (  -0.0017260   0.0000000   0.0109608  )
         5           O   tau(   5) = (  -0.0028933   0.0000000   0.2506504  )
         6           O   tau(   6) = (   0.5028929   0.0000000   0.2506504  )
         7           Ba  tau(   7) = (   0.7499995   0.2387265   0.2749435  )
         8           Ba  tau(   8) = (   0.2499998   0.2387265   0.2755214  )
         9           Cu  tau(   9) = (   0.4980963   0.0000000   0.5208446  )
        10           Cu  tau(  10) = (   0.0019033   0.0000000   0.5208446  )
        11           O   tau(  11) = (   0.2499998   0.0000000   0.5341884  )
        12           O   tau(  12) = (   0.5083351   0.2387265   0.5569851  )
        13           O   tau(  13) = (  -0.0083354   0.2387265   0.5569851  )
        14           O   tau(  14) = (   0.7499995   0.0000000   0.5573831  )
        15           Ca  tau(  15) = (   0.2499998   0.2387265   0.7436937  )
        16           Y   tau(  16) = (   0.7499995   0.2387265   0.7469544  )
        17           O   tau(  17) = (  -0.0063798   0.2387265   0.9248530  )
        18           O   tau(  18) = (   0.5063794   0.2387265   0.9248530  )
        19           O   tau(  19) = (   0.7499995   0.0000000   0.9338544  )
        20           O   tau(  20) = (   0.2499998   0.0000000   0.9461329  )
        21           Cu  tau(  21) = (   0.0015717   0.0000000   0.9686860  )
        22           Cu  tau(  22) = (   0.4984280   0.0000000   0.9686860  )
        23           Ba  tau(  23) = (   0.2499998   0.2387265   1.2085224  )
        24           Ba  tau(  24) = (   0.7499995   0.2387265   1.2233294  )
        25           O   tau(  25) = (   0.0063772   0.0000000   1.2547537  )
        26           O   tau(  26) = (   0.4936224   0.0000000   1.2547537  )
        27           O   tau(  27) = (   0.5384045   0.2387265   1.4952521  )
        28           O   tau(  28) = (  -0.0384049   0.2387265   1.4952521  )
        29           Cu  tau(  29) = (   0.5006120   0.0000000   1.4952546  )
        30           Cu  tau(  30) = (  -0.0006123   0.0000000   1.4952546  )
        31           O   tau(  31) = (   0.4936212   0.0000000   1.7357531  )
        32           O   tau(  32) = (   0.0063785   0.0000000   1.7357531  )
        33           Ba  tau(  33) = (   0.7499995   0.2387265   1.7671824  )
        34           Ba  tau(  34) = (   0.2499998   0.2387265   1.7819920  )
        35           Cu  tau(  35) = (   0.4984280   0.0000000   2.0218232  )
        36           Cu  tau(  36) = (   0.0015717   0.0000000   2.0218232  )
        37           O   tau(  37) = (   0.2499998   0.0000000   2.0443814  )
        38           O   tau(  38) = (   0.7499995   0.0000000   2.0566511  )
        39           O   tau(  39) = (   0.5063781   0.2387265   2.0656562  )
        40           O   tau(  40) = (  -0.0063785   0.2387265   2.0656562  )
        41           Y   tau(  41) = (   0.7499995   0.2387265   2.2435498  )
        42           Ca  tau(  42) = (   0.2499998   0.2387265   2.2468194  )
        43           O   tau(  43) = (   0.7499995   0.0000000   2.7201493  )
        44           O   tau(  44) = (  -0.0083354   0.2387265   2.7205511  )
        45           O   tau(  45) = (   0.5083351   0.2387265   2.7205511  )
        46           O   tau(  46) = (   0.2499998   0.0000000   2.7433491  )
        47           Cu  tau(  47) = (   0.0019059   0.0000000   2.7566827  )
        48           Cu  tau(  48) = (   0.4980938   0.0000000   2.7566827  )
        49           Ba  tau(  49) = (   0.2499998   0.2387265   3.0020224  )
        50           Ba  tau(  50) = (   0.7499995   0.2387265   3.0025646  )
        51           O   tau(  51) = (  -0.0028895   0.0000000   3.0268718  )
        52           O   tau(  52) = (   0.5028891   0.0000000   3.0268718  )
        53           Cu  tau(  53) = (   0.5017844   0.0000000   3.2665563  )
        54           Cu  tau(  54) = (  -0.0017847   0.0000000   3.2665563  )
        55           O   tau(  55) = (   0.5008990   0.2387265   3.2997627  )
        56           O   tau(  56) = (  -0.0008994   0.2387265   3.2997627  )

     number of k points=    25  Gaussian smearing, width (Ry)=  0.0100
                       cart. coord. in units 2pi/alat
        k(    1) = (   0.0000000   0.0000000   0.0000000), wk =   0.0312500
        k(    2) = (   0.0000000   0.2618060   0.0000000), wk =   0.0625000
        k(    3) = (   0.0000000   0.5236121   0.0000000), wk =   0.0625000
        k(    4) = (   0.0000000   0.7854181   0.0000000), wk =   0.0625000
        k(    5) = (   0.0000000  -1.0472241   0.0000000), wk =   0.0312500
        k(    6) = (   0.1250000   0.0000000   0.0000000), wk =   0.0625000
        k(    7) = (   0.1250000   0.2618060   0.0000000), wk =   0.1250000
        k(    8) = (   0.1250000   0.5236121   0.0000000), wk =   0.1250000
        k(    9) = (   0.1250000   0.7854181   0.0000000), wk =   0.1250000
        k(   10) = (   0.1250000  -1.0472241   0.0000000), wk =   0.0625000
        k(   11) = (   0.2500000   0.0000000   0.0000000), wk =   0.0625000
        k(   12) = (   0.2500000   0.2618060   0.0000000), wk =   0.1250000
        k(   13) = (   0.2500000   0.5236121   0.0000000), wk =   0.1250000
        k(   14) = (   0.2500000   0.7854181   0.0000000), wk =   0.1250000
        k(   15) = (   0.2500000  -1.0472241   0.0000000), wk =   0.0625000
        k(   16) = (   0.3750000   0.0000000   0.0000000), wk =   0.0625000
        k(   17) = (   0.3750000   0.2618060   0.0000000), wk =   0.1250000
        k(   18) = (   0.3750000   0.5236121   0.0000000), wk =   0.1250000
        k(   19) = (   0.3750000   0.7854181   0.0000000), wk =   0.1250000
        k(   20) = (   0.3750000  -1.0472241   0.0000000), wk =   0.0625000
        k(   21) = (  -0.5000000   0.0000000   0.0000000), wk =   0.0312500
        k(   22) = (  -0.5000000   0.2618060   0.0000000), wk =   0.0625000
        k(   23) = (  -0.5000000   0.5236121   0.0000000), wk =   0.0625000
        k(   24) = (  -0.5000000   0.7854181   0.0000000), wk =   0.0625000
        k(   25) = (  -0.5000000  -1.0472241   0.0000000), wk =   0.0312500

     Initial potential from superposition of free atoms

     starting charge  455.69457, renormalised to  456.00000

     negative rho (up, down):  9.342E-02 0.000E+00
     Starting wfcs are  396 randomized atomic wfcs

     Self-consistent Calculation

     iteration #  1     ecut=    60.00 Ry     beta= 0.50
     Davidson diagonalization with overlap
     ethr =  1.00E-02,  avg # of iterations =  2.0

     negative rho (up, down):  8.583E-02 0.000E+00

     total energy              =   -3708.32181684 Ry
     Harris-Foulkes estimate   =   -3716.33779787 Ry
     estimated scf accuracy    <      31.00483384 Ry

[...]

     iteration # 11     ecut=    60.00 Ry     beta= 0.50
     Davidson diagonalization with overlap
     c_bands:  3 eigenvalues not converged
     ethr =  2.68E-05,  avg # of iterations = 10.0

[...]

     iteration # 28     ecut=    60.00 Ry     beta= 0.50
     Davidson diagonalization with overlap
     c_bands:  1 eigenvalues not converged
     ethr =  3.81E-09,  avg # of iterations =  5.5

[...]

     total energy              =   -3711.16420429 Ry
     Harris-Foulkes estimate   =   -3711.16420428 Ry
     estimated scf accuracy    <       0.00000001 Ry

     iteration # 37     ecut=    60.00 Ry     beta= 0.50
     Davidson diagonalization with overlap
     ethr =  3.05E-12,  avg # of iterations =  1.8

[...]

     End of self-consistent calculation

          k = 0.0000 0.0000 0.0000 ( 72027 PWs)   bands (ev):

   -41.3867 -38.9330 -38.1127 -35.7400 -23.1074 -22.9678 -22.9003 -22.7720
   -22.6714 -22.6414 -22.5179 -22.5137 -21.4598 -21.4195 -21.2852 -19.9924
   -19.9834 -19.9013 -18.5878 -18.4837 -18.1159 -17.0879 -16.9527 -16.7697
   -16.2577 -15.7619 -15.5428 -15.4983 -15.0758 -15.0349 -15.0044 -14.9366
   -14.8747 -14.7607 -14.7454 -14.6433 -14.5665 -14.5379 -14.5053 -14.4045
   -14.2604 -14.1875 -14.1545 -14.0780 -14.0725 -14.0653 -14.0300 -14.0236
   -13.9751 -13.8182 -13.8101 -13.7781 -13.6619 -13.4231  -8.4425  -8.3435
    -8.1383  -8.0818  -8.0299  -7.9755  -7.9498  -7.9343  -7.8971  -7.8452
    -7.8116  -7.7767  -7.7647  -7.7202  -7.7181  -7.7152  -7.6639  -7.5736
    -7.5715  -7.5467  -7.4869  -7.4785  -7.3293  -7.3235  -3.5948  -3.0687
    -2.9651  -2.9017  -2.7968  -2.6579  -2.5704  -2.3830  -2.2704  -2.2573
    -2.2315  -2.1694  -2.1651  -2.1270  -2.1268  -2.0275  -1.9708  -1.9231
    -1.8859  -1.7519  -1.7498  -1.7170  -1.6637  -1.6162  -1.6022  -1.5400
    -1.5273  -1.4151  -1.3068  -1.2751  -1.2661  -1.2522  -1.1899  -1.1179
    -1.0436  -1.0433  -1.0184  -1.0046  -1.0031  -0.9997  -0.9816  -0.9787
    -0.9628  -0.9572  -0.8687  -0.8520  -0.7778  -0.7321  -0.7159  -0.6983
    -0.6680  -0.6204  -0.4591  -0.4080  -0.4077  -0.3925  -0.3383  -0.2877
    -0.2821  -0.2729  -0.2467  -0.2192  -0.2148  -0.1501  -0.1471  -0.1162
    -0.1088  -0.0855  -0.0643  -0.0595  -0.0537  -0.0328  -0.0261  -0.0023
     0.0063   0.0230   0.0935   0.0935   0.1781   0.1900   0.1984   0.2038
     0.2177   0.2292   0.2426   0.2725   0.3017   0.3107   0.3280   0.3306
     0.3759   0.3858   0.4398   0.4699   0.4782   0.4790   0.5007   0.5037
     0.5233   0.5479   0.6101   0.6608   0.6784   0.7228   0.7962   0.8920
     0.9551   0.9631   0.9772   1.0099   1.0318   1.0453   1.1436   1.1447
     1.1711   1.1736   1.1833   1.1845   1.2056   1.2554   1.2789   1.3098
     1.3145   1.3719   1.3823   1.3958   1.5368   1.5487   1.5573   1.5965
     1.6050   1.6802   1.6851   1.7383   1.7406   1.7516   1.7597   1.8016
     1.8187   1.8935   1.9682   1.9897   2.0054   2.0322   2.0711   2.0899
     2.1453   2.1937   2.2278   2.2385   2.3133   2.3385   2.3926   2.4406
     2.4472   2.4735   2.5522   2.6022   2.6979   2.8421   2.9242   3.6775
     4.2757   4.4668   5.1943   5.2240   5.3082   5.3475   5.5930   5.7539
     6.0215   6.4264   6.5009   6.6079   6.6298   6.7931   6.8400   6.8608
     7.1980   7.2490   7.2778   7.3409   7.3574   7.3762   7.3878   7.5389
     7.6916   7.7877   8.0354   8.0887   8.1142   8.2723   8.3241   8.4703
     8.4762   8.6023

[...]

          k = 0.3750-1.0472 0.0000 ( 71902 PWs)   bands (ev):

[...]

          k =-0.5000 0.0000 0.0000 ( 72020 PWs)   bands (ev):

[...]

          k =-0.5000-1.0472 0.0000 ( 71908 PWs)   bands (ev):

   -41.3725 -38.9238 -38.0942 -35.7283 -22.9225 -22.8554 -22.6974 -22.6678
   -22.4892 -22.4226 -22.4226 -22.4024 -21.6140 -21.3895 -21.3604 -20.0835
   -19.9758 -19.9334 -18.7562 -18.4135 -18.2929 -17.1609 -16.9841 -16.8799
   -15.7891 -15.5571 -15.5294 -15.2007 -14.8113 -14.7456 -14.6518 -14.6507
   -14.5869 -14.5126 -14.4653 -14.4114 -14.3985 -14.3504 -14.3234 -14.3070
   -14.2317 -14.2172 -14.1437 -14.1058 -14.0127 -14.0024 -13.9529 -13.9521
   -13.9227 -13.9149 -13.9147 -13.8990 -13.8448 -13.7504  -8.6985  -8.5761
    -8.4826  -8.4610  -8.4319  -8.3543  -8.2718  -8.2561  -8.2340  -8.2269
    -8.2048  -8.1593  -8.1575  -8.1340  -8.0553  -8.0527  -7.9577  -7.9136
    -7.9131  -7.9067  -7.7514  -7.7376  -7.7364  -7.6986  -4.4325  -4.1342
    -3.8683  -3.6484  -3.4703  -3.4642  -3.3538  -3.3050  -3.2004  -3.1632
    -3.0798  -3.0791  -3.0298  -3.0152  -2.8761  -2.7740  -2.6844  -2.6490
    -2.4226  -2.3141  -2.2996  -2.2753  -2.2596  -2.2015  -2.1716  -2.1389
    -2.0983  -2.0533  -2.0158  -1.9820  -1.9297  -1.9001  -1.8432  -1.8344
    -1.8156  -1.6421  -1.6213  -1.6129  -1.6090  -1.5117  -1.4473  -1.4464
    -1.4155  -1.2146  -1.1964  -1.1927  -1.1893  -1.1645  -1.1371  -1.1181
    -1.0303  -0.9517  -0.9357  -0.9340  -0.8636  -0.8562  -0.8533  -0.7867
    -0.7824  -0.7569  -0.7439  -0.7077  -0.7004  -0.6820  -0.5897  -0.5668
    -0.5341  -0.5031  -0.3846  -0.3619  -0.3557  -0.2432  -0.2067  -0.0086
     0.0015   0.1474   0.1684   0.2486   0.2702   0.3003   0.4294   0.4372
     0.4621   0.5074   0.5266   0.6665   0.6740   0.8039   0.8140   0.8411
     0.8740   0.8951   0.9076   1.0118   1.0468   1.0873   1.1010   1.1428
     1.1450   1.1810   1.1968   1.2637   1.2836   1.2836   1.2890   1.2999
     1.3336   1.3391   1.3469   1.3634   1.3655   1.4217   1.4247   1.4989
     1.5566   1.5824   1.6043   1.6226   1.6824   1.7126   1.7324   1.7428
     1.7795   1.7834   1.8109   1.8531   1.8634   1.8956   1.9200   1.9656
     1.9932   2.0374   2.0425   2.0495   2.0934   2.1697   2.1732   2.2023
     2.2033   2.3688   2.5176   2.5235   2.5265   2.5508   2.5850   2.6878
     2.7027   2.7442   2.8079   2.8232   3.0970   3.1207   3.3367   3.4590
     3.5407   3.5894   3.6408   3.7347   3.8534   3.9466   3.9649   4.1910
     4.8913   5.0549   5.1585   5.2743   5.4031   5.9567   6.4245   6.5661
     6.7011   6.7475   6.8277   6.8745   6.9096   6.9640   6.9999   7.5831
     7.7511   7.8944   8.0638   8.0679   8.1991   8.2211   8.7525   8.9008
     8.9015   9.0830   9.1877   9.3721   9.4029   9.4386   9.4550   9.5102
     9.5214   9.5293

     the Fermi energy is     2.6979 ev

!    total energy              =   -3711.16420429 Ry
     Harris-Foulkes estimate   =   -3711.16420429 Ry
     estimated scf accuracy    <          8.2E-09 Ry

     The total energy is the sum of the following terms:

     one-electron contribution =  -61032.20732983 Ry
     hartree contribution      =   30818.70905096 Ry
     xc contribution           =   -1263.39641360 Ry
     ewald contribution        =   27765.74395720 Ry
     smearing contrib. (-TS)   =      -0.01346903 Ry

     convergence has been achieved in  37 iterations

     negative rho (up, down):  9.107E-02 0.000E+00

     Forces acting on atoms (cartesian axes, Ry/au):

     atom    1 type  4   force =    -0.00000512    0.00000000   -0.00013598
     atom    2 type  4   force =     0.00000512    0.00000000   -0.00013598
     atom    3 type  3   force =    -0.00001664    0.00000000   -0.00005147
     atom    4 type  3   force =     0.00001664    0.00000000   -0.00005147
     atom    5 type  4   force =    -0.00000161    0.00000000   -0.00002854
     atom    6 type  4   force =     0.00000161    0.00000000   -0.00002854
     atom    7 type  1   force =     0.00000000    0.00000000   -0.00013237
     atom    8 type  1   force =     0.00000000    0.00000000   -0.00012088
     atom    9 type  3   force =     0.00002646    0.00000000    0.00001151
     atom   10 type  3   force =    -0.00002646    0.00000000    0.00001151
     atom   11 type  4   force =     0.00000000    0.00000000    0.00014009
     atom   12 type  4   force =    -0.00000152    0.00000000    0.00007138
     atom   13 type  4   force =     0.00000152    0.00000000    0.00007138
     atom   14 type  4   force =     0.00000000    0.00000000    0.00019573
     atom   15 type  2   force =     0.00000000    0.00000000   -0.00055331
     atom   16 type  5   force =     0.00000000    0.00000000   -0.00083873
     atom   17 type  4   force =     0.00010311    0.00000000    0.00086608
     atom   18 type  4   force =    -0.00010311    0.00000000    0.00086608
     atom   19 type  4   force =     0.00000000    0.00000000    0.00097244
     atom   20 type  4   force =     0.00000000    0.00000000    0.00125164
     atom   21 type  3   force =    -0.00004382    0.00000000   -0.00128128
     atom   22 type  3   force =     0.00004382    0.00000000   -0.00128128
     atom   23 type  1   force =     0.00000000    0.00000000   -0.00233452
     atom   24 type  1   force =     0.00000000    0.00000000   -0.00246665
     atom   25 type  4   force =    -0.00023832    0.00000000    0.00411094
     atom   26 type  4   force =     0.00023832    0.00000000    0.00411094
     atom   27 type  4   force =    -0.00041962    0.00000000    0.00494594
     atom   28 type  4   force =     0.00041962    0.00000000    0.00494594
     atom   29 type  3   force =     0.00198930    0.00000000   -0.00977169
     atom   30 type  3   force =    -0.00198930    0.00000000   -0.00977169
     atom   31 type  4   force =    -0.00036225    0.00000000    0.01478833
     atom   32 type  4   force =     0.00036225    0.00000000    0.01478833
     atom   33 type  1   force =     0.00000000    0.00000000   -0.02527996
     atom   34 type  1   force =     0.00000000    0.00000000   -0.01886262
     atom   35 type  3   force =    -0.00163144    0.00000000    0.00773380
     atom   36 type  3   force =     0.00163144    0.00000000    0.00773380
     atom   37 type  4   force =     0.00000000    0.00000000    0.05805194
     atom   38 type  4   force =     0.00000000    0.00000000    0.07859012
     atom   39 type  4   force =     0.02173418    0.00000000    0.07152602
     atom   40 type  4   force =    -0.02173418    0.00000000    0.07152602
     atom   41 type  5   force =     0.00000000    0.00000000   -0.12557193
     atom   42 type  2   force =     0.00000000    0.00000000   -0.06889564
     atom   43 type  4   force =     0.00000000    0.00000000    0.00519856
     atom   44 type  4   force =    -0.00124394    0.00000000   -0.00044956
     atom   45 type  4   force =     0.00124394    0.00000000   -0.00044956
     atom   46 type  4   force =     0.00000000    0.00000000    0.01073321
     atom   47 type  3   force =     0.00022708    0.00000000   -0.01954818
     atom   48 type  3   force =    -0.00022708    0.00000000   -0.01954818
     atom   49 type  1   force =     0.00000000    0.00000000   -0.02281438
     atom   50 type  1   force =     0.00000000    0.00000000   -0.02846485
     atom   51 type  4   force =     0.00092848    0.00000000   -0.00255070
     atom   52 type  4   force =    -0.00092848    0.00000000   -0.00255070
     atom   53 type  3   force =    -0.00020465    0.00000000    0.00065241
     atom   54 type  3   force =     0.00020465    0.00000000    0.00065241
     atom   55 type  4   force =     0.00007722    0.00000000   -0.00028792
     atom   56 type  4   force =    -0.00007722    0.00000000   -0.00028792

     Total force =     0.212965     Total SCF correction =     0.000365

     Computing stress (Cartesian axis) and pressure

     negative rho (up, down):  9.107E-02 0.000E+00
          total   stress  (Ry/bohr**3)                   (kbar)     P=       -8.26
  -0.00001386   0.00000000   0.00000000           -2.04        0.00        0.00
   0.00000000   0.00000738   0.00000000            0.00        1.09        0.00
   0.00000000   0.00000000  -0.00016200            0.00        0.00      -23.83

     General routines

     Parallel routines

   This run was terminated on:  10:39:22  28May2021

   JOB DONE.
[1622212762.335801] [holy7c04508:254262:0]          mpool.c:43   UCX  WARN  object 0x3037d40 was not returned to mpool ucp_requests
[1622212762.335821] [holy7c04508:254262:0]          mpool.c:43   UCX  WARN  object 0x3038440 was not returned to mpool ucp_requests
[1622212762.333224] [holy7c04506:148689:0]          mpool.c:43   UCX  WARN  object 0x3994380 was not returned to mpool ucp_requests
[1622212762.333243] [holy7c04506:148689:0]          mpool.c:43   UCX  WARN  object 0x3994540 was not returned to mpool ucp_requests
[1622212762.337537] [holy7c04507:242664:0]          mpool.c:43   UCX  WARN  object 0x3c08a80 was not returned to mpool ucp_requests
[1622212762.342570] [holy7c04509:183277:0]          mpool.c:43   UCX  WARN  object 0x448ba80 was not returned to mpool ucp_requests
[1622212762.351689] [holy7c04504:3321 :0]          mpool.c:43   UCX  WARN  object 0x45bb740 was not returned to mpool ucp_requests
[1622212762.351715] [holy7c04504:3321 :0]          mpool.c:43   UCX  WARN  object 0x45bbe40 was not returned to mpool ucp_requests
[1622212762.355984] [holy7c04504:3319 :0]          mpool.c:43   UCX  WARN  object 0x31f3f80 was not returned to mpool ucp_requests
[1622212762.342281] [holy7c04506:148688:0]          mpool.c:43   UCX  WARN  object 0x2c5b900 was not returned to mpool ucp_requests
[1622212762.343095] [holy7c04509:183275:0]          mpool.c:43   UCX  WARN  object 0x3c3a340 was not returned to mpool ucp_requests
[1622212762.343114] [holy7c04509:183275:0]          mpool.c:43   UCX  WARN  object 0x3c3ac00 was not returned to mpool ucp_requests
[1622212762.342300] [holy7c04509:183273:0]          mpool.c:43   UCX  WARN  object 0x3090e00 was not returned to mpool ucp_requests
[1622212762.354336] [holy7c04509:183272:0]          mpool.c:43   UCX  WARN  object 0x38b8380 was not returned to mpool ucp_requests
[1622212762.355040] [holy7c04509:183278:0]          mpool.c:43   UCX  WARN  object 0x33a6e80 was not returned to mpool ucp_requests
[1622212762.357895] [holy7c04504:3324 :0]          mpool.c:43   UCX  WARN  object 0x3e77a40 was not returned to mpool ucp_requests
[1622212762.362665] [holy7c04504:3320 :0]          mpool.c:43   UCX  WARN  object 0x3c79e40 was not returned to mpool ucp_requests