     Program PWSCF v.6.5 starts on 25May2021 at 14:23:51

     R & G space division:  proc/nbgrp/npool/nimage =      32
     Reading input from YCBCO50_212_BaO_cleave_0.5_sep.pwi
Warning: card &IONS ignored
Warning: card     ION_DYNAMICS = 'BFGS' ignored
Warning: card / ignored
Warning: card &CELL ignored
Warning: card     CELL_DYNAMICS = 'BFGS' ignored
Warning: card     PRESS_CONV_THR = 5 ignored
Warning: card / ignored

     Current dimensions of program PWSCF are:
     Max number of different atomic species (ntypx) = 10
     Max number of k-points (npk) =  40000
     Max angular momentum in pseudopotentials (lmaxx) =  3

     Message from routine setup:
     using ibrav=0 with symmetry is DISCOURAGED, use correct ibrav instead

     bravais-lattice index     =            0
     lattice parameter (alat)  =      14.8133  a.u.
     unit-cell volume          =    8816.2533 (a.u.)^3
     number of atoms/cell      =           56
     number of atomic types    =            5
     number of electrons       =       456.00
     number of Kohn-Sham states=          274
     kinetic-energy cutoff     =      60.0000  Ry
     charge density cutoff     =     720.0000  Ry
     convergence threshold     =      1.0E-08
     mixing beta               =       0.5000
     number of iterations used =           10  local-TF  mixing
     Exchange-correlation= SLA PW PBE PBE
                           (   1   4   3   4   0   0   0)

     celldm(1)=  14.813271  celldm(2)=   0.000000  celldm(3)=   0.000000
     celldm(4)=   0.000000  celldm(5)=   0.000000  celldm(6)=   0.000000

     crystal axes: (cart. coord. in units of alat)
               a(1) = (   1.000000   0.000000   0.000000 )
               a(2) = (   0.000000   0.477453   0.000000 )
               a(3) = (   0.000000   0.000000   5.680686 )

     reciprocal axes: (cart. coord. in units 2 pi/alat)
               b(1) = (  1.000000  0.000000  0.000000 )
               b(2) = (  0.000000  2.094448  0.000000 )
               b(3) = (  0.000000  0.000000  0.176035 )

     PseudoPot. # 1 for Ba read from file:
     ./pseudo/Ba.pbe-nsp-van.UPF
     MD5 check sum: 2b9c31dd849566dd297d80989662b7a0
     Pseudo is Ultrasoft + core correction, Zval = 10.0
     Generated by new atomic code, or converted to UPF format
     Using radial grid of  907 points,  6 beta functions with:
                l(1) =   0
                l(2) =   0
                l(3) =   1
                l(4) =   1
                l(5) =   2
                l(6) =   2
     Q(r) pseudized with  6 coefficients,  rinner =    1.200   1.200   1.200
                                                       1.200   1.200

     PseudoPot. # 2 for Ca read from file:
     ./pseudo/Ca.pbe-nsp-van.UPF
     MD5 check sum: 6471098428ff4fa451746d08035ff179
     Pseudo is Ultrasoft + core correction, Zval = 10.0
     Generated by new atomic code, or converted to UPF format
     Using radial grid of  845 points,  6 beta functions with:
                l(1) =   0
                l(2) =   0
                l(3) =   1
                l(4) =   1
                l(5) =   2
                l(6) =   2
     Q(r) pseudized with  6 coefficients,  rinner =    1.200   1.200   1.200
                                                       1.200   1.200

     PseudoPot. # 3 for Cu read from file:
     ./pseudo/Cu.pbe-n-van_ak.UPF
     MD5 check sum: 34e3282627ffb533726feb647e090d62
     Pseudo is Ultrasoft + core correction, Zval = 11.0
     Generated by new atomic code, or converted to UPF format
     Using radial grid of  867 points,  6 beta functions with:
                l(1) =   0
                l(2) =   0
                l(3) =   1
                l(4) =   1
                l(5) =   2
                l(6) =   2
     Q(r) pseudized with  8 coefficients,  rinner =    1.400   1.400   1.400
                                                       1.400   1.400

     PseudoPot. # 4 for O  read from file:
     ./pseudo/O.pbe-van_ak.UPF
     MD5 check sum: 783ce7fe4c79b6a4916957118fed0856
     Pseudo is Ultrasoft, Zval =  6.0
     Generated by new atomic code, or converted to UPF format
     Using radial grid of  737 points,  4 beta functions with:
                l(1) =   0
                l(2) =   0
                l(3) =   1
                l(4) =   1
     Q(r) pseudized with  8 coefficients,  rinner =    0.800   0.800   0.800

     PseudoPot. # 5 for Y  read from file:
     ./pseudo/Y.pbe-nsp-van.UPF
     MD5 check sum: 4412fed3ab108fed87a1b7d6a69a4a38
     Pseudo is Ultrasoft + core correction, Zval = 11.0
     Generated by new atomic code, or converted to UPF format
     Using radial grid of  885 points,  6 beta functions with:
                l(1) =   0
                l(2) =   0
                l(3) =   1
                l(4) =   1
                l(5) =   2
                l(6) =   2
     Q(r) pseudized with  6 coefficients,  rinner =    1.200   1.200   1.200
                                                       1.200   1.200

     atomic species   valence    mass     pseudopotential
        Ba            10.00   137.32700     Ba( 1.00)
        Ca            10.00    40.07800     Ca( 1.00)
        Cu            11.00    63.54600     Cu( 1.00)
        O              6.00    15.99900     O ( 1.00)
        Y             11.00    88.90584     Y ( 1.00)

      4 Sym. Ops. (no inversion) found ( 2 have fractional translation)

   Cartesian axes

     site n.     atom                  positions (alat units)
         1           O   tau(   1) = (  -0.0008343   0.2387265  -0.0222443  )
         2           O   tau(   2) = (   0.5008340   0.2387265  -0.0222443  )
         3           Cu  tau(   3) = (   0.5017257   0.0000000   0.0109608  )
         4           Cu  tau(   4) = (  -0.0017260   0.0000000   0.0109608  )
         5           O   tau(   5) = (  -0.0028933   0.0000000   0.2506504  )
         6           O   tau(   6) = (   0.5028929   0.0000000   0.2506504  )
         7           Ba  tau(   7) = (   0.7499995   0.2387265   0.2749435  )
         8           Ba  tau(   8) = (   0.2499998   0.2387265   0.2755214  )
         9           Cu  tau(   9) = (   0.4980963   0.0000000   0.5208446  )
        10           Cu  tau(  10) = (   0.0019033   0.0000000   0.5208446  )
        11           O   tau(  11) = (   0.2499998   0.0000000   0.5341884  )
        12           O   tau(  12) = (   0.5083351   0.2387265   0.5569851  )
        13           O   tau(  13) = (  -0.0083354   0.2387265   0.5569851  )
        14           O   tau(  14) = (   0.7499995   0.0000000   0.5573831  )
        15           Ca  tau(  15) = (   0.2499998   0.2387265   0.7436937  )
        16           Y   tau(  16) = (   0.7499995   0.2387265   0.7469544  )
        17           O   tau(  17) = (  -0.0063798   0.2387265   0.9248530  )
        18           O   tau(  18) = (   0.5063794   0.2387265   0.9248530  )
        19           O   tau(  19) = (   0.7499995   0.0000000   0.9338544  )
        20           O   tau(  20) = (   0.2499998   0.0000000   0.9461329  )
        21           Cu  tau(  21) = (   0.0015717   0.0000000   0.9686860  )
        22           Cu  tau(  22) = (   0.4984280   0.0000000   0.9686860  )
        23           Ba  tau(  23) = (   0.2499998   0.2387265   1.2085224  )
        24           Ba  tau(  24) = (   0.7499995   0.2387265   1.2233294  )
        25           O   tau(  25) = (   0.0063772   0.0000000   1.2547537  )
        26           O   tau(  26) = (   0.4936224   0.0000000   1.2547537  )
        27           O   tau(  27) = (   0.5384045   0.2387265   1.4952521  )
        28           O   tau(  28) = (  -0.0384049   0.2387265   1.4952521  )
        29           Cu  tau(  29) = (   0.5006120   0.0000000   1.4952546  )
        30           Cu  tau(  30) = (  -0.0006123   0.0000000   1.4952546  )
        31           O   tau(  31) = (   0.4936212   0.0000000   1.7357531  )
        32           O   tau(  32) = (   0.0063785   0.0000000   1.7357531  )
        33           Ba  tau(  33) = (   0.7499995   0.2387265   1.7671824  )
        34           Ba  tau(  34) = (   0.2499998   0.2387265   1.7819920  )
        35           Cu  tau(  35) = (   0.4984280   0.0000000   2.0856081  )
        36           Cu  tau(  36) = (   0.0015717   0.0000000   2.0856081  )
        37           O   tau(  37) = (   0.2499998   0.0000000   2.1081663  )
        38           O   tau(  38) = (   0.7499995   0.0000000   2.1204360  )
        39           O   tau(  39) = (   0.5063781   0.2387265   2.1294411  )
        40           O   tau(  40) = (  -0.0063785   0.2387265   2.1294411  )
        41           Y   tau(  41) = (   0.7499995   0.2387265   2.3073347  )
        42           Ca  tau(  42) = (   0.2499998   0.2387265   2.3106043  )
        43           O   tau(  43) = (   0.7499995   0.0000000   2.4969021  )
        44           O   tau(  44) = (  -0.0083354   0.2387265   2.4973040  )
        45           O   tau(  45) = (   0.5083351   0.2387265   2.4973040  )
        46           O   tau(  46) = (   0.2499998   0.0000000   2.5201020  )
        47           Cu  tau(  47) = (   0.0019059   0.0000000   2.5334356  )
        48           Cu  tau(  48) = (   0.4980938   0.0000000   2.5334356  )
        49           Ba  tau(  49) = (   0.2499998   0.2387265   2.7787753  )
        50           Ba  tau(  50) = (   0.7499995   0.2387265   2.7793174  )
        51           O   tau(  51) = (  -0.0028895   0.0000000   2.8036246  )
        52           O   tau(  52) = (   0.5028891   0.0000000   2.8036246  )
        53           Cu  tau(  53) = (   0.5017844   0.0000000   3.0433091  )
        54           Cu  tau(  54) = (  -0.0017847   0.0000000   3.0433091  )
        55           O   tau(  55) = (   0.5008990   0.2387265   3.0765155  )
        56           O   tau(  56) = (  -0.0008994   0.2387265   3.0765155  )

     number of k points=    25  Gaussian smearing, width (Ry)=  0.0100
                       cart. coord. in units 2pi/alat
        k(    1) = (   0.0000000   0.0000000   0.0000000), wk =   0.0312500
        k(    2) = (   0.0000000   0.2618060   0.0000000), wk =   0.0625000
        k(    3) = (   0.0000000   0.5236121   0.0000000), wk =   0.0625000
        k(    4) = (   0.0000000   0.7854181   0.0000000), wk =   0.0625000
        k(    5) = (   0.0000000  -1.0472241   0.0000000), wk =   0.0312500
        k(    6) = (   0.1250000   0.0000000   0.0000000), wk =   0.0625000
        k(    7) = (   0.1250000   0.2618060   0.0000000), wk =   0.1250000
        k(    8) = (   0.1250000   0.5236121   0.0000000), wk =   0.1250000
        k(    9) = (   0.1250000   0.7854181   0.0000000), wk =   0.1250000
        k(   10) = (   0.1250000  -1.0472241   0.0000000), wk =   0.0625000
        k(   11) = (   0.2500000   0.0000000   0.0000000), wk =   0.0625000
        k(   12) = (   0.2500000   0.2618060   0.0000000), wk =   0.1250000
        k(   13) = (   0.2500000   0.5236121   0.0000000), wk =   0.1250000
        k(   14) = (   0.2500000   0.7854181   0.0000000), wk =   0.1250000
        k(   15) = (   0.2500000  -1.0472241   0.0000000), wk =   0.0625000
        k(   16) = (   0.3750000   0.0000000   0.0000000), wk =   0.0625000
        k(   17) = (   0.3750000   0.2618060   0.0000000), wk =   0.1250000
        k(   18) = (   0.3750000   0.5236121   0.0000000), wk =   0.1250000
        k(   19) = (   0.3750000   0.7854181   0.0000000), wk =   0.1250000
        k(   20) = (   0.3750000  -1.0472241   0.0000000), wk =   0.0625000
        k(   21) = (  -0.5000000   0.0000000   0.0000000), wk =   0.0312500
        k(   22) = (  -0.5000000   0.2618060   0.0000000), wk =   0.0625000
        k(   23) = (  -0.5000000   0.5236121   0.0000000), wk =   0.0625000
        k(   24) = (  -0.5000000   0.7854181   0.0000000), wk =   0.0625000
        k(   25) = (  -0.5000000  -1.0472241   0.0000000), wk =   0.0312500

     Initial potential from superposition of free atoms

     starting charge  455.69457, renormalised to  456.00000

     negative rho (up, down):  9.323E-02 0.000E+00
     Starting wfcs are  396 randomized atomic wfcs

     Self-consistent Calculation

     iteration #  1     ecut=    60.00 Ry     beta= 0.50
     Davidson diagonalization with overlap
     ethr =  1.00E-02,  avg # of iterations =  2.0

     negative rho (up, down):  8.627E-02 0.000E+00

     total energy              =   -3708.43721174 Ry
     Harris-Foulkes estimate   =   -3716.44840684 Ry
     estimated scf accuracy    <      29.84644402 Ry

[...]

     iteration # 12     ecut=    60.00 Ry     beta= 0.50
     Davidson diagonalization with overlap
     c_bands:  1 eigenvalues not converged
     ethr =  1.50E-05,  avg # of iterations =  5.4

[...]

     iteration # 23     ecut=    60.00 Ry     beta= 0.50
     Davidson diagonalization with overlap
     c_bands:  1 eigenvalues not converged
     ethr =  3.06E-08,  avg # of iterations =  6.3

[...]

     total energy              =   -3711.74537198 Ry
     Harris-Foulkes estimate   =   -3711.74537198 Ry
     estimated scf accuracy    <       0.00000002 Ry

     iteration # 35     ecut=    60.00 Ry     beta= 0.50
     Davidson diagonalization with overlap
     ethr =  4.08E-12,  avg # of iterations =  1.0

[...]

     End of self-consistent calculation

          k = 0.0000 0.0000 0.0000 ( 69231 PWs)   bands (ev):

   -37.9965 -37.8721 -35.6232 -35.4740 -22.9652 -22.7921 -22.7831 -22.7550
   -22.6638 -22.6550 -22.5166 -22.3638 -18.4719 -18.3676 -18.3266 -18.2511
   -17.9996 -17.8814 -16.9714 -16.8362 -16.8006 -16.6977 -16.6528 -16.5113
   -15.3838 -15.2691 -14.9565 -14.9313 -14.8427 -14.6939 -14.6269 -14.5517
   -14.5279 -14.4579 -14.4508 -14.4291 -14.3709 -14.3013 -14.2780 -14.1038
   -14.0745 -14.0219 -13.9715 -13.9668 -13.9598 -13.9545 -13.9511 -13.8571
   -13.8248 -13.7813 -13.6036 -13.5362 -13.4929 -13.3336  -8.2955  -8.0624
    -8.0298  -8.0178  -7.9213  -7.9117  -7.8489  -7.8416  -7.8335  -7.7767
    -7.7540  -7.7034  -7.6947  -7.6938  -7.6483  -7.6071  -7.5989  -7.5294
    -7.5066  -7.4654  -7.4567  -7.3907  -7.3198  -7.1683  -2.9588  -2.9411
    -2.7808  -2.5978  -2.1489  -2.1444  -2.0622  -2.0603  -2.0138  -1.9479
    -1.8786  -1.8764  -1.8286  -1.8078  -1.7782  -1.7690  -1.7136  -1.6647
    -1.6363  -1.6004  -1.5756  -1.5011  -1.4599  -1.4261  -1.4232  -1.3745
    -1.3013  -1.2152  -1.1190  -1.0775  -1.0223  -0.9213  -0.9027  -0.8989
    -0.8980  -0.8973  -0.8958  -0.8893  -0.8468  -0.8135  -0.7449  -0.7441
    -0.6874  -0.6727  -0.6702  -0.6688  -0.6502  -0.5592  -0.5274  -0.4946
    -0.4508  -0.2968  -0.2633  -0.2415  -0.2304  -0.2297  -0.1517  -0.1237
    -0.1116  -0.1099  -0.1069  -0.1055  -0.0968  -0.0820   0.0355   0.0555
     0.0737   0.0815   0.0822   0.0824   0.1200   0.1403   0.1842   0.1949
     0.2015   0.2037   0.2044   0.2258   0.2577   0.2955   0.2972   0.3346
     0.3346   0.3365   0.4099   0.4247   0.4406   0.4432   0.4486   0.5544
     0.5558   0.5917   0.6084   0.6110   0.6206   0.6272   0.6295   0.6885
     0.7553   0.7961   0.8379   0.8992   0.9267   1.0283   1.0612   1.0668
     1.0720   1.1238   1.1291   1.1472   1.1740   1.1919   1.2839   1.2915
     1.2934   1.2969   1.3160   1.3463   1.3578   1.4255   1.4374   1.4771
     1.4814   1.4901   1.5156   1.5668   1.6638   1.6739   1.6884   1.7171
     1.7571   1.7914   1.7926   1.7941   1.8426   1.8676   1.8739   1.9093
     1.9207   1.9394   2.0127   2.1278   2.1396   2.1485   2.1668   2.1800
     2.1909   2.3007   2.3276   2.3578   2.3748   2.4120   2.4767   2.5643
     2.6551   2.6611   2.6616   2.7387   2.9338   2.9590   5.2859   5.3106
     5.5927   6.0253   6.2353   6.4441   6.7109   6.7328   6.9021   7.3533
     7.3612   7.4411   7.4475   7.4479   7.6930   7.8679   8.1190   8.1875
     8.2302   8.2418   8.3015   8.3256   8.3351   8.4889   8.5861   8.6318
     8.6638   8.7019   8.7668   8.9758   9.0818   9.1518   9.2283   9.3038
     9.4048   9.4260

[...]

          k = 0.3750-1.0472 0.0000 ( 69214 PWs)   bands (ev):

[...]

          k =-0.5000 0.0000 0.0000 ( 69240 PWs)   bands (ev):

[...]

          k =-0.5000-1.0472 0.0000 ( 69164 PWs)   bands (ev):

   -37.9781 -37.8536 -35.6116 -35.4624 -22.8156 -22.6367 -22.5891 -22.5795
   -22.5596 -22.5515 -22.3344 -22.2485 -18.6401 -18.5216 -18.2974 -18.1814
   -18.1769 -18.0303 -17.0441 -16.9011 -16.8677 -16.7634 -16.7292 -16.5917
   -14.6999 -14.6534 -14.6370 -14.6236 -14.4744 -14.3995 -14.3790 -14.3543
   -14.3417 -14.3178 -14.2846 -14.2432 -14.2063 -14.1908 -14.1875 -14.1561
   -14.0553 -14.0058 -13.9948 -13.9884 -13.8470 -13.8462 -13.8453 -13.8445
   -13.8353 -13.8290 -13.7886 -13.7198 -13.6132 -13.6124  -8.4278  -8.4234
    -8.3744  -8.3651  -8.3238  -8.3157  -8.1785  -8.1540  -8.0991  -8.0493
    -8.0405  -8.0259  -8.0180  -8.0020  -7.9731  -7.9469  -7.9442  -7.9380
    -7.9351  -7.9316  -7.7922  -7.7370  -7.5964  -7.5709  -3.7555  -3.6999
    -3.5353  -3.4950  -3.3461  -3.2993  -3.1976  -3.1749  -3.1608  -3.0279
    -2.9725  -2.9723  -2.9717  -2.9713  -2.3141  -2.3068  -2.2036  -2.1926
    -2.1012  -2.0567  -2.0559  -1.9900  -1.9835  -1.9684  -1.9645  -1.9430
    -1.8735  -1.8712  -1.8481  -1.8472  -1.7947  -1.7744  -1.7717  -1.7210
    -1.6275  -1.5733  -1.4695  -1.4441  -1.4046  -1.3665  -1.3054  -1.2721
    -1.1032  -1.0829  -1.0809  -1.0589  -1.0003  -0.9895  -0.7468  -0.7448
    -0.7402  -0.7213  -0.7122  -0.7077  -0.6875  -0.6759  -0.6594  -0.6480
    -0.6326  -0.6156  -0.6028  -0.5946  -0.4696  -0.3865  -0.3649  -0.3539
    -0.3376  -0.2957  -0.2695  -0.2261  -0.2246  -0.1604   0.1774   0.1859
     0.3201   0.3397   0.3957   0.3974   0.5637   0.5819   0.5883   0.6254
     0.6420   0.7443   0.7802   0.8641   0.8841   0.9073   1.0948   1.1235
     1.1454   1.1679   1.1908   1.2106   1.2372   1.2590   1.2879   1.2908
     1.2945   1.3277   1.3606   1.3814   1.3968   1.4189   1.4327   1.4639
     1.4700   1.4814   1.5320   1.5375   1.5605   1.5684   1.5924   1.6176
     1.6706   1.6740   1.7381   1.7583   1.7672   1.8246   1.8723   1.8938
     1.9198   1.9389   1.9678   1.9870   2.0114   2.0122   2.0810   2.1084
     2.1099   2.1338   2.1495   2.1711   2.2459   2.2650   2.2698   2.2770
     2.2772   2.2832   2.3121   2.5827   2.6237   2.6250   2.6330   2.6340
     2.7935   2.7981   2.8073   2.8146   3.5698   3.6037   3.6556   3.7017
     3.7550   3.8366   3.8458   3.9086   4.1742   4.2775   6.1103   6.6620
     6.8089   6.8122   6.8325   6.8618   7.0160   7.0872   7.5942   7.7025
     8.0079   8.3023   8.3170   8.4130   8.4449   8.7926   9.0288   9.1896
     9.2008   9.2847   9.3239   9.3480   9.3819   9.4805   9.4863   9.4962
     9.5482   9.5723   9.8027   9.8069   9.8929   9.9099   9.9152   9.9359
     9.9594   9.9868

     the Fermi energy is     2.8052 ev

!    total energy              =   -3711.74537199 Ry
     Harris-Foulkes estimate   =   -3711.74537198 Ry
     estimated scf accuracy    <          8.3E-09 Ry

     The total energy is the sum of the following terms:

     one-electron contribution =  -62957.00892537 Ry
     hartree contribution      =   31786.28958693 Ry
     xc contribution           =   -1263.96346217 Ry
     ewald contribution        =   28722.94991731 Ry
     smearing contrib. (-TS)   =      -0.01248868 Ry

     convergence has been achieved in  35 iterations

     negative rho (up, down):  9.224E-02 0.000E+00

     Forces acting on atoms (cartesian axes, Ry/au):

     atom    1 type  4   force =    -0.00000995    0.00000000   -0.00009347
     atom    2 type  4   force =     0.00000995    0.00000000   -0.00009347
     atom    3 type  3   force =    -0.00001938    0.00000000   -0.00013434
     atom    4 type  3   force =     0.00001938    0.00000000   -0.00013434
     atom    5 type  4   force =    -0.00000274    0.00000000   -0.00005465
     atom    6 type  4   force =     0.00000274    0.00000000   -0.00005465
     atom    7 type  1   force =     0.00000000    0.00000000   -0.00006887
     atom    8 type  1   force =     0.00000000    0.00000000   -0.00006475
     atom    9 type  3   force =     0.00004098    0.00000000    0.00004171
     atom   10 type  3   force =    -0.00004098    0.00000000    0.00004171
     atom   11 type  4   force =     0.00000000    0.00000000    0.00001401
     atom   12 type  4   force =    -0.00001065    0.00000000   -0.00007132
     atom   13 type  4   force =     0.00001065    0.00000000   -0.00007132
     atom   14 type  4   force =     0.00000000    0.00000000    0.00000557
     atom   15 type  2   force =     0.00000000    0.00000000   -0.00016671
     atom   16 type  5   force =     0.00000000    0.00000000   -0.00023072
     atom   17 type  4   force =     0.00002171    0.00000000    0.00013998
     atom   18 type  4   force =    -0.00002171    0.00000000    0.00013998
     atom   19 type  4   force =     0.00000000    0.00000000    0.00020805
     atom   20 type  4   force =     0.00000000    0.00000000    0.00030564
     atom   21 type  3   force =    -0.00007530    0.00000000   -0.00024515
     atom   22 type  3   force =     0.00007530    0.00000000   -0.00024515
     atom   23 type  1   force =     0.00000000    0.00000000   -0.00122173
     atom   24 type  1   force =     0.00000000    0.00000000   -0.00149923
     atom   25 type  4   force =    -0.00025510    0.00000000    0.00211590
     atom   26 type  4   force =     0.00025510    0.00000000    0.00211590
     atom   27 type  4   force =     0.00077968    0.00000000    0.00482384
     atom   28 type  4   force =    -0.00077968    0.00000000    0.00482384
     atom   29 type  3   force =     0.00017726    0.00000000   -0.00149629
     atom   30 type  3   force =    -0.00017726    0.00000000   -0.00149629
     atom   31 type  4   force =    -0.00370073    0.00000000    0.00407717
     atom   32 type  4   force =     0.00370073    0.00000000    0.00407717
     atom   33 type  1   force =     0.00000000    0.00000000    0.01240768
     atom   34 type  1   force =     0.00000000    0.00000000    0.02417591
     atom   35 type  3   force =    -0.00351577    0.00000000    0.00128054
     atom   36 type  3   force =     0.00351577    0.00000000    0.00128054
     atom   37 type  4   force =     0.00000000    0.00000000   -0.01199608
     atom   38 type  4   force =     0.00000000    0.00000000   -0.00328996
     atom   39 type  4   force =     0.00099039    0.00000000   -0.00519715
     atom   40 type  4   force =    -0.00099039    0.00000000   -0.00519715
     atom   41 type  5   force =     0.00000000    0.00000000   -0.02014168
     atom   42 type  2   force =     0.00000000    0.00000000   -0.01675622
     atom   43 type  4   force =     0.00000000    0.00000000    0.00221303
     atom   44 type  4   force =     0.00011880    0.00000000    0.00130823
     atom   45 type  4   force =    -0.00011880    0.00000000    0.00130823
     atom   46 type  4   force =     0.00000000    0.00000000    0.00189744
     atom   47 type  3   force =     0.00034072    0.00000000    0.00054980
     atom   48 type  3   force =    -0.00034072    0.00000000    0.00054980
     atom   49 type  1   force =     0.00000000    0.00000000   -0.00041882
     atom   50 type  1   force =     0.00000000    0.00000000   -0.00045800
     atom   51 type  4   force =     0.00003180    0.00000000    0.00044129
     atom   52 type  4   force =    -0.00003180    0.00000000    0.00044129
     atom   53 type  3   force =    -0.00003034    0.00000000   -0.00020634
     atom   54 type  3   force =     0.00003034    0.00000000   -0.00020634
     atom   55 type  4   force =     0.00000061    0.00000000    0.00026299
     atom   56 type  4   force =    -0.00000061    0.00000000    0.00026299

     Total force =     0.042469     Total SCF correction =     0.000410

     Computing stress (Cartesian axis) and pressure

     negative rho (up, down):  9.224E-02 0.000E+00
          total   stress  (Ry/bohr**3)                   (kbar)     P=       -5.12
  -0.00003716   0.00000000   0.00000000           -5.47        0.00        0.00
   0.00000000  -0.00002724   0.00000000            0.00       -4.01        0.00
   0.00000000   0.00000000  -0.00003997            0.00        0.00       -5.88

     General routines

     Parallel routines

   This run was terminated on:  14:56:46  25May2021

   JOB DONE.
[1621969006.489890] [holy7c04104:48714:0]          mpool.c:43   UCX  WARN  object 0x3de6400 was not returned to mpool ucp_requests
[1621969006.489911] [holy7c04104:48714:0]          mpool.c:43   UCX  WARN  object 0x3de6940 was not returned to mpool ucp_requests
[1621969006.492522] [holy7c04103:121638:0]          mpool.c:43   UCX  WARN  object 0x3d7bc40 was not returned to mpool ucp_requests
[1621969006.499257] [holy7c04106:6951 :0]          mpool.c:43   UCX  WARN  object 0x37531c0 was not returned to mpool ucp_requests
[1621969006.499279] [holy7c04106:6951 :0]          mpool.c:43   UCX  WARN  object 0x3753540 was not returned to mpool ucp_requests
[1621969006.496812] [holy7c02602:164603:0]          mpool.c:43   UCX  WARN  object 0x3ca7340 was not returned to mpool ucp_requests
[1621969006.504091] [holy7c04105:55201:0]          mpool.c:43   UCX  WARN  object 0x339b840 was not returned to mpool ucp_requests
[1621969006.504111] [holy7c04105:55201:0]          mpool.c:43   UCX  WARN  object 0x339bd80 was not returned to mpool ucp_requests
[1621969006.505806] [holy7c04105:55203:0]          mpool.c:43   UCX  WARN  object 0x3130300 was not returned to mpool ucp_requests
[1621969006.505825] [holy7c04105:55203:0]          mpool.c:43   UCX  WARN  object 0x31304c0 was not returned to mpool ucp_requests
[1621969006.503320] [holy7c04108:195112:0]          mpool.c:43   UCX  WARN  object 0x2a60f80 was not returned to mpool ucp_requests
[1621969006.496881] [holy7c04105:55207:0]          mpool.c:43   UCX  WARN  object 0x45ec1c0 was not returned to mpool ucp_requests
[1621969006.497731] [holy7c04105:55206:0]          mpool.c:43   UCX  WARN  object 0x318dd00 was not returned to mpool ucp_requests
[1621969006.500280] [holy7c04105:55202:0]          mpool.c:43   UCX  WARN  object 0x439d500 was not returned to mpool ucp_requests
[1621969006.497395] [holy7c04106:6954 :0]          mpool.c:43   UCX  WARN  object 0x3e90d40 was not returned to mpool ucp_requests
[1621969006.499006] [holy7c04106:6953 :0]          mpool.c:43   UCX  WARN  object 0x476b200 was not returned to mpool ucp_requests
[1621969006.502594] [holy7c04108:195111:0]          mpool.c:43   UCX  WARN  object 0x450fd80 was not returned to mpool ucp_requests
[1621969006.502106] [holy7c04108:195109:0]          mpool.c:43   UCX  WARN  object 0x38e5e40 was not returned to mpool ucp_requests
[1621969006.502130] [holy7c04108:195109:0]          mpool.c:43   UCX  WARN  object 0x38e6000 was not returned to mpool ucp_requests