     Program PWSCF v.6.5 starts on 28May2021 at 10: 5:42

     R & G space division:  proc/nbgrp/npool/nimage =      32
     Reading input from YCBCO50_212_Y_cleave_2.5_sep.pwi
Warning: card &IONS ignored
Warning: card     ION_DYNAMICS = 'BFGS' ignored
Warning: card / ignored
Warning: card &CELL ignored
Warning: card     CELL_DYNAMICS = 'BFGS' ignored
Warning: card     PRESS_CONV_THR = 5 ignored
Warning: card / ignored

     Current dimensions of program PWSCF are:
     Max number of different atomic species (ntypx) = 10
     Max number of k-points (npk) =  40000
     Max angular momentum in pseudopotentials (lmaxx) =  3

     Message from routine setup:
     using ibrav=0 with symmetry is DISCOURAGED, use correct ibrav instead

     bravais-lattice index     =            0
     lattice parameter (alat)  =      14.8133  a.u.
     unit-cell volume          =    9212.2223 (a.u.)^3
     number of atoms/cell      =           56
     number of atomic types    =            5
     number of electrons       =       456.00
     number of Kohn-Sham states=          274
     kinetic-energy cutoff     =      60.0000  Ry
     charge density cutoff     =     720.0000  Ry
     convergence threshold     =      1.0E-08
     mixing beta               =       0.5000
     number of iterations used =           10  local-TF  mixing
     Exchange-correlation= SLA PW PBE PBE
                           (   1   4   3   4   0   0   0)

     celldm(1)=  14.813271  celldm(2)=   0.000000  celldm(3)=   0.000000
     celldm(4)=   0.000000  celldm(5)=   0.000000  celldm(6)=   0.000000

     crystal axes: (cart. coord. in units of alat)
               a(1) = (   1.000000   0.000000   0.000000 )
               a(2) = (   0.000000   0.477453   0.000000 )
               a(3) = (   0.000000   0.000000   5.935826 )

     reciprocal axes: (cart. coord. in units 2 pi/alat)
               b(1) = (  1.000000  0.000000  0.000000 )
               b(2) = (  0.000000  2.094448  0.000000 )
               b(3) = (  0.000000  0.000000  0.168469 )

     PseudoPot. # 1 for Ba read from file:
     ./pseudo/Ba.pbe-nsp-van.UPF
     MD5 check sum: 2b9c31dd849566dd297d80989662b7a0
     Pseudo is Ultrasoft + core correction, Zval = 10.0
     Generated by new atomic code, or converted to UPF format
     Using radial grid of  907 points,  6 beta functions with:
                l(1) =   0
                l(2) =   0
                l(3) =   1
                l(4) =   1
                l(5) =   2
                l(6) =   2
     Q(r) pseudized with  6 coefficients,  rinner =    1.200   1.200   1.200
                                                       1.200   1.200

     PseudoPot. # 2 for Ca read from file:
     ./pseudo/Ca.pbe-nsp-van.UPF
     MD5 check sum: 6471098428ff4fa451746d08035ff179
     Pseudo is Ultrasoft + core correction, Zval = 10.0
     Generated by new atomic code, or converted to UPF format
     Using radial grid of  845 points,  6 beta functions with:
                l(1) =   0
                l(2) =   0
                l(3) =   1
                l(4) =   1
                l(5) =   2
                l(6) =   2
     Q(r) pseudized with  6 coefficients,  rinner =    1.200   1.200   1.200
                                                       1.200   1.200

     PseudoPot. # 3 for Cu read from file:
     ./pseudo/Cu.pbe-n-van_ak.UPF
     MD5 check sum: 34e3282627ffb533726feb647e090d62
     Pseudo is Ultrasoft + core correction, Zval = 11.0
     Generated by new atomic code, or converted to UPF format
     Using radial grid of  867 points,  6 beta functions with:
                l(1) =   0
                l(2) =   0
                l(3) =   1
                l(4) =   1
                l(5) =   2
                l(6) =   2
     Q(r) pseudized with  8 coefficients,  rinner =    1.400   1.400   1.400
                                                       1.400   1.400

     PseudoPot. # 4 for O  read from file:
     ./pseudo/O.pbe-van_ak.UPF
     MD5 check sum: 783ce7fe4c79b6a4916957118fed0856
     Pseudo is Ultrasoft, Zval =  6.0
     Generated by new atomic code, or converted to UPF format
     Using radial grid of  737 points,  4 beta functions with:
                l(1) =   0
                l(2) =   0
                l(3) =   1
                l(4) =   1
     Q(r) pseudized with  8 coefficients,  rinner =    0.800   0.800   0.800

     PseudoPot. # 5 for Y  read from file:
     ./pseudo/Y.pbe-nsp-van.UPF
     MD5 check sum: 4412fed3ab108fed87a1b7d6a69a4a38
     Pseudo is Ultrasoft + core correction, Zval = 11.0
     Generated by new atomic code, or converted to UPF format
     Using radial grid of  885 points,  6 beta functions with:
                l(1) =   0
                l(2) =   0
                l(3) =   1
                l(4) =   1
                l(5) =   2
                l(6) =   2
     Q(r) pseudized with  6 coefficients,  rinner =    1.200   1.200   1.200
                                                       1.200   1.200

     atomic species   valence    mass     pseudopotential
        Ba            10.00   137.32700     Ba( 1.00)
        Ca            10.00    40.07800     Ca( 1.00)
        Cu            11.00    63.54600     Cu( 1.00)
        O              6.00    15.99900     O ( 1.00)
        Y             11.00    88.90584     Y ( 1.00)

      4 Sym. Ops. (no inversion) found ( 2 have fractional translation)

   Cartesian axes

     site n.     atom                  positions (alat units)
         1           O   tau(   1) = (  -0.0008343   0.2387265  -0.0222443  )
         2           O   tau(   2) = (   0.5008340   0.2387265  -0.0222443  )
         3           Cu  tau(   3) = (   0.5017257   0.0000000   0.0109608  )
         4           Cu  tau(   4) = (  -0.0017260   0.0000000   0.0109608  )
         5           O   tau(   5) = (  -0.0028933   0.0000000   0.2506504  )
         6           O   tau(   6) = (   0.5028929   0.0000000   0.2506504  )
         7           Ba  tau(   7) = (   0.7499995   0.2387265   0.2749435  )
         8           Ba  tau(   8) = (   0.2499998   0.2387265   0.2755214  )
         9           Cu  tau(   9) = (   0.4980963   0.0000000   0.5208446  )
        10           Cu  tau(  10) = (   0.0019033   0.0000000   0.5208446  )
        11           O   tau(  11) = (   0.2499998   0.0000000   0.5341884  )
        12           O   tau(  12) = (   0.5083351   0.2387265   0.5569851  )
        13           O   tau(  13) = (  -0.0083354   0.2387265   0.5569851  )
        14           O   tau(  14) = (   0.7499995   0.0000000   0.5573831  )
        15           Ca  tau(  15) = (   0.2499998   0.2387265   0.7436937  )
        16           Y   tau(  16) = (   0.7499995   0.2387265   0.7469544  )
        17           O   tau(  17) = (  -0.0063798   0.2387265   0.9248530  )
        18           O   tau(  18) = (   0.5063794   0.2387265   0.9248530  )
        19           O   tau(  19) = (   0.7499995   0.0000000   0.9338544  )
        20           O   tau(  20) = (   0.2499998   0.0000000   0.9461329  )
        21           Cu  tau(  21) = (   0.0015717   0.0000000   0.9686860  )
        22           Cu  tau(  22) = (   0.4984280   0.0000000   0.9686860  )
        23           Ba  tau(  23) = (   0.2499998   0.2387265   1.2085224  )
        24           Ba  tau(  24) = (   0.7499995   0.2387265   1.2233294  )
        25           O   tau(  25) = (   0.0063772   0.0000000   1.2547537  )
        26           O   tau(  26) = (   0.4936224   0.0000000   1.2547537  )
        27           O   tau(  27) = (   0.5384045   0.2387265   1.4952521  )
        28           O   tau(  28) = (  -0.0384049   0.2387265   1.4952521  )
        29           Cu  tau(  29) = (   0.5006120   0.0000000   1.4952546  )
        30           Cu  tau(  30) = (  -0.0006123   0.0000000   1.4952546  )
        31           O   tau(  31) = (   0.4936212   0.0000000   1.7357531  )
        32           O   tau(  32) = (   0.0063785   0.0000000   1.7357531  )
        33           Ba  tau(  33) = (   0.7499995   0.2387265   1.7671824  )
        34           Ba  tau(  34) = (   0.2499998   0.2387265   1.7819920  )
        35           Cu  tau(  35) = (   0.4984280   0.0000000   2.0218232  )
        36           Cu  tau(  36) = (   0.0015717   0.0000000   2.0218232  )
        37           O   tau(  37) = (   0.2499998   0.0000000   2.0443814  )
        38           O   tau(  38) = (   0.7499995   0.0000000   2.0566511  )
        39           O   tau(  39) = (   0.5063781   0.2387265   2.0656562  )
        40           O   tau(  40) = (  -0.0063785   0.2387265   2.0656562  )
        41           Y   tau(  41) = (   0.7499995   0.2387265   2.2435498  )
        42           Ca  tau(  42) = (   0.2499998   0.2387265   2.2468194  )
        43           O   tau(  43) = (   0.7499995   0.0000000   2.7520417  )
        44           O   tau(  44) = (  -0.0083354   0.2387265   2.7524436  )
        45           O   tau(  45) = (   0.5083351   0.2387265   2.7524436  )
        46           O   tau(  46) = (   0.2499998   0.0000000   2.7752416  )
        47           Cu  tau(  47) = (   0.0019059   0.0000000   2.7885752  )
        48           Cu  tau(  48) = (   0.4980938   0.0000000   2.7885752  )
        49           Ba  tau(  49) = (   0.2499998   0.2387265   3.0339149  )
        50           Ba  tau(  50) = (   0.7499995   0.2387265   3.0344571  )
        51           O   tau(  51) = (  -0.0028895   0.0000000   3.0587642  )
        52           O   tau(  52) = (   0.5028891   0.0000000   3.0587642  )
        53           Cu  tau(  53) = (   0.5017844   0.0000000   3.2984487  )
        54           Cu  tau(  54) = (  -0.0017847   0.0000000   3.2984487  )
        55           O   tau(  55) = (   0.5008990   0.2387265   3.3316552  )
        56           O   tau(  56) = (  -0.0008994   0.2387265   3.3316552  )

     number of k points=    25  Gaussian smearing, width (Ry)=  0.0100
                       cart. coord. in units 2pi/alat
        k(    1) = (   0.0000000   0.0000000   0.0000000), wk =   0.0312500
        k(    2) = (   0.0000000   0.2618060   0.0000000), wk =   0.0625000
        k(    3) = (   0.0000000   0.5236121   0.0000000), wk =   0.0625000
        k(    4) = (   0.0000000   0.7854181   0.0000000), wk =   0.0625000
        k(    5) = (   0.0000000  -1.0472241   0.0000000), wk =   0.0312500
        k(    6) = (   0.1250000   0.0000000   0.0000000), wk =   0.0625000
        k(    7) = (   0.1250000   0.2618060   0.0000000), wk =   0.1250000
        k(    8) = (   0.1250000   0.5236121   0.0000000), wk =   0.1250000
        k(    9) = (   0.1250000   0.7854181   0.0000000), wk =   0.1250000
        k(   10) = (   0.1250000  -1.0472241   0.0000000), wk =   0.0625000
        k(   11) = (   0.2500000   0.0000000   0.0000000), wk =   0.0625000
        k(   12) = (   0.2500000   0.2618060   0.0000000), wk =   0.1250000
        k(   13) = (   0.2500000   0.5236121   0.0000000), wk =   0.1250000
        k(   14) = (   0.2500000   0.7854181   0.0000000), wk =   0.1250000
        k(   15) = (   0.2500000  -1.0472241   0.0000000), wk =   0.0625000
        k(   16) = (   0.3750000   0.0000000   0.0000000), wk =   0.0625000
        k(   17) = (   0.3750000   0.2618060   0.0000000), wk =   0.1250000
        k(   18) = (   0.3750000   0.5236121   0.0000000), wk =   0.1250000
        k(   19) = (   0.3750000   0.7854181   0.0000000), wk =   0.1250000
        k(   20) = (   0.3750000  -1.0472241   0.0000000), wk =   0.0625000
        k(   21) = (  -0.5000000   0.0000000   0.0000000), wk =   0.0312500
        k(   22) = (  -0.5000000   0.2618060   0.0000000), wk =   0.0625000
        k(   23) = (  -0.5000000   0.5236121   0.0000000), wk =   0.0625000
        k(   24) = (  -0.5000000   0.7854181   0.0000000), wk =   0.0625000
        k(   25) = (  -0.5000000  -1.0472241   0.0000000), wk =   0.0312500

     Initial potential from superposition of free atoms

     starting charge  455.69457, renormalised to  456.00000

     negative rho (up, down):  9.334E-02 0.000E+00
     Starting wfcs are  396 randomized atomic wfcs

     Self-consistent Calculation

     iteration #  1     ecut=    60.00 Ry     beta= 0.50
     Davidson diagonalization with overlap
     ethr =  1.00E-02,  avg # of iterations =  2.0

     negative rho (up, down):  8.580E-02 0.000E+00

     total energy              =   -3708.32245534 Ry
     Harris-Foulkes estimate   =   -3716.34523637 Ry
     estimated scf accuracy    <      31.04852871 Ry

[...]

     iteration # 14     ecut=    60.00 Ry     beta= 0.50
     Davidson diagonalization with overlap
     c_bands:  1 eigenvalues not converged
     ethr =  2.45E-05,  avg # of iterations =  2.5

[...]

     iteration # 26     ecut=    60.00 Ry     beta= 0.50
     Davidson diagonalization with overlap
     c_bands:  1 eigenvalues not converged
     ethr =  1.73E-08,  avg # of iterations =  5.9

[...]

     total energy              =   -3711.13162125 Ry
     Harris-Foulkes estimate   =   -3711.13162124 Ry
     estimated scf accuracy    <       0.00000002 Ry

     iteration # 38     ecut=    60.00 Ry     beta= 0.50
     Davidson diagonalization with overlap
     ethr =  2.71E-12,  avg # of iterations =  1.0

[...]

     End of self-consistent calculation

          k = 0.0000 0.0000 0.0000 ( 72345 PWs)   bands (ev):

   -41.3670 -38.9607 -38.1607 -35.7879 -23.1394 -22.9964 -22.9488 -22.8205
   -22.7170 -22.6633 -22.5634 -22.5354 -21.4553 -21.4011 -21.2561 -20.0307
   -20.0063 -19.9261 -18.6359 -18.5317 -18.1639 -17.1359 -17.0007 -16.8177
   -16.2632 -15.7772 -15.5465 -15.5446 -15.1224 -15.0790 -15.0286 -14.9712
   -14.9176 -14.7933 -14.7687 -14.6913 -14.6145 -14.5863 -14.5419 -14.4517
   -14.2772 -14.2357 -14.1952 -14.1264 -14.1207 -14.1138 -14.0680 -14.0585
   -14.0230 -13.8567 -13.8533 -13.7836 -13.7062 -13.4261  -8.4754  -8.3703
    -8.1868  -8.1135  -8.0784  -8.0064  -7.9983  -7.9793  -7.9280  -7.8906
    -7.8601  -7.7948  -7.7945  -7.7637  -7.7438  -7.7422  -7.7092  -7.6221
    -7.5935  -7.5922  -7.5238  -7.5096  -7.3690  -7.3509  -3.6121  -3.1171
    -2.9769  -2.9494  -2.8173  -2.6819  -2.5715  -2.4031  -2.3101  -2.3057
    -2.2731  -2.2180  -2.2012  -2.1752  -2.1648  -2.0447  -2.0189  -1.9711
    -1.9338  -1.7979  -1.7757  -1.7650  -1.6836  -1.6642  -1.6461  -1.5841
    -1.5455  -1.4632  -1.3195  -1.3140  -1.2992  -1.2865  -1.2381  -1.1619
    -1.0740  -1.0618  -1.0570  -1.0532  -1.0517  -1.0225  -1.0180  -1.0108
    -1.0053  -1.0050  -0.9132  -0.8975  -0.8263  -0.7734  -0.7522  -0.7418
    -0.7014  -0.6579  -0.4567  -0.4519  -0.4243  -0.4152  -0.3869  -0.3256
    -0.3208  -0.3088  -0.2944  -0.2678  -0.2633  -0.1868  -0.1651  -0.1518
    -0.1332  -0.1326  -0.1110  -0.1045  -0.0808  -0.0807  -0.0744  -0.0388
    -0.0323  -0.0245   0.0450   0.0451   0.1329   0.1414   0.1585   0.1618
     0.1736   0.1806   0.2006   0.2334   0.2684   0.2705   0.2802   0.2822
     0.3397   0.3551   0.3923   0.4264   0.4365   0.4497   0.4522   0.4629
     0.4748   0.5070   0.5740   0.6248   0.6320   0.6762   0.7523   0.8465
     0.9087   0.9210   0.9380   0.9617   0.9847   1.0052   1.0992   1.1202
     1.1237   1.1273   1.1367   1.1429   1.1574   1.2208   1.2619   1.2675
     1.2745   1.3240   1.3387   1.3481   1.4953   1.5093   1.5303   1.5563
     1.5574   1.6365   1.6463   1.7032   1.7060   1.7111   1.7397   1.7538
     1.7875   1.8456   1.9245   1.9506   1.9522   1.9840   2.0300   2.1096
     2.1219   2.1588   2.1798   2.1932   2.2669   2.3264   2.3411   2.3701
     2.3968   2.4519   2.5038   2.5562   2.6191   2.7940   2.8999   3.5153
     4.1963   4.3197   5.1461   5.2372   5.2631   5.3096   5.5497   5.6286
     5.9745   6.3850   6.4812   6.5600   6.6047   6.7425   6.8079   6.8285
     7.1372   7.1998   7.2243   7.2924   7.3198   7.3360   7.3387   7.4855
     7.6696   7.7217   7.9869   8.0389   8.0661   8.2249   8.2809   8.4205
     8.4223   8.5477

[...]

          k = 0.3750-1.0472 0.0000 ( 72290 PWs)   bands (ev):

[...]

          k =-0.5000 0.0000 0.0000 ( 72396 PWs)   bands (ev):

[...]

          k =-0.5000-1.0472 0.0000 ( 72268 PWs)   bands (ev):

   -41.3528 -38.9515 -38.1423 -35.7763 -22.9557 -22.8827 -22.7459 -22.7163
   -22.5348 -22.4479 -22.4472 -22.4414 -21.5852 -21.3709 -21.3561 -20.1085
   -19.9989 -19.9719 -18.8042 -18.4615 -18.3409 -17.2090 -17.0321 -16.9279
   -15.7774 -15.5716 -15.5435 -15.2288 -14.8597 -14.7941 -14.6871 -14.6861
   -14.6352 -14.5607 -14.5136 -14.4587 -14.4423 -14.3941 -14.3711 -14.3547
   -14.2734 -14.2568 -14.1874 -14.1514 -14.0217 -14.0112 -14.0014 -14.0006
   -13.9673 -13.9551 -13.9549 -13.9443 -13.8574 -13.7458  -8.7256  -8.6097
    -8.5311  -8.4941  -8.4804  -8.3876  -8.3016  -8.2996  -8.2580  -8.2529
    -8.2291  -8.2060  -8.2048  -8.1825  -8.1038  -8.1012  -8.0021  -7.9577
    -7.9344  -7.9319  -7.7966  -7.7809  -7.7622  -7.7176  -4.4465  -4.1584
    -3.9165  -3.6965  -3.5177  -3.5087  -3.3987  -3.3521  -3.2217  -3.1895
    -3.1283  -3.1276  -3.0662  -3.0486  -2.8922  -2.7945  -2.7170  -2.6764
    -2.4711  -2.3623  -2.3438  -2.3183  -2.2950  -2.2392  -2.2195  -2.1864
    -2.1453  -2.1007  -2.0638  -2.0302  -1.9503  -1.9463  -1.8889  -1.8624
    -1.8380  -1.6665  -1.6572  -1.6380  -1.6284  -1.5587  -1.4760  -1.4733
    -1.4633  -1.2622  -1.2400  -1.2297  -1.2176  -1.1955  -1.1819  -1.1636
    -1.0692  -0.9944  -0.9619  -0.9608  -0.9108  -0.9039  -0.9013  -0.8351
    -0.8257  -0.8053  -0.7921  -0.7427  -0.7356  -0.7251  -0.6375  -0.5994
    -0.5640  -0.5510  -0.4330  -0.4099  -0.3623  -0.2716  -0.2296  -0.0530
    -0.0430   0.1062   0.1262   0.2242   0.2242   0.2569   0.3914   0.3997
     0.4140   0.4594   0.4785   0.6264   0.6273   0.7941   0.7973   0.7981
     0.8391   0.8578   0.8722   0.9643   0.9999   1.0463   1.0543   1.0953
     1.1020   1.1325   1.1562   1.2209   1.2362   1.2495   1.2589   1.2628
     1.2917   1.2992   1.2996   1.3237   1.3318   1.3736   1.3766   1.4511
     1.5090   1.5596   1.5760   1.5782   1.6396   1.6889   1.6976   1.7154
     1.7368   1.7634   1.7646   1.8159   1.8408   1.8475   1.8754   1.9211
     1.9453   1.9929   2.0472   2.0528   2.0586   2.1211   2.1248   2.1632
     2.1659   2.3262   2.4690   2.4780   2.4936   2.5102   2.5547   2.6393
     2.6541   2.7285   2.7770   2.7947   3.0608   3.0676   3.2538   3.4104
     3.4927   3.5462   3.5927   3.6869   3.8090   3.9116   3.9230   4.1394
     4.7731   4.9396   5.0538   5.1922   5.3572   5.9158   6.3044   6.5279
     6.6526   6.6993   6.7935   6.8493   6.8723   6.9161   6.9747   7.5352
     7.6945   7.8419   8.0280   8.0414   8.1365   8.1735   8.7161   8.8541
     8.8619   9.0352   9.1411   9.3239   9.3592   9.3896   9.4118   9.4658
     9.4768   9.4904

     the Fermi energy is     2.6493 ev

!    total energy              =   -3711.13162124 Ry
     Harris-Foulkes estimate   =   -3711.13162125 Ry
     estimated scf accuracy    <          5.2E-09 Ry

     The total energy is the sum of the following terms:

     one-electron contribution =  -60715.02078094 Ry
     hartree contribution      =   30659.46982302 Ry
     xc contribution           =   -1263.34987843 Ry
     ewald contribution        =   27607.78285584 Ry
     smearing contrib. (-TS)   =      -0.01364073 Ry

     convergence has been achieved in  38 iterations

     negative rho (up, down):  9.119E-02 0.000E+00

     Forces acting on atoms (cartesian axes, Ry/au):

     atom    1 type  4   force =    -0.00001092    0.00000000   -0.00011579
     atom    2 type  4   force =     0.00001092    0.00000000   -0.00011579
     atom    3 type  3   force =    -0.00001777    0.00000000   -0.00000282
     atom    4 type  3   force =     0.00001777    0.00000000   -0.00000282
     atom    5 type  4   force =    -0.00000309    0.00000000   -0.00004119
     atom    6 type  4   force =     0.00000309    0.00000000   -0.00004119
     atom    7 type  1   force =     0.00000000    0.00000000   -0.00011337
     atom    8 type  1   force =     0.00000000    0.00000000   -0.00010054
     atom    9 type  3   force =     0.00002767    0.00000000   -0.00004646
     atom   10 type  3   force =    -0.00002767    0.00000000   -0.00004646
     atom   11 type  4   force =     0.00000000    0.00000000    0.00013406
     atom   12 type  4   force =    -0.00000211    0.00000000    0.00006234
     atom   13 type  4   force =     0.00000211    0.00000000    0.00006234
     atom   14 type  4   force =     0.00000000    0.00000000    0.00019360
     atom   15 type  2   force =     0.00000000    0.00000000   -0.00050864
     atom   16 type  5   force =     0.00000000    0.00000000   -0.00078170
     atom   17 type  4   force =     0.00009689    0.00000000    0.00084505
     atom   18 type  4   force =    -0.00009689    0.00000000    0.00084505
     atom   19 type  4   force =     0.00000000    0.00000000    0.00093774
     atom   20 type  4   force =     0.00000000    0.00000000    0.00120401
     atom   21 type  3   force =    -0.00004747    0.00000000   -0.00128730
     atom   22 type  3   force =     0.00004747    0.00000000   -0.00128730
     atom   23 type  1   force =     0.00000000    0.00000000   -0.00222931
     atom   24 type  1   force =     0.00000000    0.00000000   -0.00234558
     atom   25 type  4   force =    -0.00024262    0.00000000    0.00405580
     atom   26 type  4   force =     0.00024262    0.00000000    0.00405580
     atom   27 type  4   force =    -0.00044174    0.00000000    0.00479926
     atom   28 type  4   force =     0.00044174    0.00000000    0.00479926
     atom   29 type  3   force =     0.00189007    0.00000000   -0.00951471
     atom   30 type  3   force =    -0.00189007    0.00000000   -0.00951471
     atom   31 type  4   force =    -0.00051223    0.00000000    0.01423410
     atom   32 type  4   force =     0.00051223    0.00000000    0.01423410
     atom   33 type  1   force =     0.00000000    0.00000000   -0.02460897
     atom   34 type  1   force =     0.00000000    0.00000000   -0.01861645
     atom   35 type  3   force =    -0.00082774    0.00000000    0.00809784
     atom   36 type  3   force =     0.00082774    0.00000000    0.00809784
     atom   37 type  4   force =     0.00000000    0.00000000    0.05680616
     atom   38 type  4   force =     0.00000000    0.00000000    0.07335342
     atom   39 type  4   force =     0.02120467    0.00000000    0.06912134
     atom   40 type  4   force =    -0.02120467    0.00000000    0.06912134
     atom   41 type  5   force =     0.00000000    0.00000000   -0.13092364
     atom   42 type  2   force =     0.00000000    0.00000000   -0.07405919
     atom   43 type  4   force =     0.00000000    0.00000000    0.01247700
     atom   44 type  4   force =    -0.00150027    0.00000000    0.00426587
     atom   45 type  4   force =     0.00150027    0.00000000    0.00426587
     atom   46 type  4   force =     0.00000000    0.00000000    0.01428616
     atom   47 type  3   force =    -0.00043300    0.00000000   -0.01853005
     atom   48 type  3   force =     0.00043300    0.00000000   -0.01853005
     atom   49 type  1   force =     0.00000000    0.00000000   -0.02323228
     atom   50 type  1   force =     0.00000000    0.00000000   -0.02887342
     atom   51 type  4   force =     0.00109386    0.00000000   -0.00292604
     atom   52 type  4   force =    -0.00109386    0.00000000   -0.00292604
     atom   53 type  3   force =    -0.00023126    0.00000000    0.00076717
     atom   54 type  3   force =     0.00023126    0.00000000    0.00076717
     atom   55 type  4   force =     0.00008990    0.00000000   -0.00028396
     atom   56 type  4   force =    -0.00008990    0.00000000   -0.00028396

     Total force =     0.214353     Total SCF correction =     0.000391

     Computing stress (Cartesian axis) and pressure

     negative rho (up, down):  9.119E-02 0.000E+00
          total   stress  (Ry/bohr**3)                   (kbar)     P=       -8.09
  -0.00001960   0.00000000   0.00000000           -2.88        0.00        0.00
   0.00000000   0.00000000   0.00000000            0.00        0.00        0.00
   0.00000000   0.00000000  -0.00014547            0.00        0.00      -21.40

     General routines

     Parallel routines

   This run was terminated on:  10:43: 1  28May2021

   JOB DONE.
[1622212981.508855] [holy7c06104:55923:0]          mpool.c:43   UCX  WARN  object 0x32a6300 was not returned to mpool ucp_requests
[1622212981.508873] [holy7c06104:55923:0]          mpool.c:43   UCX  WARN  object 0x32a6840 was not returned to mpool ucp_requests
[1622212981.512112] [holy7c04512:61276:0]          mpool.c:43   UCX  WARN  object 0x297a340 was not returned to mpool ucp_requests
[1622212981.512138] [holy7c04512:61276:0]          mpool.c:43   UCX  WARN  object 0x297a6c0 was not returned to mpool ucp_requests
[1622212981.512745] [holy7c04509:183512:0]          mpool.c:43   UCX  WARN  object 0x3d046c0 was not returned to mpool ucp_requests
[1622212981.522349] [holy7c06108:173508:0]          mpool.c:43   UCX  WARN  object 0x3150c00 was not returned to mpool ucp_requests
[1622212981.519282] [holy7c06101:198468:0]          mpool.c:43   UCX  WARN  object 0x2c51d80 was not returned to mpool ucp_requests
[1622212981.517883] [holy7c04512:61275:0]          mpool.c:43   UCX  WARN  object 0x43b7800 was not returned to mpool ucp_requests
[1622212981.513946] [holy7c06107:172390:0]          mpool.c:43   UCX  WARN  object 0x3dc9c40 was not returned to mpool ucp_requests
[1622212981.523901] [holy7c06108:173507:0]          mpool.c:43   UCX  WARN  object 0x2f4dc40 was not returned to mpool ucp_requests
[1622212981.520292] [holy7c06101:198472:0]          mpool.c:43   UCX  WARN  object 0x340e340 was not returned to mpool ucp_requests
[1622212981.524338] [holy7c06101:198467:0]          mpool.c:43   UCX  WARN  object 0x433c840 was not returned to mpool ucp_requests
[1622212981.524362] [holy7c06101:198467:0]          mpool.c:43   UCX  WARN  object 0x433cd80 was not returned to mpool ucp_requests
[1622212981.530985] [holy7c06101:198469:0]          mpool.c:43   UCX  WARN  object 0x3838680 was not returned to mpool ucp_requests
[1622212981.531009] [holy7c06101:198469:0]          mpool.c:43   UCX  WARN  object 0x3838840 was not returned to mpool ucp_requests
[1622212981.523087] [holy7c06107:172391:0]          mpool.c:43   UCX  WARN  object 0x4580b00 was not returned to mpool ucp_requests
[1622212981.525981] [holy7c06107:172393:0]          mpool.c:43   UCX  WARN  object 0x34e0100 was not returned to mpool ucp_requests
[1622212981.525998] [holy7c06107:172393:0]          mpool.c:43   UCX  WARN  object 0x34e0800 was not returned to mpool ucp_requests