     Program PWSCF v.6.5 starts on  1Jun2021 at 12:11:54

     R & G space division:  proc/nbgrp/npool/nimage =      32
     Reading input from YCBCO50_212_CuO_cleave_7.0_sep.pwi
Warning: card &IONS ignored
Warning: card     ION_DYNAMICS = 'BFGS' ignored
Warning: card / ignored
Warning: card &CELL ignored
Warning: card     CELL_DYNAMICS = 'BFGS' ignored
Warning: card     PRESS_CONV_THR = 5 ignored
Warning: card / ignored

     Current dimensions of program PWSCF are:
     Max number of different atomic species (ntypx) = 10
     Max number of k-points (npk) =  40000
     Max angular momentum in pseudopotentials (lmaxx) =  3

     Message from routine setup:
     using ibrav=0 with symmetry is DISCOURAGED, use correct ibrav instead

     bravais-lattice index     =            0
     lattice parameter (alat)  =      14.8133  a.u.
     unit-cell volume          =   10103.1525 (a.u.)^3
     number of atoms/cell      =           56
     number of atomic types    =            5
     number of electrons       =       456.00
     number of Kohn-Sham states=          274
     kinetic-energy cutoff     =      60.0000  Ry
     charge density cutoff     =     720.0000  Ry
     convergence threshold     =      1.0E-08
     mixing beta               =       0.5000
     number of iterations used =           10  local-TF  mixing
     Exchange-correlation= SLA PW PBE PBE
                           (   1   4   3   4   0   0   0)

     celldm(1)=  14.813271  celldm(2)=   0.000000  celldm(3)=   0.000000
     celldm(4)=   0.000000  celldm(5)=   0.000000  celldm(6)=   0.000000

     crystal axes: (cart. coord. in units of alat)
               a(1) = (   1.000000   0.000000   0.000000 )
               a(2) = (   0.000000   0.477453   0.000000 )
               a(3) = (   0.000000   0.000000   6.509890 )

     reciprocal axes: (cart. coord. in units 2 pi/alat)
               b(1) = (  1.000000  0.000000  0.000000 )
               b(2) = (  0.000000  2.094448  0.000000 )
               b(3) = (  0.000000  0.000000  0.153612 )

     PseudoPot. # 1 for Ba read from file:
     ./pseudo/Ba.pbe-nsp-van.UPF
     MD5 check sum: 2b9c31dd849566dd297d80989662b7a0
     Pseudo is Ultrasoft + core correction, Zval = 10.0
     Generated by new atomic code, or converted to UPF format
     Using radial grid of  907 points,  6 beta functions with:
                l(1) =   0
                l(2) =   0
                l(3) =   1
                l(4) =   1
                l(5) =   2
                l(6) =   2
     Q(r) pseudized with  6 coefficients,  rinner =    1.200   1.200   1.200
                                                       1.200   1.200

     PseudoPot. # 2 for Ca read from file:
     ./pseudo/Ca.pbe-nsp-van.UPF
     MD5 check sum: 6471098428ff4fa451746d08035ff179
     Pseudo is Ultrasoft + core correction, Zval = 10.0
     Generated by new atomic code, or converted to UPF format
     Using radial grid of  845 points,  6 beta functions with:
                l(1) =   0
                l(2) =   0
                l(3) =   1
                l(4) =   1
                l(5) =   2
                l(6) =   2
     Q(r) pseudized with  6 coefficients,  rinner =    1.200   1.200   1.200
                                                       1.200   1.200

     PseudoPot. # 3 for Cu read from file:
     ./pseudo/Cu.pbe-n-van_ak.UPF
     MD5 check sum: 34e3282627ffb533726feb647e090d62
     Pseudo is Ultrasoft + core correction, Zval = 11.0
     Generated by new atomic code, or converted to UPF format
     Using radial grid of  867 points,  6 beta functions with:
                l(1) =   0
                l(2) =   0
                l(3) =   1
                l(4) =   1
                l(5) =   2
                l(6) =   2
     Q(r) pseudized with  8 coefficients,  rinner =    1.400   1.400   1.400
                                                       1.400   1.400

     PseudoPot. # 4 for O  read from file:
     ./pseudo/O.pbe-van_ak.UPF
     MD5 check sum: 783ce7fe4c79b6a4916957118fed0856
     Pseudo is Ultrasoft, Zval =  6.0
     Generated by new atomic code, or converted to UPF format
     Using radial grid of  737 points,  4 beta functions with:
                l(1) =   0
                l(2) =   0
                l(3) =   1
                l(4) =   1
     Q(r) pseudized with  8 coefficients,  rinner =    0.800   0.800   0.800

     PseudoPot. # 5 for Y  read from file:
     ./pseudo/Y.pbe-nsp-van.UPF
     MD5 check sum: 4412fed3ab108fed87a1b7d6a69a4a38
     Pseudo is Ultrasoft + core correction, Zval = 11.0
     Generated by new atomic code, or converted to UPF format
     Using radial grid of  885 points,  6 beta functions with:
                l(1) =   0
                l(2) =   0
                l(3) =   1
                l(4) =   1
                l(5) =   2
                l(6) =   2
     Q(r) pseudized with  6 coefficients,  rinner =    1.200   1.200   1.200
                                                       1.200   1.200

     atomic species   valence    mass     pseudopotential
        Ba            10.00   137.32700     Ba( 1.00)
        Ca            10.00    40.07800     Ca( 1.00)
        Cu            11.00    63.54600     Cu( 1.00)
        O              6.00    15.99900     O ( 1.00)
        Y             11.00    88.90584     Y ( 1.00)

      4 Sym. Ops. (no inversion) found ( 2 have fractional translation)

   Cartesian axes

     site n.     atom                  positions (alat units)
         1           O   tau(   1) = (  -0.0008343   0.2387265  -0.0222443  )
         2           O   tau(   2) = (   0.5008340   0.2387265  -0.0222443  )
         3           Cu  tau(   3) = (   0.5017257   0.0000000   0.0109608  )
         4           Cu  tau(   4) = (  -0.0017260   0.0000000   0.0109608  )
         5           O   tau(   5) = (  -0.0028933   0.0000000   0.2506504  )
         6           O   tau(   6) = (   0.5028929   0.0000000   0.2506504  )
         7           Ba  tau(   7) = (   0.7499995   0.2387265   0.2749435  )
         8           Ba  tau(   8) = (   0.2499998   0.2387265   0.2755214  )
         9           Cu  tau(   9) = (   0.4980963   0.0000000   0.5208446  )
        10           Cu  tau(  10) = (   0.0019033   0.0000000   0.5208446  )
        11           O   tau(  11) = (   0.2499998   0.0000000   0.5341884  )
        12           O   tau(  12) = (   0.5083351   0.2387265   0.5569851  )
        13           O   tau(  13) = (  -0.0083354   0.2387265   0.5569851  )
        14           O   tau(  14) = (   0.7499995   0.0000000   0.5573831  )
        15           Ca  tau(  15) = (   0.2499998   0.2387265   0.7436937  )
        16           Y   tau(  16) = (   0.7499995   0.2387265   0.7469544  )
        17           O   tau(  17) = (  -0.0063798   0.2387265   0.9248530  )
        18           O   tau(  18) = (   0.5063794   0.2387265   0.9248530  )
        19           O   tau(  19) = (   0.7499995   0.0000000   0.9338544  )
        20           O   tau(  20) = (   0.2499998   0.0000000   0.9461329  )
        21           Cu  tau(  21) = (   0.0015717   0.0000000   0.9686860  )
        22           Cu  tau(  22) = (   0.4984280   0.0000000   0.9686860  )
        23           Ba  tau(  23) = (   0.2499998   0.2387265   1.2085224  )
        24           Ba  tau(  24) = (   0.7499995   0.2387265   1.2233294  )
        25           O   tau(  25) = (   0.0063772   0.0000000   1.2547537  )
        26           O   tau(  26) = (   0.4936224   0.0000000   1.2547537  )
        27           O   tau(  27) = (   0.5384045   0.2387265   1.4952521  )
        28           O   tau(  28) = (  -0.0384049   0.2387265   1.4952521  )
        29           Cu  tau(  29) = (   0.5006120   0.0000000   1.4952546  )
        30           Cu  tau(  30) = (  -0.0006123   0.0000000   1.4952546  )
        31           O   tau(  31) = (   0.4936212   0.0000000   2.6287417  )
        32           O   tau(  32) = (   0.0063785   0.0000000   2.6287417  )
        33           Ba  tau(  33) = (   0.7499995   0.2387265   2.6601711  )
        34           Ba  tau(  34) = (   0.2499998   0.2387265   2.6749807  )
        35           Cu  tau(  35) = (   0.4984280   0.0000000   2.9148119  )
        36           Cu  tau(  36) = (   0.0015717   0.0000000   2.9148119  )
        37           O   tau(  37) = (   0.2499998   0.0000000   2.9373701  )
        38           O   tau(  38) = (   0.7499995   0.0000000   2.9496397  )
        39           O   tau(  39) = (   0.5063781   0.2387265   2.9586449  )
        40           O   tau(  40) = (  -0.0063785   0.2387265   2.9586449  )
        41           Y   tau(  41) = (   0.7499995   0.2387265   3.1365384  )
        42           Ca  tau(  42) = (   0.2499998   0.2387265   3.1398080  )
        43           O   tau(  43) = (   0.7499995   0.0000000   3.3261059  )
        44           O   tau(  44) = (  -0.0083354   0.2387265   3.3265077  )
        45           O   tau(  45) = (   0.5083351   0.2387265   3.3265077  )
        46           O   tau(  46) = (   0.2499998   0.0000000   3.3493057  )
        47           Cu  tau(  47) = (   0.0019059   0.0000000   3.3626393  )
        48           Cu  tau(  48) = (   0.4980938   0.0000000   3.3626393  )
        49           Ba  tau(  49) = (   0.2499998   0.2387265   3.6079790  )
        50           Ba  tau(  50) = (   0.7499995   0.2387265   3.6085212  )
        51           O   tau(  51) = (  -0.0028895   0.0000000   3.6328283  )
        52           O   tau(  52) = (   0.5028891   0.0000000   3.6328283  )
        53           Cu  tau(  53) = (   0.5017844   0.0000000   3.8725129  )
        54           Cu  tau(  54) = (  -0.0017847   0.0000000   3.8725129  )
        55           O   tau(  55) = (   0.5008990   0.2387265   3.9057193  )
        56           O   tau(  56) = (  -0.0008994   0.2387265   3.9057193  )

     number of k points=    25  Gaussian smearing, width (Ry)=  0.0100
                       cart. coord. in units 2pi/alat
        k(    1) = (   0.0000000   0.0000000   0.0000000), wk =   0.0312500
        k(    2) = (   0.0000000   0.2618060   0.0000000), wk =   0.0625000
        k(    3) = (   0.0000000   0.5236121   0.0000000), wk =   0.0625000
        k(    4) = (   0.0000000   0.7854181   0.0000000), wk =   0.0625000
        k(    5) = (   0.0000000  -1.0472241   0.0000000), wk =   0.0312500
        k(    6) = (   0.1250000   0.0000000   0.0000000), wk =   0.0625000
        k(    7) = (   0.1250000   0.2618060   0.0000000), wk =   0.1250000
        k(    8) = (   0.1250000   0.5236121   0.0000000), wk =   0.1250000
        k(    9) = (   0.1250000   0.7854181   0.0000000), wk =   0.1250000
        k(   10) = (   0.1250000  -1.0472241   0.0000000), wk =   0.0625000
        k(   11) = (   0.2500000   0.0000000   0.0000000), wk =   0.0625000
        k(   12) = (   0.2500000   0.2618060   0.0000000), wk =   0.1250000
        k(   13) = (   0.2500000   0.5236121   0.0000000), wk =   0.1250000
        k(   14) = (   0.2500000   0.7854181   0.0000000), wk =   0.1250000
        k(   15) = (   0.2500000  -1.0472241   0.0000000), wk =   0.0625000
        k(   16) = (   0.3750000   0.0000000   0.0000000), wk =   0.0625000
        k(   17) = (   0.3750000   0.2618060   0.0000000), wk =   0.1250000
        k(   18) = (   0.3750000   0.5236121   0.0000000), wk =   0.1250000
        k(   19) = (   0.3750000   0.7854181   0.0000000), wk =   0.1250000
        k(   20) = (   0.3750000  -1.0472241   0.0000000), wk =   0.0625000
        k(   21) = (  -0.5000000   0.0000000   0.0000000), wk =   0.0312500
        k(   22) = (  -0.5000000   0.2618060   0.0000000), wk =   0.0625000
        k(   23) = (  -0.5000000   0.5236121   0.0000000), wk =   0.0625000
        k(   24) = (  -0.5000000   0.7854181   0.0000000), wk =   0.0625000
        k(   25) = (  -0.5000000  -1.0472241   0.0000000), wk =   0.0312500

     Initial potential from superposition of free atoms

     starting charge  455.69457, renormalised to  456.00000

     negative rho (up, down):  9.295E-02 0.000E+00
     Starting wfcs are  396 randomized atomic wfcs

     Self-consistent Calculation

     iteration #  1     ecut=    60.00 Ry     beta= 0.50
     Davidson diagonalization with overlap
     ethr =  1.00E-02,  avg # of iterations =  2.0

     negative rho (up, down):  8.599E-02 0.000E+00

     total energy              =   -3708.26782764 Ry
     Harris-Foulkes estimate   =   -3716.45574052 Ry
     estimated scf accuracy    <      32.26423496 Ry

[...]

     iteration # 15     ecut=    60.00 Ry     beta= 0.50
     Davidson diagonalization with overlap
     c_bands:  1 eigenvalues not converged
     c_bands:  1 eigenvalues not converged
     ethr =  3.95E-06,  avg # of iterations =  9.7

[...]

     iteration # 26     ecut=    60.00 Ry     beta= 0.50
     Davidson diagonalization with overlap
     c_bands:  1 eigenvalues not converged
     ethr =  2.31E-07,  avg # of iterations =  7.4

[...]

     total energy              =   -3711.51765635 Ry
     Harris-Foulkes estimate   =   -3711.51765636 Ry
     estimated scf accuracy    <       0.00000002 Ry

     iteration # 40     ecut=    60.00 Ry     beta= 0.50
     Davidson diagonalization with overlap
     ethr =  3.84E-12,  avg # of iterations =  1.6

[...]

     End of self-consistent calculation

          k = 0.0000 0.0000 0.0000 ( 79365 PWs)   bands (ev):

   -39.0297 -38.9664 -36.6647 -36.5923 -23.8262 -23.7734 -23.7624 -23.6451
   -23.6341 -23.6223 -23.4544 -23.2461 -19.5028 -19.4489 -19.4026 -19.3407
   -19.0337 -18.9691 -18.0107 -17.9413 -17.8772 -17.8089 -17.6961 -17.6201
   -16.4069 -16.3657 -15.9477 -15.9284 -15.7382 -15.6196 -15.5643 -15.5550
   -15.5114 -15.4814 -15.4217 -15.4113 -15.3996 -15.3846 -15.2695 -15.2577
   -15.0932 -15.0496 -14.9809 -14.9488 -14.9409 -14.9376 -14.9338 -14.9236
   -14.8966 -14.8223 -14.7494 -14.7004 -13.8064 -13.3332  -9.1732  -9.0123
    -8.9986  -8.9048  -8.8912  -8.8586  -8.8225  -8.8121  -8.7223  -8.6844
    -8.6737  -8.6682  -8.6332  -8.5879  -8.5776  -8.5521  -8.5436  -8.5074
    -8.4561  -8.4466  -8.4357  -8.2738  -8.0843  -7.9821  -3.9526  -3.9288
    -3.8406  -3.7416  -3.1265  -3.1203  -3.0397  -3.0376  -3.0331  -3.0027
    -2.8940  -2.8430  -2.8321  -2.8062  -2.8025  -2.7845  -2.7414  -2.7411
    -2.6755  -2.6368  -2.6317  -2.5774  -2.5258  -2.4689  -2.3325  -2.3024
    -2.1475  -2.0973  -2.0758  -2.0570  -1.9816  -1.9218  -1.8947  -1.8795
    -1.8719  -1.8704  -1.8631  -1.8608  -1.8386  -1.8372  -1.7759  -1.7010
    -1.6468  -1.6395  -1.3982  -1.3552  -1.2835  -1.2184  -1.2107  -1.2007
    -1.2005  -1.1739  -1.1713  -1.1553  -1.1361  -1.1239  -1.0883  -1.0835
    -1.0817  -1.0812  -1.0681  -1.0332  -0.9979  -0.9315  -0.9068  -0.8963
    -0.8955  -0.8864  -0.8715  -0.8276  -0.8217  -0.8091  -0.8049  -0.7762
    -0.7751  -0.7720  -0.7679  -0.6928  -0.6769  -0.6691  -0.6533  -0.6373
    -0.6307  -0.6297  -0.5816  -0.5522  -0.5430  -0.5262  -0.4742  -0.4314
    -0.4005  -0.3879  -0.3675  -0.3663  -0.3502  -0.3428  -0.3365  -0.3359
    -0.1744  -0.1506  -0.0746  -0.0166   0.0021   0.0598   0.0859   0.0982
     0.1095   0.1312   0.1371   0.1714   0.2530   0.2806   0.2994   0.3141
     0.3197   0.3230   0.3247   0.3265   0.4044   0.4291   0.4422   0.4753
     0.4841   0.4846   0.4999   0.5287   0.5666   0.5807   0.6499   0.7043
     0.7131   0.7456   0.8150   0.8196   0.8233   0.8866   0.8887   0.8962
     0.9151   0.9486   0.9582   1.0066   1.0495   1.1569   1.1705   1.2220
     1.3279   1.3365   1.4579   1.5021   1.5032   1.5737   1.5953   1.6830
     1.6901   1.7117   1.7193   1.7635   1.9604   2.0144   4.1064   4.3400
     4.3457   4.9932   5.0239   5.4704   5.7022   5.7307   5.8315   5.9401
     6.1044   6.2634   6.3771   6.3840   6.4734   6.4808   6.6131   6.6482
     6.9775   7.0378   7.1610   7.1923   7.2189   7.2535   7.3527   7.4105
     7.4773   7.5454   7.6271   7.6657   7.6699   7.7688   7.9792   8.1437
     8.1782   8.2283

[...]

          k = 0.3750-1.0472 0.0000 ( 79290 PWs)   bands (ev):

[...]

          k =-0.5000 0.0000 0.0000 ( 79384 PWs)   bands (ev):

[...]

          k =-0.5000-1.0472 0.0000 ( 79260 PWs)   bands (ev):

   -39.0112 -38.9480 -36.6531 -36.5806 -23.6929 -23.5706 -23.5593 -23.5409
   -23.5300 -23.4407 -23.3354 -23.1045 -19.6735 -19.6110 -19.3323 -19.2699
   -19.2084 -19.1531 -18.0874 -18.0116 -17.9086 -17.8415 -17.8029 -17.7341
   -15.7034 -15.6719 -15.6217 -15.6065 -15.4822 -15.4450 -15.4159 -15.4008
   -15.3842 -15.3587 -15.3354 -15.2555 -15.2323 -15.2140 -15.2066 -15.1989
   -15.1919 -15.1594 -14.9530 -14.9498 -14.9446 -14.9423 -14.8584 -14.8229
   -14.8221 -14.8151 -14.8103 -14.8094 -13.6128 -13.6042  -9.3554  -9.3447
    -9.3047  -9.2940  -9.2302  -9.2130  -9.1386  -9.1133  -9.0305  -9.0197
    -9.0070  -8.9962  -8.9569  -8.9292  -8.9268  -8.9167  -8.9147  -8.8997
    -8.8868  -8.7133  -8.6349  -8.5943  -8.5919  -8.5156  -4.7718  -4.7307
    -4.5431  -4.5060  -4.3835  -4.3155  -4.2811  -4.1902  -3.9482  -3.9473
    -3.9384  -3.9374  -3.8940  -3.8413  -3.2953  -3.2854  -3.1920  -3.1773
    -3.1424  -3.0835  -3.0648  -3.0303  -3.0259  -3.0135  -2.9424  -2.9284
    -2.9250  -2.8908  -2.8653  -2.8436  -2.7945  -2.7135  -2.7124  -2.6996
    -2.6833  -2.6532  -2.4371  -2.3927  -2.3170  -2.2680  -2.0979  -2.0763
    -2.0665  -2.0600  -2.0327  -2.0204  -1.8640  -1.8258  -1.7773  -1.7546
    -1.7471  -1.7212  -1.6746  -1.6481  -1.6312  -1.6305  -1.6197  -1.6111
    -1.5329  -1.4864  -1.4683  -1.4538  -1.4521  -1.3485  -1.2702  -1.2677
    -1.2497  -1.2253  -1.1837  -1.1614  -0.9799  -0.9494  -0.7288  -0.6918
    -0.5010  -0.4950  -0.4339  -0.4268  -0.3871  -0.3832  -0.3683  -0.3490
    -0.3462  -0.3000  -0.2274  -0.1138  -0.1134   0.0989   0.1088   0.1520
     0.1604   0.1808   0.1992   0.2356   0.2391   0.2679   0.2703   0.3200
     0.3210   0.3241   0.3857   0.4168   0.4285   0.4489   0.4643   0.4885
     0.4987   0.5411   0.5446   0.5622   0.5721   0.5853   0.6098   0.6161
     0.6525   0.6949   0.7089   0.8110   0.8859   0.9021   0.9529   0.9687
     0.9711   1.0030   1.0697   1.1013   1.1159   1.1280   1.1945   1.1951
     1.2192   1.2581   1.2885   1.3004   1.3012   1.3135   1.3150   1.4383
     1.5320   1.5561   1.5794   1.6043   1.6489   1.6578   1.6581   1.6674
     1.7934   1.8026   1.8551   1.8775   1.9816   2.0491   2.5634   2.5981
     2.6270   2.6640   2.7238   2.7594   2.8361   2.8593   5.3916   5.8306
     5.8397   5.8513   5.8793   6.0379   6.0925   6.5255   6.6417   6.7099
     7.0359   7.1373   7.3209   7.3801   7.5794   7.7021   7.7033   7.8200
     7.8439   8.2342   8.2597   8.2653   8.2928   8.4463   8.4946   8.5105
     8.5111   8.5559   8.5773   8.6074   8.8301   8.8705   8.8746   8.8885
     8.8895   8.8974

     the Fermi energy is     1.8292 ev

!    total energy              =   -3711.51765632 Ry
     Harris-Foulkes estimate   =   -3711.51765635 Ry
     estimated scf accuracy    <          4.4E-09 Ry

     The total energy is the sum of the following terms:

     one-electron contribution =  -44662.07520161 Ry
     hartree contribution      =   22622.59918351 Ry
     xc contribution           =   -1263.80787908 Ry
     ewald contribution        =   19591.78629250 Ry
     smearing contrib. (-TS)   =      -0.02005164 Ry

     convergence has been achieved in  40 iterations

     negative rho (up, down):  9.209E-02 0.000E+00

     Forces acting on atoms (cartesian axes, Ry/au):

     atom    1 type  4   force =    -0.00000530    0.00000000   -0.00052447
     atom    2 type  4   force =     0.00000530    0.00000000   -0.00052447
     atom    3 type  3   force =    -0.00000241    0.00000000    0.00013064
     atom    4 type  3   force =     0.00000241    0.00000000    0.00013064
     atom    5 type  4   force =     0.00000305    0.00000000    0.00013022
     atom    6 type  4   force =    -0.00000305    0.00000000    0.00013022
     atom    7 type  1   force =     0.00000000    0.00000000   -0.00038647
     atom    8 type  1   force =     0.00000000    0.00000000   -0.00035163
     atom    9 type  3   force =     0.00010971    0.00000000   -0.00028278
     atom   10 type  3   force =    -0.00010971    0.00000000   -0.00028278
     atom   11 type  4   force =     0.00000000    0.00000000    0.00108929
     atom   12 type  4   force =     0.00005620    0.00000000    0.00136615
     atom   13 type  4   force =    -0.00005620    0.00000000    0.00136615
     atom   14 type  4   force =     0.00000000    0.00000000    0.00142557
     atom   15 type  2   force =     0.00000000    0.00000000   -0.00326614
     atom   16 type  5   force =     0.00000000    0.00000000   -0.00480608
     atom   17 type  4   force =     0.00095673    0.00000000    0.00622979
     atom   18 type  4   force =    -0.00095673    0.00000000    0.00622979
     atom   19 type  4   force =     0.00000000    0.00000000    0.00396194
     atom   20 type  4   force =     0.00000000    0.00000000    0.00514318
     atom   21 type  3   force =     0.00053652    0.00000000   -0.00176121
     atom   22 type  3   force =    -0.00053652    0.00000000   -0.00176121
     atom   23 type  1   force =     0.00000000    0.00000000    0.00762666
     atom   24 type  1   force =     0.00000000    0.00000000    0.01432038
     atom   25 type  4   force =     0.00258775    0.00000000   -0.01801685
     atom   26 type  4   force =    -0.00258775    0.00000000   -0.01801685
     atom   27 type  4   force =    -0.01344647    0.00000000    0.02725152
     atom   28 type  4   force =     0.01344647    0.00000000    0.02725152
     atom   29 type  3   force =     0.01300965    0.00000000   -0.02689671
     atom   30 type  3   force =    -0.01300965    0.00000000   -0.02689671
     atom   31 type  4   force =     0.01597411    0.00000000    0.02409921
     atom   32 type  4   force =    -0.01597411    0.00000000    0.02409921
     atom   33 type  1   force =     0.00000000    0.00000000    0.00141059
     atom   34 type  1   force =     0.00000000    0.00000000   -0.01265062
     atom   35 type  3   force =    -0.00350202    0.00000000   -0.02048384
     atom   36 type  3   force =     0.00350202    0.00000000   -0.02048384
     atom   37 type  4   force =     0.00000000    0.00000000    0.00292280
     atom   38 type  4   force =     0.00000000    0.00000000    0.00037336
     atom   39 type  4   force =     0.00295175    0.00000000    0.00022153
     atom   40 type  4   force =    -0.00295175    0.00000000    0.00022153
     atom   41 type  5   force =     0.00000000    0.00000000    0.00208700
     atom   42 type  2   force =     0.00000000    0.00000000    0.00036361
     atom   43 type  4   force =     0.00000000    0.00000000    0.00021968
     atom   44 type  4   force =     0.00001470    0.00000000   -0.00138370
     atom   45 type  4   force =    -0.00001470    0.00000000   -0.00138370
     atom   46 type  4   force =     0.00000000    0.00000000   -0.00006485
     atom   47 type  3   force =    -0.00003971    0.00000000    0.00040410
     atom   48 type  3   force =     0.00003971    0.00000000    0.00040410
     atom   49 type  1   force =     0.00000000    0.00000000    0.00016268
     atom   50 type  1   force =     0.00000000    0.00000000    0.00022378
     atom   51 type  4   force =    -0.00005082    0.00000000   -0.00081188
     atom   52 type  4   force =     0.00005082    0.00000000   -0.00081188
     atom   53 type  3   force =    -0.00003634    0.00000000    0.00082302
     atom   54 type  3   force =     0.00003634    0.00000000    0.00082302
     atom   55 type  4   force =     0.00002038    0.00000000   -0.00039710
     atom   56 type  4   force =    -0.00002038    0.00000000   -0.00039710

     Total force =     0.086394     Total SCF correction =     0.000223

     Computing stress (Cartesian axis) and pressure

     negative rho (up, down):  9.209E-02 0.000E+00
          total   stress  (Ry/bohr**3)                   (kbar)     P=       -5.39
  -0.00000202   0.00000000   0.00000000           -0.30        0.00        0.00
   0.00000000  -0.00008428   0.00000000            0.00      -12.40        0.00
   0.00000000   0.00000000  -0.00002360            0.00        0.00       -3.47

     General routines

     Parallel routines

   This run was terminated on:  12:52:31   1Jun2021

   JOB DONE.
[1622566351.373127] [holy7c04510:25906:0]          mpool.c:43   UCX  WARN  object 0x3d97fc0 was not returned to mpool ucp_requests
[1622566351.376604] [holy7c04503:104351:0]          mpool.c:43   UCX  WARN  object 0x4266cc0 was not returned to mpool ucp_requests
[1622566351.378095] [holy7c04406:66577:0]          mpool.c:43   UCX  WARN  object 0x41bb140 was not returned to mpool ucp_requests
[1622566351.377525] [holy7c04406:66579:0]          mpool.c:43   UCX  WARN  object 0x2e11b80 was not returned to mpool ucp_requests
[1622566351.377546] [holy7c04406:66579:0]          mpool.c:43   UCX  WARN  object 0x2e11d40 was not returned to mpool ucp_requests
[1622566351.378002] [holy7c04406:66578:0]          mpool.c:43   UCX  WARN  object 0x3bfbac0 was not returned to mpool ucp_requests
[1622566351.378465] [holy7c04501:252998:0]          mpool.c:43   UCX  WARN  object 0x42b67c0 was not returned to mpool ucp_requests
[1622566351.378102] [holy7c04504:175969:0]          mpool.c:43   UCX  WARN  object 0x415f9c0 was not returned to mpool ucp_requests
[1622566351.378122] [holy7c04504:175969:0]          mpool.c:43   UCX  WARN  object 0x415fd40 was not returned to mpool ucp_requests
[1622566351.381583] [holy7c04511:18266:0]          mpool.c:43   UCX  WARN  object 0x3579640 was not returned to mpool ucp_requests
[1622566351.379511] [holy7c04501:253000:0]          mpool.c:43   UCX  WARN  object 0x440ff40 was not returned to mpool ucp_requests
[1622566351.379535] [holy7c04501:253000:0]          mpool.c:43   UCX  WARN  object 0x4410800 was not returned to mpool ucp_requests
[1622566351.384880] [holy7c04503:104350:0]          mpool.c:43   UCX  WARN  object 0x2808b40 was not returned to mpool ucp_requests
[1622566351.389212] [holy7c04408:38691:0]          mpool.c:43   UCX  WARN  object 0x2e2be00 was not returned to mpool ucp_requests
[1622566351.389229] [holy7c04408:38691:0]          mpool.c:43   UCX  WARN  object 0x2e2c340 was not returned to mpool ucp_requests
[1622566351.387340] [holy7c04408:38693:0]          mpool.c:43   UCX  WARN  object 0x46f4080 was not returned to mpool ucp_requests
[1622566351.387357] [holy7c04408:38693:0]          mpool.c:43   UCX  WARN  object 0x46f4240 was not returned to mpool ucp_requests
[1622566351.387359] [holy7c04408:38693:0]          mpool.c:43   UCX  WARN  object 0x46f4400 was not returned to mpool ucp_requests
[1622566351.385363] [holy7c04408:38692:0]          mpool.c:43   UCX  WARN  object 0x4533400 was not returned to mpool ucp_requests