     Program PWSCF v.6.5 starts on 27May2021 at 23:18:26

     R & G space division:  proc/nbgrp/npool/nimage =      32
     Reading input from YCBCO50_212_BaO_cleave_5.0_sep.pwi
Warning: card &IONS ignored
Warning: card     ION_DYNAMICS = 'BFGS' ignored
Warning: card / ignored
Warning: card &CELL ignored
Warning: card     CELL_DYNAMICS = 'BFGS' ignored
Warning: card     PRESS_CONV_THR = 5 ignored
Warning: card / ignored

     Current dimensions of program PWSCF are:
     Max number of different atomic species (ntypx) = 10
     Max number of k-points (npk) =  40000
     Max angular momentum in pseudopotentials (lmaxx) =  3

     Message from routine setup:
     using ibrav=0 with symmetry is DISCOURAGED, use correct ibrav instead

     bravais-lattice index     =            0
     lattice parameter (alat)  =      14.8133  a.u.
     unit-cell volume          =    9707.1835 (a.u.)^3
     number of atoms/cell      =           56
     number of atomic types    =            5
     number of electrons       =       456.00
     number of Kohn-Sham states=          274
     kinetic-energy cutoff     =      60.0000  Ry
     charge density cutoff     =     720.0000  Ry
     convergence threshold     =      1.0E-08
     mixing beta               =       0.5000
     number of iterations used =           10  local-TF  mixing
     Exchange-correlation= SLA PW PBE PBE
                           (   1   4   3   4   0   0   0)

     celldm(1)=  14.813271  celldm(2)=   0.000000  celldm(3)=   0.000000
     celldm(4)=   0.000000  celldm(5)=   0.000000  celldm(6)=   0.000000

     crystal axes: (cart. coord. in units of alat)
               a(1) = (   1.000000   0.000000   0.000000 )
               a(2) = (   0.000000   0.477453   0.000000 )
               a(3) = (   0.000000   0.000000   6.254750 )

     reciprocal axes: (cart. coord. in units 2 pi/alat)
               b(1) = (  1.000000  0.000000  0.000000 )
               b(2) = (  0.000000  2.094448  0.000000 )
               b(3) = (  0.000000  0.000000  0.159878 )

     PseudoPot. # 1 for Ba read from file:
     ./pseudo/Ba.pbe-nsp-van.UPF
     MD5 check sum: 2b9c31dd849566dd297d80989662b7a0
     Pseudo is Ultrasoft + core correction, Zval = 10.0
     Generated by new atomic code, or converted to UPF format
     Using radial grid of  907 points,  6 beta functions with:
                l(1) =   0
                l(2) =   0
                l(3) =   1
                l(4) =   1
                l(5) =   2
                l(6) =   2
     Q(r) pseudized with  6 coefficients,  rinner =    1.200   1.200   1.200
                                                       1.200   1.200

     PseudoPot. # 2 for Ca read from file:
     ./pseudo/Ca.pbe-nsp-van.UPF
     MD5 check sum: 6471098428ff4fa451746d08035ff179
     Pseudo is Ultrasoft + core correction, Zval = 10.0
     Generated by new atomic code, or converted to UPF format
     Using radial grid of  845 points,  6 beta functions with:
                l(1) =   0
                l(2) =   0
                l(3) =   1
                l(4) =   1
                l(5) =   2
                l(6) =   2
     Q(r) pseudized with  6 coefficients,  rinner =    1.200   1.200   1.200
                                                       1.200   1.200

     PseudoPot. # 3 for Cu read from file:
     ./pseudo/Cu.pbe-n-van_ak.UPF
     MD5 check sum: 34e3282627ffb533726feb647e090d62
     Pseudo is Ultrasoft + core correction, Zval = 11.0
     Generated by new atomic code, or converted to UPF format
     Using radial grid of  867 points,  6 beta functions with:
                l(1) =   0
                l(2) =   0
                l(3) =   1
                l(4) =   1
                l(5) =   2
                l(6) =   2
     Q(r) pseudized with  8 coefficients,  rinner =    1.400   1.400   1.400
                                                       1.400   1.400

     PseudoPot. # 4 for O  read from file:
     ./pseudo/O.pbe-van_ak.UPF
     MD5 check sum: 783ce7fe4c79b6a4916957118fed0856
     Pseudo is Ultrasoft, Zval =  6.0
     Generated by new atomic code, or converted to UPF format
     Using radial grid of  737 points,  4 beta functions with:
                l(1) =   0
                l(2) =   0
                l(3) =   1
                l(4) =   1
     Q(r) pseudized with  8 coefficients,  rinner =    0.800   0.800   0.800

     PseudoPot. # 5 for Y  read from file:
     ./pseudo/Y.pbe-nsp-van.UPF
     MD5 check sum: 4412fed3ab108fed87a1b7d6a69a4a38
     Pseudo is Ultrasoft + core correction, Zval = 11.0
     Generated by new atomic code, or converted to UPF format
     Using radial grid of  885 points,  6 beta functions with:
                l(1) =   0
                l(2) =   0
                l(3) =   1
                l(4) =   1
                l(5) =   2
                l(6) =   2
     Q(r) pseudized with  6 coefficients,  rinner =    1.200   1.200   1.200
                                                       1.200   1.200

     atomic species   valence    mass     pseudopotential
        Ba            10.00   137.32700     Ba( 1.00)
        Ca            10.00    40.07800     Ca( 1.00)
        Cu            11.00    63.54600     Cu( 1.00)
        O              6.00    15.99900     O ( 1.00)
        Y             11.00    88.90584     Y ( 1.00)

      4 Sym. Ops. (no inversion) found ( 2 have fractional translation)

   Cartesian axes

     site n.     atom                  positions (alat units)
         1           O   tau(   1) = (  -0.0008343   0.2387265  -0.0222443  )
         2           O   tau(   2) = (   0.5008340   0.2387265  -0.0222443  )
         3           Cu  tau(   3) = (   0.5017257   0.0000000   0.0109608  )
         4           Cu  tau(   4) = (  -0.0017260   0.0000000   0.0109608  )
         5           O   tau(   5) = (  -0.0028933   0.0000000   0.2506504  )
         6           O   tau(   6) = (   0.5028929   0.0000000   0.2506504  )
         7           Ba  tau(   7) = (   0.7499995   0.2387265   0.2749435  )
         8           Ba  tau(   8) = (   0.2499998   0.2387265   0.2755214  )
         9           Cu  tau(   9) = (   0.4980963   0.0000000   0.5208446  )
        10           Cu  tau(  10) = (   0.0019033   0.0000000   0.5208446  )
        11           O   tau(  11) = (   0.2499998   0.0000000   0.5341884  )
        12           O   tau(  12) = (   0.5083351   0.2387265   0.5569851  )
        13           O   tau(  13) = (  -0.0083354   0.2387265   0.5569851  )
        14           O   tau(  14) = (   0.7499995   0.0000000   0.5573831  )
        15           Ca  tau(  15) = (   0.2499998   0.2387265   0.7436937  )
        16           Y   tau(  16) = (   0.7499995   0.2387265   0.7469544  )
        17           O   tau(  17) = (  -0.0063798   0.2387265   0.9248530  )
        18           O   tau(  18) = (   0.5063794   0.2387265   0.9248530  )
        19           O   tau(  19) = (   0.7499995   0.0000000   0.9338544  )
        20           O   tau(  20) = (   0.2499998   0.0000000   0.9461329  )
        21           Cu  tau(  21) = (   0.0015717   0.0000000   0.9686860  )
        22           Cu  tau(  22) = (   0.4984280   0.0000000   0.9686860  )
        23           Ba  tau(  23) = (   0.2499998   0.2387265   1.2085224  )
        24           Ba  tau(  24) = (   0.7499995   0.2387265   1.2233294  )
        25           O   tau(  25) = (   0.0063772   0.0000000   1.2547537  )
        26           O   tau(  26) = (   0.4936224   0.0000000   1.2547537  )
        27           O   tau(  27) = (   0.5384045   0.2387265   1.4952521  )
        28           O   tau(  28) = (  -0.0384049   0.2387265   1.4952521  )
        29           Cu  tau(  29) = (   0.5006120   0.0000000   1.4952546  )
        30           Cu  tau(  30) = (  -0.0006123   0.0000000   1.4952546  )
        31           O   tau(  31) = (   0.4936212   0.0000000   1.7357531  )
        32           O   tau(  32) = (   0.0063785   0.0000000   1.7357531  )
        33           Ba  tau(  33) = (   0.7499995   0.2387265   1.7671824  )
        34           Ba  tau(  34) = (   0.2499998   0.2387265   1.7819920  )
        35           Cu  tau(  35) = (   0.4984280   0.0000000   2.6596723  )
        36           Cu  tau(  36) = (   0.0015717   0.0000000   2.6596723  )
        37           O   tau(  37) = (   0.2499998   0.0000000   2.6822304  )
        38           O   tau(  38) = (   0.7499995   0.0000000   2.6945001  )
        39           O   tau(  39) = (   0.5063781   0.2387265   2.7035053  )
        40           O   tau(  40) = (  -0.0063785   0.2387265   2.7035053  )
        41           Y   tau(  41) = (   0.7499995   0.2387265   2.8813988  )
        42           Ca  tau(  42) = (   0.2499998   0.2387265   2.8846684  )
        43           O   tau(  43) = (   0.7499995   0.0000000   3.0709663  )
        44           O   tau(  44) = (  -0.0083354   0.2387265   3.0713681  )
        45           O   tau(  45) = (   0.5083351   0.2387265   3.0713681  )
        46           O   tau(  46) = (   0.2499998   0.0000000   3.0941661  )
        47           Cu  tau(  47) = (   0.0019059   0.0000000   3.1074997  )
        48           Cu  tau(  48) = (   0.4980938   0.0000000   3.1074997  )
        49           Ba  tau(  49) = (   0.2499998   0.2387265   3.3528394  )
        50           Ba  tau(  50) = (   0.7499995   0.2387265   3.3533816  )
        51           O   tau(  51) = (  -0.0028895   0.0000000   3.3776887  )
        52           O   tau(  52) = (   0.5028891   0.0000000   3.3776887  )
        53           Cu  tau(  53) = (   0.5017844   0.0000000   3.6173733  )
        54           Cu  tau(  54) = (  -0.0017847   0.0000000   3.6173733  )
        55           O   tau(  55) = (   0.5008990   0.2387265   3.6505797  )
        56           O   tau(  56) = (  -0.0008994   0.2387265   3.6505797  )

     number of k points=    25  Gaussian smearing, width (Ry)=  0.0100
                       cart. coord. in units 2pi/alat
        k(    1) = (   0.0000000   0.0000000   0.0000000), wk =   0.0312500
        k(    2) = (   0.0000000   0.2618060   0.0000000), wk =   0.0625000
        k(    3) = (   0.0000000   0.5236121   0.0000000), wk =   0.0625000
        k(    4) = (   0.0000000   0.7854181   0.0000000), wk =   0.0625000
        k(    5) = (   0.0000000  -1.0472241   0.0000000), wk =   0.0312500
        k(    6) = (   0.1250000   0.0000000   0.0000000), wk =   0.0625000
        k(    7) = (   0.1250000   0.2618060   0.0000000), wk =   0.1250000
        k(    8) = (   0.1250000   0.5236121   0.0000000), wk =   0.1250000
        k(    9) = (   0.1250000   0.7854181   0.0000000), wk =   0.1250000
        k(   10) = (   0.1250000  -1.0472241   0.0000000), wk =   0.0625000
        k(   11) = (   0.2500000   0.0000000   0.0000000), wk =   0.0625000
        k(   12) = (   0.2500000   0.2618060   0.0000000), wk =   0.1250000
        k(   13) = (   0.2500000   0.5236121   0.0000000), wk =   0.1250000
        k(   14) = (   0.2500000   0.7854181   0.0000000), wk =   0.1250000
        k(   15) = (   0.2500000  -1.0472241   0.0000000), wk =   0.0625000
        k(   16) = (   0.3750000   0.0000000   0.0000000), wk =   0.0625000
        k(   17) = (   0.3750000   0.2618060   0.0000000), wk =   0.1250000
        k(   18) = (   0.3750000   0.5236121   0.0000000), wk =   0.1250000
        k(   19) = (   0.3750000   0.7854181   0.0000000), wk =   0.1250000
        k(   20) = (   0.3750000  -1.0472241   0.0000000), wk =   0.0625000
        k(   21) = (  -0.5000000   0.0000000   0.0000000), wk =   0.0312500
        k(   22) = (  -0.5000000   0.2618060   0.0000000), wk =   0.0625000
        k(   23) = (  -0.5000000   0.5236121   0.0000000), wk =   0.0625000
        k(   24) = (  -0.5000000   0.7854181   0.0000000), wk =   0.0625000
        k(   25) = (  -0.5000000  -1.0472241   0.0000000), wk =   0.0312500

     Initial potential from superposition of free atoms

     starting charge  455.69457, renormalised to  456.00000

     negative rho (up, down):  9.324E-02 0.000E+00
     Starting wfcs are  396 randomized atomic wfcs

     Self-consistent Calculation

     iteration #  1     ecut=    60.00 Ry     beta= 0.50
     Davidson diagonalization with overlap
     ethr =  1.00E-02,  avg # of iterations =  2.0

     negative rho (up, down):  8.638E-02 0.000E+00

     total energy              =   -3708.21212590 Ry
     Harris-Foulkes estimate   =   -3716.62558208 Ry
     estimated scf accuracy    <      36.64830300 Ry

[...]

     iteration # 11     ecut=    60.00 Ry     beta= 0.50
     Davidson diagonalization with overlap
     c_bands:  1 eigenvalues not converged
     ethr =  8.63E-05,  avg # of iterations =  6.6

[...]

     iteration # 22     ecut=    60.00 Ry     beta= 0.50
     Davidson diagonalization with overlap
     c_bands:  1 eigenvalues not converged
     ethr =  1.76E-06,  avg # of iterations =  9.2

[...]

     total energy              =   -3711.57697126 Ry
     Harris-Foulkes estimate   =   -3711.57697126 Ry
     estimated scf accuracy    <       0.00000001 Ry

     iteration # 37     ecut=    60.00 Ry     beta= 0.50
     Davidson diagonalization with overlap
     ethr =  2.54E-12,  avg # of iterations =  1.2

[...]

     End of self-consistent calculation

          k = 0.0000 0.0000 0.0000 ( 76245 PWs)   bands (ev):

   -38.5130 -38.1573 -36.1425 -35.7491 -25.2075 -24.7479 -23.2871 -23.2598
   -23.1776 -23.1588 -23.1321 -23.0324 -18.9880 -18.8833 -18.6049 -18.5520
   -18.5164 -18.1683 -17.4904 -17.3545 -17.1725 -17.0709 -16.9874 -16.7889
   -15.8974 -15.7675 -15.6300 -15.5711 -15.4505 -15.4025 -15.1537 -15.0425
   -14.9800 -14.9675 -14.9350 -14.9264 -14.9250 -14.7671 -14.7475 -14.5929
   -14.5816 -14.5635 -14.4755 -14.4721 -14.4702 -14.4649 -14.4524 -14.4206
   -14.3870 -14.3793 -14.3208 -14.1957 -13.9508 -13.7145 -10.6098 -10.0539
    -9.9387  -9.9189  -9.5349  -9.5133  -8.5259  -8.4925  -8.4602  -8.4146
    -8.3884  -8.3688  -8.3364  -8.3118  -8.1983  -8.1750  -8.1718  -8.1019
    -8.0772  -8.0527  -7.9938  -7.9604  -7.9338  -7.8319  -3.4584  -3.4075
    -3.3078  -2.8379  -2.6431  -2.6390  -2.6289  -2.5965  -2.5547  -2.5479
    -2.5227  -2.3875  -2.3671  -2.3213  -2.2908  -2.2206  -2.2100  -2.1477
    -2.1433  -2.1164  -2.0728  -2.0163  -2.0093  -1.9445  -1.8686  -1.8138
    -1.8084  -1.6877  -1.6612  -1.6311  -1.6288  -1.5840  -1.5735  -1.4752
    -1.4039  -1.3898  -1.3895  -1.3893  -1.3880  -1.3526  -1.3513  -1.3093
    -1.2950  -1.2508  -1.2183  -1.1632  -1.1602  -1.1563  -1.0895  -0.9908
    -0.9573  -0.9338  -0.8431  -0.7238  -0.7176  -0.6879  -0.6833  -0.6692
    -0.6047  -0.6008  -0.6002  -0.5971  -0.5942  -0.5830  -0.4795  -0.4660
    -0.4515  -0.4286  -0.4113  -0.3927  -0.3900  -0.3826  -0.3340  -0.3091
    -0.3022  -0.2962  -0.2924  -0.2799  -0.2462  -0.2158  -0.2107  -0.1960
    -0.1948  -0.1572  -0.1555  -0.1168  -0.0977  -0.0760  -0.0701  -0.0548
    -0.0046   0.0505   0.1147   0.1235   0.1371   0.1375   0.1579   0.2182
     0.2346   0.2486   0.3449   0.3595   0.4738   0.5176   0.5731   0.5754
     0.5885   0.5942   0.6082   0.6129   0.6211   0.7358   0.7463   0.7485
     0.7728   0.7930   0.7965   0.8016   0.8117   0.8225   0.8849   0.9044
     0.9249   0.9460   0.9631   0.9724   1.0074   1.0226   1.0462   1.0556
     1.1568   1.2351   1.2677   1.2752   1.2812   1.3000   1.3058   1.3735
     1.3907   1.3977   1.4915   1.5036   1.5353   1.6040   1.6427   1.6631
     1.7543   1.7562   1.8071   1.8354   1.9148   1.9314   1.9519   2.0982
     2.1427   2.1634   2.1706   2.2639   2.4448   2.4751   3.3093   4.3238
     4.8064   4.8222   5.0095   5.1543   5.3121   5.4757   5.7191   6.0781
     6.2235   6.2452   6.4579   6.6442   6.8590   6.8736   6.8880   6.9555
     6.9574   7.0112   7.2274   7.3959   7.5761   7.6370   7.7149   7.7279
     7.7311   7.7685   7.8670   8.0225   8.0243   8.0715   8.0781   8.2256
     8.2350   8.3045

[...]

          k = 0.3750-1.0472 0.0000 ( 76210 PWs)   bands (ev):

[...]

          k =-0.5000 0.0000 0.0000 ( 76308 PWs)   bands (ev):

[...]

          k =-0.5000-1.0472 0.0000 ( 76140 PWs)   bands (ev):

   -38.4945 -38.1388 -36.1309 -35.7374 -25.0748 -24.6257 -23.0842 -23.0551
   -23.0546 -23.0296 -22.9928 -22.9200 -19.1566 -18.8132 -18.8114 -18.6931
   -18.4812 -18.3062 -17.5638 -17.3858 -17.2822 -17.1834 -17.0202 -16.8578
   -15.2051 -15.1338 -15.1129 -15.1005 -15.0825 -15.0796 -15.0259 -15.0109
   -14.9769 -14.9043 -14.8569 -14.8252 -14.7818 -14.7678 -14.7630 -14.7257
   -14.7093 -14.6019 -14.5918 -14.5674 -14.4040 -14.3751 -14.3379 -14.3371
   -14.3369 -14.3361 -14.2049 -14.1895 -13.9675 -13.7803 -10.5639 -10.4793
   -10.3314 -10.2741  -9.8977  -9.8113  -8.8694  -8.8410  -8.8187  -8.7937
    -8.7686  -8.6600  -8.5443  -8.5208  -8.5177  -8.4967  -8.4830  -8.4428
    -8.4389  -8.4300  -8.4118  -8.4108  -8.2827  -8.2763  -4.2628  -4.1406
    -4.0653  -3.9953  -3.9545  -3.9532  -3.8340  -3.7209  -3.4711  -3.4653
    -3.4648  -3.4641  -3.4332  -3.2903  -2.8097  -2.7853  -2.7257  -2.7025
    -2.6707  -2.6631  -2.5910  -2.5256  -2.4897  -2.4457  -2.4453  -2.4426
    -2.4083  -2.4046  -2.3969  -2.3682  -2.3543  -2.3105  -2.1689  -2.1261
    -2.1171  -2.0915  -1.9421  -1.8560  -1.8552  -1.8524  -1.7525  -1.7512
    -1.7049  -1.6877  -1.5817  -1.5553  -1.5522  -1.5513  -1.5295  -1.4305
    -1.2817  -1.2616  -1.2515  -1.1763  -1.1677  -1.1628  -1.1549  -1.1439
    -1.1340  -1.1263  -1.1047  -1.0097  -0.9979  -0.9207  -0.9106  -0.9041
    -0.7925  -0.7857  -0.7719  -0.7510  -0.5247  -0.5243  -0.4634  -0.4062
    -0.1830  -0.1785  -0.1678  -0.1378  -0.0414  -0.0029   0.0793   0.0937
     0.1001   0.1200   0.1282   0.2276   0.3090   0.3413   0.3452   0.3569
     0.3939   0.4798   0.6177   0.6711   0.7029   0.7471   0.7498   0.7590
     0.7938   0.8109   0.8356   0.8870   0.9417   0.9447   0.9480   0.9826
     0.9989   0.9991   1.0107   1.0311   1.0512   1.0688   1.1236   1.1297
     1.1388   1.1427   1.1441   1.1748   1.1842   1.2041   1.2048   1.2246
     1.3131   1.3774   1.4070   1.4564   1.4698   1.4731   1.4975   1.5227
     1.5358   1.5908   1.6586   1.6795   1.7599   1.7759   1.7846   1.7862
     1.7870   1.9112   1.9791   2.0282   2.1326   2.1338   2.1415   2.1437
     2.3015   2.3094   2.3159   2.3248   3.0601   3.1424   3.1484   3.2456
     3.2533   3.3075   3.3960   3.4594   3.5059   3.5509   4.6670   4.8365
     5.5452   5.7023   5.7869   6.3151   6.3290   6.3556   6.3719   6.5495
     6.5535   6.5569   6.5772   6.8469   7.1083   7.1787   7.7232   7.7738
     7.8349   8.1289   8.2943   8.3707   8.3717   8.6826   8.6996   8.8528
     8.8546   8.9144   8.9755   9.0087   9.0222   9.0235   9.0784   9.0959
     9.1145   9.1300

     the Fermi energy is     2.3134 ev

!    total energy              =   -3711.57697126 Ry
     Harris-Foulkes estimate   =   -3711.57697126 Ry
     estimated scf accuracy    <          4.3E-09 Ry

     The total energy is the sum of the following terms:

     one-electron contribution =  -49799.85422360 Ry
     hartree contribution      =   25197.92329176 Ry
     xc contribution           =   -1263.75418754 Ry
     ewald contribution        =   22154.12339180 Ry
     smearing contrib. (-TS)   =      -0.01524368 Ry

     convergence has been achieved in  37 iterations

     negative rho (up, down):  9.216E-02 0.000E+00

     Forces acting on atoms (cartesian axes, Ry/au):

     atom    1 type  4   force =    -0.00000601    0.00000000   -0.00010916
     atom    2 type  4   force =     0.00000601    0.00000000   -0.00010916
     atom    3 type  3   force =    -0.00000920    0.00000000   -0.00006284
     atom    4 type  3   force =     0.00000920    0.00000000   -0.00006284
     atom    5 type  4   force =     0.00000381    0.00000000   -0.00001974
     atom    6 type  4   force =    -0.00000381    0.00000000   -0.00001974
     atom    7 type  1   force =     0.00000000    0.00000000   -0.00022795
     atom    8 type  1   force =     0.00000000    0.00000000   -0.00021175
     atom    9 type  3   force =     0.00004282    0.00000000   -0.00001481
     atom   10 type  3   force =    -0.00004282    0.00000000   -0.00001481
     atom   11 type  4   force =     0.00000000    0.00000000    0.00035557
     atom   12 type  4   force =     0.00000517    0.00000000    0.00034605
     atom   13 type  4   force =    -0.00000517    0.00000000    0.00034605
     atom   14 type  4   force =     0.00000000    0.00000000    0.00053852
     atom   15 type  2   force =     0.00000000    0.00000000   -0.00128414
     atom   16 type  5   force =     0.00000000    0.00000000   -0.00192153
     atom   17 type  4   force =     0.00019331    0.00000000    0.00247591
     atom   18 type  4   force =    -0.00019331    0.00000000    0.00247591
     atom   19 type  4   force =     0.00000000    0.00000000    0.00270323
     atom   20 type  4   force =     0.00000000    0.00000000    0.00332600
     atom   21 type  3   force =    -0.00011579    0.00000000   -0.00283250
     atom   22 type  3   force =     0.00011579    0.00000000   -0.00283250
     atom   23 type  1   force =     0.00000000    0.00000000   -0.00772541
     atom   24 type  1   force =     0.00000000    0.00000000   -0.00889351
     atom   25 type  4   force =    -0.00112075    0.00000000    0.00673680
     atom   26 type  4   force =     0.00112075    0.00000000    0.00673680
     atom   27 type  4   force =    -0.00134167    0.00000000    0.02021113
     atom   28 type  4   force =     0.00134167    0.00000000    0.02021113
     atom   29 type  3   force =     0.00530561    0.00000000   -0.02264836
     atom   30 type  3   force =    -0.00530561    0.00000000   -0.02264836
     atom   31 type  4   force =    -0.01174905    0.00000000    0.05046798
     atom   32 type  4   force =     0.01174905    0.00000000    0.05046798
     atom   33 type  1   force =     0.00000000    0.00000000   -0.05160639
     atom   34 type  1   force =     0.00000000    0.00000000   -0.03983471
     atom   35 type  3   force =    -0.01006687    0.00000000   -0.00841016
     atom   36 type  3   force =     0.01006687    0.00000000   -0.00841016
     atom   37 type  4   force =     0.00000000    0.00000000    0.01866097
     atom   38 type  4   force =     0.00000000    0.00000000    0.02078207
     atom   39 type  4   force =     0.00225854    0.00000000    0.01217772
     atom   40 type  4   force =    -0.00225854    0.00000000    0.01217772
     atom   41 type  5   force =     0.00000000    0.00000000   -0.04048817
     atom   42 type  2   force =     0.00000000    0.00000000   -0.03034712
     atom   43 type  4   force =     0.00000000    0.00000000    0.00666448
     atom   44 type  4   force =     0.00059081    0.00000000    0.00324296
     atom   45 type  4   force =    -0.00059081    0.00000000    0.00324296
     atom   46 type  4   force =     0.00000000    0.00000000    0.00472352
     atom   47 type  3   force =     0.00052871    0.00000000    0.00117447
     atom   48 type  3   force =    -0.00052871    0.00000000    0.00117447
     atom   49 type  1   force =     0.00000000    0.00000000   -0.00098015
     atom   50 type  1   force =     0.00000000    0.00000000   -0.00117032
     atom   51 type  4   force =     0.00009182    0.00000000    0.00083048
     atom   52 type  4   force =    -0.00009182    0.00000000    0.00083048
     atom   53 type  3   force =    -0.00004623    0.00000000   -0.00031977
     atom   54 type  3   force =     0.00004623    0.00000000   -0.00031977
     atom   55 type  4   force =     0.00000150    0.00000000    0.00022224
     atom   56 type  4   force =    -0.00000150    0.00000000    0.00022224

     Total force =     0.126075     Total SCF correction =     0.000304

     Computing stress (Cartesian axis) and pressure

     negative rho (up, down):  9.216E-02 0.000E+00
          total   stress  (Ry/bohr**3)                   (kbar)     P=       -6.85
  -0.00008599   0.00000000   0.00000000          -12.65        0.00        0.00
   0.00000000  -0.00003551   0.00000000            0.00       -5.22        0.00
   0.00000000   0.00000000  -0.00001811            0.00        0.00       -2.66

     General routines

     Parallel routines

   This run was terminated on:  23:55:17  27May2021

   JOB DONE.
[1622174117.805016] [holy7c16607:234693:0]          mpool.c:43   UCX  WARN  object 0x389d500 was not returned to mpool ucp_requests
[1622174117.806424] [holy7c16610:220698:0]          mpool.c:43   UCX  WARN  object 0x3ca3080 was not returned to mpool ucp_requests
[1622174117.806136] [holy7c10209:132770:0]          mpool.c:43   UCX  WARN  object 0x4760840 was not returned to mpool ucp_requests
[1622174117.806158] [holy7c10209:132770:0]          mpool.c:43   UCX  WARN  object 0x4760d80 was not returned to mpool ucp_requests
[1622174117.813546] [holy7c06207:182546:0]          mpool.c:43   UCX  WARN  object 0x2a26580 was not returned to mpool ucp_requests
[1622174117.813524] [holy7c06606:83035:0]          mpool.c:43   UCX  WARN  object 0x3117600 was not returned to mpool ucp_requests
[1622174117.825527] [holy7c08101:167076:0]          mpool.c:43   UCX  WARN  object 0x2855480 was not returned to mpool ucp_requests
[1622174117.825552] [holy7c08101:167076:0]          mpool.c:43   UCX  WARN  object 0x2855d40 was not returned to mpool ucp_requests
[1622174117.827490] [holy7c16512:255782:0]          mpool.c:43   UCX  WARN  object 0x3b60340 was not returned to mpool ucp_requests
[1622174117.844049] [holy7c16601:19315:0]          mpool.c:43   UCX  WARN  object 0x343c140 was not returned to mpool ucp_requests
[1622174117.844072] [holy7c16601:19315:0]          mpool.c:43   UCX  WARN  object 0x343c680 was not returned to mpool ucp_requests
[1622174117.844074] [holy7c16601:19315:0]          mpool.c:43   UCX  WARN  object 0x343c840 was not returned to mpool ucp_requests
[1622174117.815153] [holy7c16602:266460:0]          mpool.c:43   UCX  WARN  object 0x2adffc0 was not returned to mpool ucp_requests
[1622174117.820735] [holy7c16602:266462:0]          mpool.c:43   UCX  WARN  object 0x294f1c0 was not returned to mpool ucp_requests
[1622174117.820762] [holy7c16602:266462:0]          mpool.c:43   UCX  WARN  object 0x294fc40 was not returned to mpool ucp_requests
[1622174117.842740] [holy7c16601:19322:0]          mpool.c:43   UCX  WARN  object 0x363a540 was not returned to mpool ucp_requests
[1622174117.844832] [holy7c16601:19318:0]          mpool.c:43   UCX  WARN  object 0x3ef1480 was not returned to mpool ucp_requests
[1622174117.845168] [holy7c16601:19320:0]          mpool.c:43   UCX  WARN  object 0x30c27c0 was not returned to mpool ucp_requests
[1622174117.845188] [holy7c16601:19320:0]          mpool.c:43   UCX  WARN  object 0x30c2b40 was not returned to mpool ucp_requests