     Program PWSCF v.6.5 starts on 25May2021 at 14:24:29

     R & G space division:  proc/nbgrp/npool/nimage =      32
     Reading input from YCBCO50_212_BaO_cleave_0.25_sep.pwi
Warning: card &IONS ignored
Warning: card     ION_DYNAMICS = 'BFGS' ignored
Warning: card / ignored
Warning: card &CELL ignored
Warning: card     CELL_DYNAMICS = 'BFGS' ignored
Warning: card     PRESS_CONV_THR = 5 ignored
Warning: card / ignored

     Current dimensions of program PWSCF are:
     Max number of different atomic species (ntypx) = 10
     Max number of k-points (npk) =  40000
     Max angular momentum in pseudopotentials (lmaxx) =  3

     Message from routine setup:
     using ibrav=0 with symmetry is DISCOURAGED, use correct ibrav instead

     bravais-lattice index     =            0
     lattice parameter (alat)  =      14.8133  a.u.
     unit-cell volume          =    8766.7572 (a.u.)^3
     number of atoms/cell      =           56
     number of atomic types    =            5
     number of electrons       =       456.00
     number of Kohn-Sham states=          274
     kinetic-energy cutoff     =      60.0000  Ry
     charge density cutoff     =     720.0000  Ry
     convergence threshold     =      1.0E-08
     mixing beta               =       0.5000
     number of iterations used =           10  local-TF  mixing
     Exchange-correlation= SLA PW PBE PBE
                           (   1   4   3   4   0   0   0)

     celldm(1)=  14.813271  celldm(2)=   0.000000  celldm(3)=   0.000000
     celldm(4)=   0.000000  celldm(5)=   0.000000  celldm(6)=   0.000000

     crystal axes: (cart. coord. in units of alat)
               a(1) = (   1.000000   0.000000   0.000000 )
               a(2) = (   0.000000   0.477453   0.000000 )
               a(3) = (   0.000000   0.000000   5.648794 )

     reciprocal axes: (cart. coord. in units 2 pi/alat)
               b(1) = (  1.000000  0.000000  0.000000 )
               b(2) = (  0.000000  2.094448  0.000000 )
               b(3) = (  0.000000  0.000000  0.177029 )

     PseudoPot. # 1 for Ba read from file:
     ./pseudo/Ba.pbe-nsp-van.UPF
     MD5 check sum: 2b9c31dd849566dd297d80989662b7a0
     Pseudo is Ultrasoft + core correction, Zval = 10.0
     Generated by new atomic code, or converted to UPF format
     Using radial grid of  907 points,  6 beta functions with:
                l(1) =   0
                l(2) =   0
                l(3) =   1
                l(4) =   1
                l(5) =   2
                l(6) =   2
     Q(r) pseudized with  6 coefficients,  rinner =    1.200   1.200   1.200
                                                       1.200   1.200

     PseudoPot. # 2 for Ca read from file:
     ./pseudo/Ca.pbe-nsp-van.UPF
     MD5 check sum: 6471098428ff4fa451746d08035ff179
     Pseudo is Ultrasoft + core correction, Zval = 10.0
     Generated by new atomic code, or converted to UPF format
     Using radial grid of  845 points,  6 beta functions with:
                l(1) =   0
                l(2) =   0
                l(3) =   1
                l(4) =   1
                l(5) =   2
                l(6) =   2
     Q(r) pseudized with  6 coefficients,  rinner =    1.200   1.200   1.200
                                                       1.200   1.200

     PseudoPot. # 3 for Cu read from file:
     ./pseudo/Cu.pbe-n-van_ak.UPF
     MD5 check sum: 34e3282627ffb533726feb647e090d62
     Pseudo is Ultrasoft + core correction, Zval = 11.0
     Generated by new atomic code, or converted to UPF format
     Using radial grid of  867 points,  6 beta functions with:
                l(1) =   0
                l(2) =   0
                l(3) =   1
                l(4) =   1
                l(5) =   2
                l(6) =   2
     Q(r) pseudized with  8 coefficients,  rinner =    1.400   1.400   1.400
                                                       1.400   1.400

     PseudoPot. # 4 for O  read from file:
     ./pseudo/O.pbe-van_ak.UPF
     MD5 check sum: 783ce7fe4c79b6a4916957118fed0856
     Pseudo is Ultrasoft, Zval =  6.0
     Generated by new atomic code, or converted to UPF format
     Using radial grid of  737 points,  4 beta functions with:
                l(1) =   0
                l(2) =   0
                l(3) =   1
                l(4) =   1
     Q(r) pseudized with  8 coefficients,  rinner =    0.800   0.800   0.800

     PseudoPot. # 5 for Y  read from file:
     ./pseudo/Y.pbe-nsp-van.UPF
     MD5 check sum: 4412fed3ab108fed87a1b7d6a69a4a38
     Pseudo is Ultrasoft + core correction, Zval = 11.0
     Generated by new atomic code, or converted to UPF format
     Using radial grid of  885 points,  6 beta functions with:
                l(1) =   0
                l(2) =   0
                l(3) =   1
                l(4) =   1
                l(5) =   2
                l(6) =   2
     Q(r) pseudized with  6 coefficients,  rinner =    1.200   1.200   1.200
                                                       1.200   1.200

     atomic species   valence    mass     pseudopotential
        Ba            10.00   137.32700     Ba( 1.00)
        Ca            10.00    40.07800     Ca( 1.00)
        Cu            11.00    63.54600     Cu( 1.00)
        O              6.00    15.99900     O ( 1.00)
        Y             11.00    88.90584     Y ( 1.00)

      4 Sym. Ops. (no inversion) found ( 2 have fractional translation)

   Cartesian axes

     site n.     atom                  positions (alat units)
         1           O   tau(   1) = (  -0.0008343   0.2387265  -0.0222443  )
         2           O   tau(   2) = (   0.5008340   0.2387265  -0.0222443  )
         3           Cu  tau(   3) = (   0.5017257   0.0000000   0.0109608  )
         4           Cu  tau(   4) = (  -0.0017260   0.0000000   0.0109608  )
         5           O   tau(   5) = (  -0.0028933   0.0000000   0.2506504  )
         6           O   tau(   6) = (   0.5028929   0.0000000   0.2506504  )
         7           Ba  tau(   7) = (   0.7499995   0.2387265   0.2749435  )
         8           Ba  tau(   8) = (   0.2499998   0.2387265   0.2755214  )
         9           Cu  tau(   9) = (   0.4980963   0.0000000   0.5208446  )
        10           Cu  tau(  10) = (   0.0019033   0.0000000   0.5208446  )
        11           O   tau(  11) = (   0.2499998   0.0000000   0.5341884  )
        12           O   tau(  12) = (   0.5083351   0.2387265   0.5569851  )
        13           O   tau(  13) = (  -0.0083354   0.2387265   0.5569851  )
        14           O   tau(  14) = (   0.7499995   0.0000000   0.5573831  )
        15           Ca  tau(  15) = (   0.2499998   0.2387265   0.7436937  )
        16           Y   tau(  16) = (   0.7499995   0.2387265   0.7469544  )
        17           O   tau(  17) = (  -0.0063798   0.2387265   0.9248530  )
        18           O   tau(  18) = (   0.5063794   0.2387265   0.9248530  )
        19           O   tau(  19) = (   0.7499995   0.0000000   0.9338544  )
        20           O   tau(  20) = (   0.2499998   0.0000000   0.9461329  )
        21           Cu  tau(  21) = (   0.0015717   0.0000000   0.9686860  )
        22           Cu  tau(  22) = (   0.4984280   0.0000000   0.9686860  )
        23           Ba  tau(  23) = (   0.2499998   0.2387265   1.2085224  )
        24           Ba  tau(  24) = (   0.7499995   0.2387265   1.2233294  )
        25           O   tau(  25) = (   0.0063772   0.0000000   1.2547537  )
        26           O   tau(  26) = (   0.4936224   0.0000000   1.2547537  )
        27           O   tau(  27) = (   0.5384045   0.2387265   1.4952521  )
        28           O   tau(  28) = (  -0.0384049   0.2387265   1.4952521  )
        29           Cu  tau(  29) = (   0.5006120   0.0000000   1.4952546  )
        30           Cu  tau(  30) = (  -0.0006123   0.0000000   1.4952546  )
        31           O   tau(  31) = (   0.4936212   0.0000000   1.7357531  )
        32           O   tau(  32) = (   0.0063785   0.0000000   1.7357531  )
        33           Ba  tau(  33) = (   0.7499995   0.2387265   1.7671824  )
        34           Ba  tau(  34) = (   0.2499998   0.2387265   1.7819920  )
        35           Cu  tau(  35) = (   0.4984280   0.0000000   2.0537157  )
        36           Cu  tau(  36) = (   0.0015717   0.0000000   2.0537157  )
        37           O   tau(  37) = (   0.2499998   0.0000000   2.0762739  )
        38           O   tau(  38) = (   0.7499995   0.0000000   2.0885435  )
        39           O   tau(  39) = (   0.5063781   0.2387265   2.0975487  )
        40           O   tau(  40) = (  -0.0063785   0.2387265   2.0975487  )
        41           Y   tau(  41) = (   0.7499995   0.2387265   2.2754422  )
        42           Ca  tau(  42) = (   0.2499998   0.2387265   2.2787118  )
        43           O   tau(  43) = (   0.7499995   0.0000000   2.4650097  )
        44           O   tau(  44) = (  -0.0083354   0.2387265   2.4654115  )
        45           O   tau(  45) = (   0.5083351   0.2387265   2.4654115  )
        46           O   tau(  46) = (   0.2499998   0.0000000   2.4882095  )
        47           Cu  tau(  47) = (   0.0019059   0.0000000   2.5015431  )
        48           Cu  tau(  48) = (   0.4980938   0.0000000   2.5015431  )
        49           Ba  tau(  49) = (   0.2499998   0.2387265   2.7468828  )
        50           Ba  tau(  50) = (   0.7499995   0.2387265   2.7474250  )
        51           O   tau(  51) = (  -0.0028895   0.0000000   2.7717321  )
        52           O   tau(  52) = (   0.5028891   0.0000000   2.7717321  )
        53           Cu  tau(  53) = (   0.5017844   0.0000000   3.0114167  )
        54           Cu  tau(  54) = (  -0.0017847   0.0000000   3.0114167  )
        55           O   tau(  55) = (   0.5008990   0.2387265   3.0446231  )
        56           O   tau(  56) = (  -0.0008994   0.2387265   3.0446231  )

     number of k points=    25  Gaussian smearing, width (Ry)=  0.0100
                       cart. coord. in units 2pi/alat
        k(    1) = (   0.0000000   0.0000000   0.0000000), wk =   0.0312500
        k(    2) = (   0.0000000   0.2618060   0.0000000), wk =   0.0625000
        k(    3) = (   0.0000000   0.5236121   0.0000000), wk =   0.0625000
        k(    4) = (   0.0000000   0.7854181   0.0000000), wk =   0.0625000
        k(    5) = (   0.0000000  -1.0472241   0.0000000), wk =   0.0312500
        k(    6) = (   0.1250000   0.0000000   0.0000000), wk =   0.0625000
        k(    7) = (   0.1250000   0.2618060   0.0000000), wk =   0.1250000
        k(    8) = (   0.1250000   0.5236121   0.0000000), wk =   0.1250000
        k(    9) = (   0.1250000   0.7854181   0.0000000), wk =   0.1250000
        k(   10) = (   0.1250000  -1.0472241   0.0000000), wk =   0.0625000
        k(   11) = (   0.2500000   0.0000000   0.0000000), wk =   0.0625000
        k(   12) = (   0.2500000   0.2618060   0.0000000), wk =   0.1250000
        k(   13) = (   0.2500000   0.5236121   0.0000000), wk =   0.1250000
        k(   14) = (   0.2500000   0.7854181   0.0000000), wk =   0.1250000
        k(   15) = (   0.2500000  -1.0472241   0.0000000), wk =   0.0625000
        k(   16) = (   0.3750000   0.0000000   0.0000000), wk =   0.0625000
        k(   17) = (   0.3750000   0.2618060   0.0000000), wk =   0.1250000
        k(   18) = (   0.3750000   0.5236121   0.0000000), wk =   0.1250000
        k(   19) = (   0.3750000   0.7854181   0.0000000), wk =   0.1250000
        k(   20) = (   0.3750000  -1.0472241   0.0000000), wk =   0.0625000
        k(   21) = (  -0.5000000   0.0000000   0.0000000), wk =   0.0312500
        k(   22) = (  -0.5000000   0.2618060   0.0000000), wk =   0.0625000
        k(   23) = (  -0.5000000   0.5236121   0.0000000), wk =   0.0625000
        k(   24) = (  -0.5000000   0.7854181   0.0000000), wk =   0.0625000
        k(   25) = (  -0.5000000  -1.0472241   0.0000000), wk =   0.0312500

     Initial potential from superposition of free atoms

     starting charge  455.69457, renormalised to  456.00000

     negative rho (up, down):  9.326E-02 0.000E+00
     Starting wfcs are  396 randomized atomic wfcs

     Self-consistent Calculation

     iteration #  1     ecut=    60.00 Ry     beta= 0.50
     Davidson diagonalization with overlap
     ethr =  1.00E-02,  avg # of iterations =  2.0

     negative rho (up, down):  8.611E-02 0.000E+00

     total energy              =   -3708.52852287 Ry
     Harris-Foulkes estimate   =   -3716.44338507 Ry
     estimated scf accuracy    <      29.32267602 Ry

[...]

     iteration # 12     ecut=    60.00 Ry     beta= 0.50
     Davidson diagonalization with overlap
     c_bands:  2 eigenvalues not converged
     ethr =  1.24E-05,  avg # of iterations =  6.8

[...]

     iteration # 22     ecut=    60.00 Ry     beta= 0.50
     Davidson diagonalization with overlap
     c_bands:  1 eigenvalues not converged
     ethr =  5.78E-08,  avg # of iterations =  7.4

[...]

     total energy              =   -3711.76815940 Ry
     Harris-Foulkes estimate   =   -3711.76815942 Ry
     estimated scf accuracy    <       0.00000002 Ry

     iteration # 33     ecut=    60.00 Ry     beta= 0.50
     Davidson diagonalization with overlap
     ethr =  5.27E-12,  avg # of iterations =  2.1

[...]

     End of self-consistent calculation

          k = 0.0000 0.0000 0.0000 ( 68823 PWs)   bands (ev):

   -37.9606 -37.8881 -35.5871 -35.4981 -22.7579 -22.7527 -22.6856 -22.6295
   -22.6246 -22.5105 -22.4659 -22.3131 -18.4360 -18.3505 -18.3318 -18.2635
   -17.9637 -17.8951 -16.9353 -16.8328 -16.8002 -16.7176 -16.6167 -16.5323
   -15.3483 -15.2785 -14.9215 -14.9050 -14.7816 -14.6234 -14.5910 -14.5427
   -14.4916 -14.4389 -14.4149 -14.3948 -14.3702 -14.3271 -14.2422 -14.1398
   -14.0393 -14.0029 -13.9375 -13.9357 -13.9252 -13.9200 -13.9190 -13.8234
   -13.8205 -13.7777 -13.6759 -13.4899 -13.4414 -13.3085  -8.0250  -7.9956
    -7.9895  -7.8873  -7.8815  -7.8481  -7.8074  -7.8028  -7.7011  -7.6692
    -7.6643  -7.6386  -7.6171  -7.5729  -7.5683  -7.5081  -7.4748  -7.4312
    -7.4263  -7.4222  -7.3416  -7.2907  -7.2652  -7.1180  -2.9242  -2.9134
    -2.7443  -2.6332  -2.1148  -2.1124  -2.0282  -2.0274  -1.9787  -1.9346
    -1.8707  -1.8512  -1.8055  -1.7725  -1.7672  -1.7329  -1.6994  -1.6894
    -1.6016  -1.5646  -1.5612  -1.4682  -1.4657  -1.4385  -1.3550  -1.3034
    -1.2666  -1.2135  -1.0777  -1.0425  -1.0048  -0.9442  -0.9142  -0.8645
    -0.8634  -0.8633  -0.8619  -0.8474  -0.8112  -0.7977  -0.7477  -0.7147
    -0.7069  -0.6361  -0.6356  -0.6288  -0.6212  -0.5445  -0.4996  -0.4629
    -0.4330  -0.2623  -0.2296  -0.1970  -0.1964  -0.1756  -0.1151  -0.0917
    -0.0776  -0.0768  -0.0767  -0.0732  -0.0728  -0.0724   0.0699   0.0934
     0.1060   0.1154   0.1157   0.1185   0.1301   0.1705   0.2039   0.2356
     0.2369   0.2382   0.2438   0.2529   0.2536   0.3300   0.3312   0.3691
     0.3704   0.3942   0.4619   0.4712   0.4742   0.4755   0.4878   0.5530
     0.5887   0.5899   0.6159   0.6424   0.6437   0.6617   0.6635   0.7330
     0.8286   0.8338   0.8808   0.9308   1.0032   1.0104   1.0859   1.1010
     1.1044   1.1592   1.1661   1.2049   1.2317   1.2586   1.3259   1.3261
     1.3297   1.3470   1.3509   1.3715   1.3772   1.4614   1.4757   1.4958
     1.5149   1.5268   1.5526   1.6397   1.6428   1.6592   1.7102   1.7585
     1.8073   1.8267   1.8272   1.8515   1.8765   1.8960   1.9018   1.9051
     1.9575   1.9591   2.0493   2.1022   2.1330   2.1740   2.1856   2.2457
     2.2929   2.3602   2.3683   2.3838   2.4401   2.4708   2.5389   2.6058
     2.6806   2.6910   2.6967   2.8002   2.9709   3.0010   5.3285   5.3457
     5.7153   6.0771   6.3255   6.6031   6.7481   6.7713   7.0213   7.3887
     7.3935   7.4816   7.4820   7.5543   7.7457   7.8805   8.1620   8.2212
     8.2658   8.3276   8.3311   8.3903   8.5930   8.6214   8.6698   8.7211
     8.7507   8.9297   8.9456   9.0977   9.1621   9.2186   9.3106   9.3572
     9.4967   9.5195

[...]

          k = 0.3750-1.0472 0.0000 ( 68774 PWs)   bands (ev):

[...]

          k =-0.5000 0.0000 0.0000 ( 68956 PWs)   bands (ev):

[...]

          k =-0.5000-1.0472 0.0000 ( 68772 PWs)   bands (ev):

   -37.9421 -37.8697 -35.5755 -35.4865 -22.5549 -22.5493 -22.5254 -22.5248
   -22.5209 -22.3932 -22.2846 -22.1975 -18.6042 -18.5352 -18.2616 -18.1937
   -18.1410 -18.0546 -17.0080 -16.9223 -16.8317 -16.7490 -16.7273 -16.6243
   -14.6649 -14.6333 -14.6027 -14.5942 -14.4391 -14.3805 -14.3645 -14.3260
   -14.3197 -14.2965 -14.2470 -14.1778 -14.1699 -14.1495 -14.1420 -14.1157
   -14.0410 -14.0407 -14.0169 -13.9674 -13.8555 -13.8508 -13.8126 -13.8118
   -13.8113 -13.8105 -13.7745 -13.7341 -13.5802 -13.5800  -8.3402  -8.3349
    -8.2895  -8.2850  -8.2109  -8.1686  -8.0476  -8.0151  -8.0100  -7.9917
    -7.9873  -7.9518  -7.9444  -7.9174  -7.9120  -7.9101  -7.9064  -7.9047
    -7.8308  -7.7869  -7.6912  -7.6333  -7.5319  -7.4961  -3.7207  -3.6841
    -3.5007  -3.4731  -3.3101  -3.2517  -3.2098  -3.1329  -3.1138  -3.0533
    -2.9387  -2.9385  -2.9383  -2.9377  -2.2799  -2.2758  -2.1693  -2.1625
    -2.0729  -2.0233  -2.0212  -1.9779  -1.9723  -1.9464  -1.9312  -1.9161
    -1.8950  -1.8468  -1.8365  -1.8220  -1.7805  -1.7571  -1.7339  -1.6838
    -1.6518  -1.5870  -1.4210  -1.3792  -1.3759  -1.3167  -1.2724  -1.2417
    -1.0674  -1.0528  -1.0443  -1.0271  -0.9388  -0.9344  -0.7177  -0.7103
    -0.7070  -0.7028  -0.6904  -0.6773  -0.6576  -0.6416  -0.6321  -0.6140
    -0.5981  -0.5946  -0.5790  -0.5448  -0.4333  -0.4254  -0.3645  -0.3507
    -0.3199  -0.3127  -0.2390  -0.2191  -0.2085  -0.1639   0.2322   0.2381
     0.3664   0.3787   0.4323   0.4325   0.5976   0.6182   0.6274   0.6633
     0.6776   0.7432   0.8114   0.9218   0.9247   0.9889   1.1138   1.1592
     1.1783   1.2039   1.2048   1.2408   1.2847   1.2862   1.2956   1.3244
     1.3271   1.3302   1.4143   1.4372   1.4473   1.4512   1.4723   1.4995
     1.5031   1.5329   1.5643   1.5680   1.5726   1.5961   1.6059   1.6543
     1.7078   1.7091   1.7207   1.8284   1.8485   1.8773   1.9207   1.9661
     1.9754   1.9855   1.9914   2.0293   2.0490   2.0739   2.1010   2.1057
     2.1453   2.1472   2.2123   2.2225   2.2354   2.2582   2.3099   2.3108
     2.3112   2.3166   2.3592   2.6497   2.6580   2.6591   2.6672   2.6680
     2.8270   2.8331   2.8405   2.8501   3.6036   3.6289   3.6904   3.7214
     3.7899   3.8451   3.8708   3.9159   4.2272   4.3353   6.2082   6.8351
     6.8430   6.8447   6.8764   6.9013   7.0757   7.1380   7.6980   7.7406
     8.1733   8.3655   8.4771   8.5644   8.7832   9.0511   9.2157   9.2446
     9.2955   9.4002   9.5131   9.5214   9.5427   9.5593   9.5886   9.6294
     9.6719   9.6726   9.8478   9.9170   9.9221   9.9427   9.9429  10.0228
    10.0343  10.0466

     the Fermi energy is     2.8391 ev

!    total energy              =   -3711.76815937 Ry
     Harris-Foulkes estimate   =   -3711.76815940 Ry
     estimated scf accuracy    <          6.9E-09 Ry

     The total energy is the sum of the following terms:

     one-electron contribution =  -63975.33524111 Ry
     hartree contribution      =   32296.14944598 Ry
     xc contribution           =   -1264.09068548 Ry
     ewald contribution        =   29231.52122298 Ry
     smearing contrib. (-TS)   =      -0.01290173 Ry

     convergence has been achieved in  33 iterations

     negative rho (up, down):  9.204E-02 0.000E+00

     Forces acting on atoms (cartesian axes, Ry/au):

     atom    1 type  4   force =    -0.00000307    0.00000000   -0.00008679
     atom    2 type  4   force =     0.00000307    0.00000000   -0.00008679
     atom    3 type  3   force =    -0.00001980    0.00000000   -0.00012241
     atom    4 type  3   force =     0.00001980    0.00000000   -0.00012241
     atom    5 type  4   force =    -0.00000182    0.00000000   -0.00005565
     atom    6 type  4   force =     0.00000182    0.00000000   -0.00005565
     atom    7 type  1   force =     0.00000000    0.00000000   -0.00005862
     atom    8 type  1   force =     0.00000000    0.00000000   -0.00005562
     atom    9 type  3   force =     0.00001494    0.00000000   -0.00000770
     atom   10 type  3   force =    -0.00001494    0.00000000   -0.00000770
     atom   11 type  4   force =     0.00000000    0.00000000   -0.00000048
     atom   12 type  4   force =    -0.00001026    0.00000000   -0.00008418
     atom   13 type  4   force =     0.00001026    0.00000000   -0.00008418
     atom   14 type  4   force =     0.00000000    0.00000000   -0.00002530
     atom   15 type  2   force =     0.00000000    0.00000000   -0.00006774
     atom   16 type  5   force =     0.00000000    0.00000000   -0.00008254
     atom   17 type  4   force =     0.00001150    0.00000000    0.00000086
     atom   18 type  4   force =    -0.00001150    0.00000000    0.00000086
     atom   19 type  4   force =     0.00000000    0.00000000    0.00003365
     atom   20 type  4   force =     0.00000000    0.00000000    0.00009826
     atom   21 type  3   force =    -0.00004180    0.00000000   -0.00011710
     atom   22 type  3   force =     0.00004180    0.00000000   -0.00011710
     atom   23 type  1   force =     0.00000000    0.00000000   -0.00046713
     atom   24 type  1   force =     0.00000000    0.00000000   -0.00063649
     atom   25 type  4   force =    -0.00010688    0.00000000    0.00111933
     atom   26 type  4   force =     0.00010688    0.00000000    0.00111933
     atom   27 type  4   force =     0.00050857    0.00000000    0.00253679
     atom   28 type  4   force =    -0.00050857    0.00000000    0.00253679
     atom   29 type  3   force =    -0.00000172    0.00000000   -0.00040680
     atom   30 type  3   force =     0.00000172    0.00000000   -0.00040680
     atom   31 type  4   force =    -0.00200668    0.00000000    0.00382309
     atom   32 type  4   force =     0.00200668    0.00000000    0.00382309
     atom   33 type  1   force =     0.00000000    0.00000000    0.01114100
     atom   34 type  1   force =     0.00000000    0.00000000    0.01832067
     atom   35 type  3   force =    -0.00186827    0.00000000   -0.00090324
     atom   36 type  3   force =     0.00186827    0.00000000   -0.00090324
     atom   37 type  4   force =     0.00000000    0.00000000   -0.00949188
     atom   38 type  4   force =     0.00000000    0.00000000   -0.00367206
     atom   39 type  4   force =     0.00060313    0.00000000   -0.00449939
     atom   40 type  4   force =    -0.00060313    0.00000000   -0.00449939
     atom   41 type  5   force =     0.00000000    0.00000000   -0.01239516
     atom   42 type  2   force =     0.00000000    0.00000000   -0.01035581
     atom   43 type  4   force =     0.00000000    0.00000000    0.00132367
     atom   44 type  4   force =     0.00005910    0.00000000    0.00084263
     atom   45 type  4   force =    -0.00005910    0.00000000    0.00084263
     atom   46 type  4   force =     0.00000000    0.00000000    0.00118123
     atom   47 type  3   force =     0.00022208    0.00000000    0.00036588
     atom   48 type  3   force =    -0.00022208    0.00000000    0.00036588
     atom   49 type  1   force =     0.00000000    0.00000000   -0.00024053
     atom   50 type  1   force =     0.00000000    0.00000000   -0.00025234
     atom   51 type  4   force =     0.00001967    0.00000000    0.00031119
     atom   52 type  4   force =    -0.00001967    0.00000000    0.00031119
     atom   53 type  3   force =    -0.00002868    0.00000000   -0.00007329
     atom   54 type  3   force =     0.00002868    0.00000000   -0.00007329
     atom   55 type  4   force =    -0.00000259    0.00000000    0.00020839
     atom   56 type  4   force =     0.00000259    0.00000000    0.00020839

     Total force =     0.030557     Total SCF correction =     0.000241

     Computing stress (Cartesian axis) and pressure

     negative rho (up, down):  9.204E-02 0.000E+00
          total   stress  (Ry/bohr**3)                   (kbar)     P=       -3.10
  -0.00001995   0.00000000   0.00000000           -2.93        0.00        0.00
   0.00000000  -0.00001657   0.00000000            0.00       -2.44        0.00
   0.00000000   0.00000000  -0.00002675            0.00        0.00       -3.94

     General routines

     Parallel routines

   This run was terminated on:  14:55:17  25May2021

   JOB DONE.
[1621968918.121066] [holy7c04303:130025:0]          mpool.c:43   UCX  WARN  object 0x2fe8ac0 was not returned to mpool ucp_requests
[1621968918.128906] [holy7c04203:83519:0]          mpool.c:43   UCX  WARN  object 0x2bd5c00 was not returned to mpool ucp_requests
[1621968918.129074] [holy7c04210:221491:0]          mpool.c:43   UCX  WARN  object 0x2cd65c0 was not returned to mpool ucp_requests
[1621968918.131868] [holy7c04202:19978:0]          mpool.c:43   UCX  WARN  object 0x3863980 was not returned to mpool ucp_requests
[1621968918.131893] [holy7c04202:19978:0]          mpool.c:43   UCX  WARN  object 0x3863d00 was not returned to mpool ucp_requests
[1621968918.131008] [holy7c04110:215258:0]          mpool.c:43   UCX  WARN  object 0x2cc8900 was not returned to mpool ucp_requests
[1621968918.132817] [holy7c04208:90886:0]          mpool.c:43   UCX  WARN  object 0x2d87cc0 was not returned to mpool ucp_requests
[1621968918.132836] [holy7c04208:90886:0]          mpool.c:43   UCX  WARN  object 0x2d87e80 was not returned to mpool ucp_requests
[1621968918.135741] [holy7c04207:99273:0]          mpool.c:43   UCX  WARN  object 0x2d69a40 was not returned to mpool ucp_requests
[1621968918.136925] [holy7c04306:221944:0]          mpool.c:43   UCX  WARN  object 0x2c34d00 was not returned to mpool ucp_requests
[1621968918.132907] [holy7c04111:96403:0]          mpool.c:43   UCX  WARN  object 0x288ab00 was not returned to mpool ucp_requests
[1621968918.132922] [holy7c04111:96403:0]          mpool.c:43   UCX  WARN  object 0x288acc0 was not returned to mpool ucp_requests
[1621968918.154258] [holy7c04205:224174:0]          mpool.c:43   UCX  WARN  object 0x3f722c0 was not returned to mpool ucp_requests
[1621968918.154287] [holy7c04205:224174:0]          mpool.c:43   UCX  WARN  object 0x3f72640 was not returned to mpool ucp_requests
[1621968918.133365] [holy7c04304:261149:0]          mpool.c:43   UCX  WARN  object 0x346f740 was not returned to mpool ucp_requests
[1621968918.133390] [holy7c04304:261149:0]          mpool.c:43   UCX  WARN  object 0x346f900 was not returned to mpool ucp_requests
[1621968918.136378] [holy7c04207:99272:0]          mpool.c:43   UCX  WARN  object 0x44ee8c0 was not returned to mpool ucp_requests
[1621968918.137509] [holy7c04306:221943:0]          mpool.c:43   UCX  WARN  object 0x2e44180 was not returned to mpool ucp_requests
[1621968918.132310] [holy7c04108:201776:0]          mpool.c:43   UCX  WARN  object 0x2952c80 was not returned to mpool ucp_requests