     Program PWSCF v.6.5 starts on 27May2021 at 23:38:46

     R & G space division:  proc/nbgrp/npool/nimage =      32
     Reading input from YCBCO50_212_CuO_cleave_1.0_sep.pwi
Warning: card &IONS ignored
Warning: card     ION_DYNAMICS = 'BFGS' ignored
Warning: card / ignored
Warning: card &CELL ignored
Warning: card     CELL_DYNAMICS = 'BFGS' ignored
Warning: card     PRESS_CONV_THR = 5 ignored
Warning: card / ignored

     Current dimensions of program PWSCF are:
     Max number of different atomic species (ntypx) = 10
     Max number of k-points (npk) =  40000
     Max angular momentum in pseudopotentials (lmaxx) =  3

     Message from routine setup:
     using ibrav=0 with symmetry is DISCOURAGED, use correct ibrav instead

     bravais-lattice index     =            0
     lattice parameter (alat)  =      14.8133  a.u.
     unit-cell volume          =    8915.2456 (a.u.)^3
     number of atoms/cell      =           56
     number of atomic types    =            5
     number of electrons       =       456.00
     number of Kohn-Sham states=          274
     kinetic-energy cutoff     =      60.0000  Ry
     charge density cutoff     =     720.0000  Ry
     convergence threshold     =      1.0E-08
     mixing beta               =       0.5000
     number of iterations used =           10  local-TF  mixing
     Exchange-correlation= SLA PW PBE PBE
                           (   1   4   3   4   0   0   0)

     celldm(1)=  14.813271  celldm(2)=   0.000000  celldm(3)=   0.000000
     celldm(4)=   0.000000  celldm(5)=   0.000000  celldm(6)=   0.000000

     crystal axes: (cart. coord. in units of alat)
               a(1) = (   1.000000   0.000000   0.000000 )
               a(2) = (   0.000000   0.477453   0.000000 )
               a(3) = (   0.000000   0.000000   5.744471 )

     reciprocal axes: (cart. coord. in units 2 pi/alat)
               b(1) = (  1.000000  0.000000  0.000000 )
               b(2) = (  0.000000  2.094448  0.000000 )
               b(3) = (  0.000000  0.000000  0.174080 )

     PseudoPot. # 1 for Ba read from file:
     ./pseudo/Ba.pbe-nsp-van.UPF
     MD5 check sum: 2b9c31dd849566dd297d80989662b7a0
     Pseudo is Ultrasoft + core correction, Zval = 10.0
     Generated by new atomic code, or converted to UPF format
     Using radial grid of  907 points,  6 beta functions with:
                l(1) =   0
                l(2) =   0
                l(3) =   1
                l(4) =   1
                l(5) =   2
                l(6) =   2
     Q(r) pseudized with  6 coefficients,  rinner =    1.200   1.200   1.200
                                                       1.200   1.200

     PseudoPot. # 2 for Ca read from file:
     ./pseudo/Ca.pbe-nsp-van.UPF
     MD5 check sum: 6471098428ff4fa451746d08035ff179
     Pseudo is Ultrasoft + core correction, Zval = 10.0
     Generated by new atomic code, or converted to UPF format
     Using radial grid of  845 points,  6 beta functions with:
                l(1) =   0
                l(2) =   0
                l(3) =   1
                l(4) =   1
                l(5) =   2
                l(6) =   2
     Q(r) pseudized with  6 coefficients,  rinner =    1.200   1.200   1.200
                                                       1.200   1.200

     PseudoPot. # 3 for Cu read from file:
     ./pseudo/Cu.pbe-n-van_ak.UPF
     MD5 check sum: 34e3282627ffb533726feb647e090d62
     Pseudo is Ultrasoft + core correction, Zval = 11.0
     Generated by new atomic code, or converted to UPF format
     Using radial grid of  867 points,  6 beta functions with:
                l(1) =   0
                l(2) =   0
                l(3) =   1
                l(4) =   1
                l(5) =   2
                l(6) =   2
     Q(r) pseudized with  8 coefficients,  rinner =    1.400   1.400   1.400
                                                       1.400   1.400

     PseudoPot. # 4 for O  read from file:
     ./pseudo/O.pbe-van_ak.UPF
     MD5 check sum: 783ce7fe4c79b6a4916957118fed0856
     Pseudo is Ultrasoft, Zval =  6.0
     Generated by new atomic code, or converted to UPF format
     Using radial grid of  737 points,  4 beta functions with:
                l(1) =   0
                l(2) =   0
                l(3) =   1
                l(4) =   1
     Q(r) pseudized with  8 coefficients,  rinner =    0.800   0.800   0.800

     PseudoPot. # 5 for Y  read from file:
     ./pseudo/Y.pbe-nsp-van.UPF
     MD5 check sum: 4412fed3ab108fed87a1b7d6a69a4a38
     Pseudo is Ultrasoft + core correction, Zval = 11.0
     Generated by new atomic code, or converted to UPF format
     Using radial grid of  885 points,  6 beta functions with:
                l(1) =   0
                l(2) =   0
                l(3) =   1
                l(4) =   1
                l(5) =   2
                l(6) =   2
     Q(r) pseudized with  6 coefficients,  rinner =    1.200   1.200   1.200
                                                       1.200   1.200

     atomic species   valence    mass     pseudopotential
        Ba            10.00   137.32700     Ba( 1.00)
        Ca            10.00    40.07800     Ca( 1.00)
        Cu            11.00    63.54600     Cu( 1.00)
        O              6.00    15.99900     O ( 1.00)
        Y             11.00    88.90584     Y ( 1.00)

      4 Sym. Ops. (no inversion) found ( 2 have fractional translation)

   Cartesian axes

     site n.     atom                  positions (alat units)
         1           O   tau(   1) = (  -0.0008343   0.2387265  -0.0222443  )
         2           O   tau(   2) = (   0.5008340   0.2387265  -0.0222443  )
         3           Cu  tau(   3) = (   0.5017257   0.0000000   0.0109608  )
         4           Cu  tau(   4) = (  -0.0017260   0.0000000   0.0109608  )
         5           O   tau(   5) = (  -0.0028933   0.0000000   0.2506504  )
         6           O   tau(   6) = (   0.5028929   0.0000000   0.2506504  )
         7           Ba  tau(   7) = (   0.7499995   0.2387265   0.2749435  )
         8           Ba  tau(   8) = (   0.2499998   0.2387265   0.2755214  )
         9           Cu  tau(   9) = (   0.4980963   0.0000000   0.5208446  )
        10           Cu  tau(  10) = (   0.0019033   0.0000000   0.5208446  )
        11           O   tau(  11) = (   0.2499998   0.0000000   0.5341884  )
        12           O   tau(  12) = (   0.5083351   0.2387265   0.5569851  )
        13           O   tau(  13) = (  -0.0083354   0.2387265   0.5569851  )
        14           O   tau(  14) = (   0.7499995   0.0000000   0.5573831  )
        15           Ca  tau(  15) = (   0.2499998   0.2387265   0.7436937  )
        16           Y   tau(  16) = (   0.7499995   0.2387265   0.7469544  )
        17           O   tau(  17) = (  -0.0063798   0.2387265   0.9248530  )
        18           O   tau(  18) = (   0.5063794   0.2387265   0.9248530  )
        19           O   tau(  19) = (   0.7499995   0.0000000   0.9338544  )
        20           O   tau(  20) = (   0.2499998   0.0000000   0.9461329  )
        21           Cu  tau(  21) = (   0.0015717   0.0000000   0.9686860  )
        22           Cu  tau(  22) = (   0.4984280   0.0000000   0.9686860  )
        23           Ba  tau(  23) = (   0.2499998   0.2387265   1.2085224  )
        24           Ba  tau(  24) = (   0.7499995   0.2387265   1.2233294  )
        25           O   tau(  25) = (   0.0063772   0.0000000   1.2547537  )
        26           O   tau(  26) = (   0.4936224   0.0000000   1.2547537  )
        27           O   tau(  27) = (   0.5384045   0.2387265   1.4952521  )
        28           O   tau(  28) = (  -0.0384049   0.2387265   1.4952521  )
        29           Cu  tau(  29) = (   0.5006120   0.0000000   1.4952546  )
        30           Cu  tau(  30) = (  -0.0006123   0.0000000   1.4952546  )
        31           O   tau(  31) = (   0.4936212   0.0000000   1.8633229  )
        32           O   tau(  32) = (   0.0063785   0.0000000   1.8633229  )
        33           Ba  tau(  33) = (   0.7499995   0.2387265   1.8947522  )
        34           Ba  tau(  34) = (   0.2499998   0.2387265   1.9095618  )
        35           Cu  tau(  35) = (   0.4984280   0.0000000   2.1493930  )
        36           Cu  tau(  36) = (   0.0015717   0.0000000   2.1493930  )
        37           O   tau(  37) = (   0.2499998   0.0000000   2.1719512  )
        38           O   tau(  38) = (   0.7499995   0.0000000   2.1842209  )
        39           O   tau(  39) = (   0.5063781   0.2387265   2.1932260  )
        40           O   tau(  40) = (  -0.0063785   0.2387265   2.1932260  )
        41           Y   tau(  41) = (   0.7499995   0.2387265   2.3711196  )
        42           Ca  tau(  42) = (   0.2499998   0.2387265   2.3743892  )
        43           O   tau(  43) = (   0.7499995   0.0000000   2.5606870  )
        44           O   tau(  44) = (  -0.0083354   0.2387265   2.5610889  )
        45           O   tau(  45) = (   0.5083351   0.2387265   2.5610889  )
        46           O   tau(  46) = (   0.2499998   0.0000000   2.5838869  )
        47           Cu  tau(  47) = (   0.0019059   0.0000000   2.5972205  )
        48           Cu  tau(  48) = (   0.4980938   0.0000000   2.5972205  )
        49           Ba  tau(  49) = (   0.2499998   0.2387265   2.8425602  )
        50           Ba  tau(  50) = (   0.7499995   0.2387265   2.8431023  )
        51           O   tau(  51) = (  -0.0028895   0.0000000   2.8674095  )
        52           O   tau(  52) = (   0.5028891   0.0000000   2.8674095  )
        53           Cu  tau(  53) = (   0.5017844   0.0000000   3.1070940  )
        54           Cu  tau(  54) = (  -0.0017847   0.0000000   3.1070940  )
        55           O   tau(  55) = (   0.5008990   0.2387265   3.1403004  )
        56           O   tau(  56) = (  -0.0008994   0.2387265   3.1403004  )

     number of k points=    25  Gaussian smearing, width (Ry)=  0.0100
                       cart. coord. in units 2pi/alat
        k(    1) = (   0.0000000   0.0000000   0.0000000), wk =   0.0312500
        k(    2) = (   0.0000000   0.2618060   0.0000000), wk =   0.0625000
        k(    3) = (   0.0000000   0.5236121   0.0000000), wk =   0.0625000
        k(    4) = (   0.0000000   0.7854181   0.0000000), wk =   0.0625000
        k(    5) = (   0.0000000  -1.0472241   0.0000000), wk =   0.0312500
        k(    6) = (   0.1250000   0.0000000   0.0000000), wk =   0.0625000
        k(    7) = (   0.1250000   0.2618060   0.0000000), wk =   0.1250000
        k(    8) = (   0.1250000   0.5236121   0.0000000), wk =   0.1250000
        k(    9) = (   0.1250000   0.7854181   0.0000000), wk =   0.1250000
        k(   10) = (   0.1250000  -1.0472241   0.0000000), wk =   0.0625000
        k(   11) = (   0.2500000   0.0000000   0.0000000), wk =   0.0625000
        k(   12) = (   0.2500000   0.2618060   0.0000000), wk =   0.1250000
        k(   13) = (   0.2500000   0.5236121   0.0000000), wk =   0.1250000
        k(   14) = (   0.2500000   0.7854181   0.0000000), wk =   0.1250000
        k(   15) = (   0.2500000  -1.0472241   0.0000000), wk =   0.0625000
        k(   16) = (   0.3750000   0.0000000   0.0000000), wk =   0.0625000
        k(   17) = (   0.3750000   0.2618060   0.0000000), wk =   0.1250000
        k(   18) = (   0.3750000   0.5236121   0.0000000), wk =   0.1250000
        k(   19) = (   0.3750000   0.7854181   0.0000000), wk =   0.1250000
        k(   20) = (   0.3750000  -1.0472241   0.0000000), wk =   0.0625000
        k(   21) = (  -0.5000000   0.0000000   0.0000000), wk =   0.0312500
        k(   22) = (  -0.5000000   0.2618060   0.0000000), wk =   0.0625000
        k(   23) = (  -0.5000000   0.5236121   0.0000000), wk =   0.0625000
        k(   24) = (  -0.5000000   0.7854181   0.0000000), wk =   0.0625000
        k(   25) = (  -0.5000000  -1.0472241   0.0000000), wk =   0.0312500

     Initial potential from superposition of free atoms

     starting charge  455.69457, renormalised to  456.00000

     negative rho (up, down):  9.328E-02 0.000E+00
     Starting wfcs are  396 randomized atomic wfcs

     Self-consistent Calculation

     iteration #  1     ecut=    60.00 Ry     beta= 0.50
     Davidson diagonalization with overlap
     ethr =  1.00E-02,  avg # of iterations =  2.0

     negative rho (up, down):  8.606E-02 0.000E+00

     total energy              =   -3708.28634996 Ry
     Harris-Foulkes estimate   =   -3716.37164215 Ry
     estimated scf accuracy    <      30.54531465 Ry

[...]

     iteration # 16     ecut=    60.00 Ry     beta= 0.50
     Davidson diagonalization with overlap
     c_bands:  1 eigenvalues not converged
     ethr =  2.12E-06,  avg # of iterations = 11.0

[...]

     iteration # 24     ecut=    60.00 Ry     beta= 0.50
     Davidson diagonalization with overlap
     c_bands:  1 eigenvalues not converged
     ethr =  8.26E-09,  avg # of iterations =  6.5

[...]

     total energy              =   -3711.59976253 Ry
     Harris-Foulkes estimate   =   -3711.59976250 Ry
     estimated scf accuracy    <       0.00000002 Ry

     iteration # 32     ecut=    60.00 Ry     beta= 0.50
     Davidson diagonalization with overlap
     ethr =  4.47E-12,  avg # of iterations =  2.0

[...]

     End of self-consistent calculation

          k = 0.0000 0.0000 0.0000 ( 70025 PWs)   bands (ev):

   -38.1472 -38.1033 -35.7784 -35.7254 -22.9066 -22.8987 -22.7782 -22.7704
   -22.7179 -22.6964 -22.5303 -22.3063 -18.6207 -18.5830 -18.5198 -18.4766
   -18.1508 -18.1066 -17.1249 -17.0733 -16.9914 -16.9418 -16.8091 -16.7538
   -15.5267 -15.4957 -15.0762 -15.0625 -14.8300 -14.7493 -14.6750 -14.6586
   -14.6422 -14.5977 -14.5541 -14.5444 -14.5355 -14.4659 -14.3885 -14.3852
   -14.2126 -14.1832 -14.0997 -14.0826 -14.0752 -14.0722 -14.0679 -14.0595
   -14.0128 -13.9521 -13.8275 -13.7548 -13.0455 -12.6000  -8.1451  -8.1374
    -8.0366  -8.0285  -8.0152  -7.9557  -7.9483  -7.9421  -7.8176  -7.8105
    -7.8100  -7.7212  -7.7138  -7.7031  -7.6092  -7.6024  -7.5801  -7.5797
    -7.5720  -7.5227  -7.4764  -7.3484  -7.1642  -7.0559  -3.0806  -3.0653
    -2.9487  -2.8747  -2.2605  -2.2560  -2.1723  -2.1689  -2.1573  -2.1324
    -2.0072  -1.9644  -1.9614  -1.9339  -1.9175  -1.8723  -1.8453  -1.7978
    -1.7900  -1.7648  -1.7492  -1.7089  -1.6432  -1.6026  -1.4525  -1.4310
    -1.2490  -1.2161  -1.1953  -1.1887  -1.1191  -1.0593  -1.0075  -1.0072
    -1.0059  -1.0010  -0.9991  -0.9973  -0.9668  -0.9653  -0.8915  -0.8338
    -0.7812  -0.7761  -0.5188  -0.4788  -0.4287  -0.3648  -0.3426  -0.3370
    -0.3273  -0.3270  -0.3058  -0.2839  -0.2743  -0.2523  -0.2360  -0.2227
    -0.2179  -0.2177  -0.2168  -0.1679  -0.1401  -0.1215  -0.0564  -0.0482
    -0.0406  -0.0299  -0.0235  -0.0218   0.0298   0.0500   0.0735   0.0769
     0.0810   0.0900   0.0909   0.0924   0.1876   0.1932   0.2270   0.2325
     0.2411   0.2634   0.2868   0.3196   0.3241   0.3347   0.3935   0.4307
     0.4700   0.4972   0.4993   0.5190   0.5250   0.5276   0.5355   0.5940
     0.7058   0.7235   0.7702   0.8608   0.8764   0.9088   0.9531   0.9614
     0.9870   1.0047   1.0087   1.0482   1.1436   1.1601   1.1809   1.1822
     1.1866   1.1919   1.1986   1.2108   1.2853   1.3042   1.3072   1.3394
     1.3493   1.3695   1.3791   1.3970   1.4255   1.4369   1.5341   1.5699
     1.5941   1.6221   1.6820   1.6868   1.7367   1.7549   1.7603   1.7710
     1.8173   1.8407   1.8410   1.8470   1.9131   2.0258   2.0344   2.1508
     2.2019   2.2045   2.3458   2.3622   2.3846   2.4054   2.4302   2.5055
     2.5497   2.5739   2.6050   2.6187   2.8358   2.8669   5.1354   5.2024
     5.2919   5.8960   6.0205   6.5790   6.5998   6.7251   6.9032   7.0841
     7.2432   7.2538   7.3378   7.3431   7.5185   7.5850   7.6361   7.9860
     8.0277   8.0762   8.1178   8.1298   8.2374   8.4347   8.4669   8.4997
     8.5610   8.6248   8.7584   8.9179   9.0131   9.0653   9.1539   9.2027
     9.3497   9.3561

[...]

          k = 0.3750-1.0472 0.0000 ( 69970 PWs)   bands (ev):

[...]

          k =-0.5000 0.0000 0.0000 ( 70044 PWs)   bands (ev):

[...]

          k =-0.5000-1.0472 0.0000 ( 69948 PWs)   bands (ev):

   -38.1287 -38.0849 -35.7668 -35.7138 -22.7038 -22.6956 -22.6739 -22.6664
   -22.5794 -22.5150 -22.4116 -22.1649 -18.7906 -18.7481 -18.4496 -18.4061
   -18.3263 -18.2875 -17.2002 -17.1451 -17.0229 -16.9740 -16.9172 -16.8662
   -14.8280 -14.8072 -14.7527 -14.7423 -14.6054 -14.5795 -14.5377 -14.5140
   -14.4844 -14.4776 -14.4675 -14.3700 -14.3505 -14.3489 -14.3293 -14.3163
   -14.2516 -14.2446 -14.0796 -14.0772 -14.0565 -14.0364 -13.9682 -13.9567
   -13.9560 -13.9486 -13.9477 -13.9214 -12.8718 -12.8571  -8.4887  -8.4810
    -8.4378  -8.4304  -8.2862  -8.2085  -8.1904  -8.1637  -8.1559  -8.1401
    -8.1327  -8.0620  -8.0593  -8.0541  -8.0511  -7.9774  -7.9708  -7.9434
    -7.8810  -7.7818  -7.7229  -7.6942  -7.6363  -7.5838  -3.8934  -3.8640
    -3.6665  -3.6398  -3.4981  -3.4443  -3.3930  -3.3179  -3.0831  -3.0822
    -3.0762  -3.0753  -3.0303  -2.9755  -2.4284  -2.4217  -2.3219  -2.3128
    -2.2430  -2.1977  -2.1860  -2.1591  -2.1581  -2.1446  -2.0756  -2.0641
    -2.0521  -2.0257  -1.9926  -1.9782  -1.9059  -1.8354  -1.8197  -1.7796
    -1.7783  -1.7521  -1.5583  -1.5239  -1.4391  -1.4011  -1.2210  -1.2065
    -1.1953  -1.1938  -1.1696  -1.1464  -0.9788  -0.9464  -0.9040  -0.8763
    -0.8763  -0.8557  -0.8005  -0.7834  -0.7658  -0.7658  -0.7564  -0.7467
    -0.6523  -0.6403  -0.6333  -0.5825  -0.5562  -0.4829  -0.3997  -0.3923
    -0.3880  -0.3705  -0.2986  -0.2710  -0.1907  -0.1779   0.1585   0.1929
     0.3351   0.3416   0.4246   0.4343   0.4633   0.4851   0.4991   0.5061
     0.5224   0.5474   0.6541   0.7415   0.7693   0.9465   0.9829   1.0202
     1.0407   1.0580   1.0705   1.1003   1.1175   1.1387   1.1546   1.1828
     1.2000   1.2082   1.2630   1.2836   1.3120   1.3194   1.3301   1.3582
     1.3847   1.4114   1.4338   1.4377   1.4412   1.4852   1.4922   1.5241
     1.5638   1.5717   1.5779   1.7265   1.7670   1.7733   1.8310   1.8389
     1.8546   1.8758   1.9484   1.9646   1.9730   1.9996   2.0044   2.0181
     2.0271   2.0449   2.1117   2.1135   2.1660   2.1672   2.1747   2.1765
     2.2358   2.3144   2.4694   2.4786   2.5143   2.5205   2.5232   2.5298
     2.6770   2.6842   2.6992   2.7179   3.1533   3.2501   3.4489   3.4730
     3.5119   3.5336   3.6038   3.6304   3.7136   3.7316   6.2051   6.6965
     6.7028   6.7213   6.7525   6.9135   6.9772   7.1926   7.5326   7.5850
     8.1544   8.1801   8.2305   8.2617   8.6172   8.9881   9.0476   9.1088
     9.1669   9.2371   9.3602   9.3631   9.3930   9.3984   9.4029   9.4182
     9.4345   9.6265   9.6453   9.7279   9.7282   9.7747   9.7807   9.8081
     9.8135   9.8677

     the Fermi energy is     2.6949 ev

!    total energy              =   -3711.59976252 Ry
     Harris-Foulkes estimate   =   -3711.59976253 Ry
     estimated scf accuracy    <          5.7E-09 Ry

     The total energy is the sum of the following terms:

     one-electron contribution =  -60680.63838146 Ry
     hartree contribution      =   30646.58419746 Ry
     xc contribution           =   -1263.82980872 Ry
     ewald contribution        =   27586.30127539 Ry
     smearing contrib. (-TS)   =      -0.01704519 Ry

     convergence has been achieved in  32 iterations

     negative rho (up, down):  9.198E-02 0.000E+00

     Forces acting on atoms (cartesian axes, Ry/au):

     atom    1 type  4   force =    -0.00000608    0.00000000   -0.00027800
     atom    2 type  4   force =     0.00000608    0.00000000   -0.00027800
     atom    3 type  3   force =    -0.00001740    0.00000000   -0.00001299
     atom    4 type  3   force =     0.00001740    0.00000000   -0.00001299
     atom    5 type  4   force =    -0.00000910    0.00000000    0.00002200
     atom    6 type  4   force =     0.00000910    0.00000000    0.00002200
     atom    7 type  1   force =     0.00000000    0.00000000   -0.00030463
     atom    8 type  1   force =     0.00000000    0.00000000   -0.00027204
     atom    9 type  3   force =     0.00011390    0.00000000   -0.00020785
     atom   10 type  3   force =    -0.00011390    0.00000000   -0.00020785
     atom   11 type  4   force =     0.00000000    0.00000000    0.00077673
     atom   12 type  4   force =     0.00000887    0.00000000    0.00085327
     atom   13 type  4   force =    -0.00000887    0.00000000    0.00085327
     atom   14 type  4   force =     0.00000000    0.00000000    0.00101405
     atom   15 type  2   force =     0.00000000    0.00000000   -0.00217362
     atom   16 type  5   force =     0.00000000    0.00000000   -0.00328486
     atom   17 type  4   force =     0.00063940    0.00000000    0.00368155
     atom   18 type  4   force =    -0.00063940    0.00000000    0.00368155
     atom   19 type  4   force =     0.00000000    0.00000000    0.00271288
     atom   20 type  4   force =     0.00000000    0.00000000    0.00336402
     atom   21 type  3   force =     0.00041784    0.00000000   -0.00085311
     atom   22 type  3   force =    -0.00041784    0.00000000   -0.00085311
     atom   23 type  1   force =     0.00000000    0.00000000    0.00718240
     atom   24 type  1   force =     0.00000000    0.00000000    0.01305591
     atom   25 type  4   force =     0.00215007    0.00000000   -0.01165634
     atom   26 type  4   force =    -0.00215007    0.00000000   -0.01165634
     atom   27 type  4   force =    -0.00584455    0.00000000    0.02420061
     atom   28 type  4   force =     0.00584455    0.00000000    0.02420061
     atom   29 type  3   force =     0.00698942    0.00000000    0.00735974
     atom   30 type  3   force =    -0.00698942    0.00000000    0.00735974
     atom   31 type  4   force =     0.01094798    0.00000000   -0.00025630
     atom   32 type  4   force =    -0.01094798    0.00000000   -0.00025630
     atom   33 type  1   force =     0.00000000    0.00000000   -0.02222082
     atom   34 type  1   force =     0.00000000    0.00000000   -0.02013005
     atom   35 type  3   force =    -0.00295722    0.00000000   -0.01700868
     atom   36 type  3   force =     0.00295722    0.00000000   -0.01700868
     atom   37 type  4   force =     0.00000000    0.00000000    0.00452673
     atom   38 type  4   force =     0.00000000    0.00000000    0.00135014
     atom   39 type  4   force =     0.00247386    0.00000000    0.00090033
     atom   40 type  4   force =    -0.00247386    0.00000000    0.00090033
     atom   41 type  5   force =     0.00000000    0.00000000    0.00161021
     atom   42 type  2   force =     0.00000000    0.00000000    0.00002696
     atom   43 type  4   force =     0.00000000    0.00000000    0.00005494
     atom   44 type  4   force =     0.00002233    0.00000000   -0.00075961
     atom   45 type  4   force =    -0.00002233    0.00000000   -0.00075961
     atom   46 type  4   force =     0.00000000    0.00000000   -0.00000097
     atom   47 type  3   force =     0.00001256    0.00000000    0.00021579
     atom   48 type  3   force =    -0.00001256    0.00000000    0.00021579
     atom   49 type  1   force =     0.00000000    0.00000000    0.00014735
     atom   50 type  1   force =     0.00000000    0.00000000    0.00019140
     atom   51 type  4   force =    -0.00004208    0.00000000   -0.00046391
     atom   52 type  4   force =     0.00004208    0.00000000   -0.00046391
     atom   53 type  3   force =    -0.00004367    0.00000000    0.00067840
     atom   54 type  3   force =     0.00004367    0.00000000    0.00067840
     atom   55 type  4   force =     0.00001997    0.00000000   -0.00022826
     atom   56 type  4   force =    -0.00001997    0.00000000   -0.00022826

     Total force =     0.061584     Total SCF correction =     0.000331

     Computing stress (Cartesian axis) and pressure

     negative rho (up, down):  9.198E-02 0.000E+00
          total   stress  (Ry/bohr**3)                   (kbar)     P=       -6.49
  -0.00000164   0.00000000   0.00000000           -0.24        0.00        0.00
   0.00000000  -0.00006774   0.00000000            0.00       -9.96        0.00
   0.00000000   0.00000000  -0.00006290            0.00        0.00       -9.25

     General routines

     Parallel routines

   This run was terminated on:   0:16:40  28May2021

   JOB DONE.
[1622175400.396356] [holy7c16604:59461:0]          mpool.c:43   UCX  WARN  object 0x35f8940 was not returned to mpool ucp_requests
[1622175400.396373] [holy7c16604:59461:0]          mpool.c:43   UCX  WARN  object 0x35f9040 was not returned to mpool ucp_requests
[1622175400.394527] [holy7c16610:222736:0]          mpool.c:43   UCX  WARN  object 0x3f36240 was not returned to mpool ucp_requests
[1622175400.395707] [holy7c16503:47637:0]          mpool.c:43   UCX  WARN  object 0x2ae0600 was not returned to mpool ucp_requests
[1622175400.398569] [holy7c16304:219299:0]          mpool.c:43   UCX  WARN  object 0x33e5800 was not returned to mpool ucp_requests
[1622175400.399399] [holy7c12407:22017:0]          mpool.c:43   UCX  WARN  object 0x3001f40 was not returned to mpool ucp_requests
[1622175400.400324] [holy7c16511:89314:0]          mpool.c:43   UCX  WARN  object 0x3d50a40 was not returned to mpool ucp_requests
[1622175400.402570] [holy7c16511:89315:0]          mpool.c:43   UCX  WARN  object 0x44fadc0 was not returned to mpool ucp_requests
[1622175400.401163] [holy7c12407:22018:0]          mpool.c:43   UCX  WARN  object 0x2a7d180 was not returned to mpool ucp_requests
[1622175400.401186] [holy7c12407:22018:0]          mpool.c:43   UCX  WARN  object 0x2a7d500 was not returned to mpool ucp_requests
[1622175400.403951] [holy7c10510:177331:0]          mpool.c:43   UCX  WARN  object 0x392b440 was not returned to mpool ucp_requests
[1622175400.403977] [holy7c10510:177331:0]          mpool.c:43   UCX  WARN  object 0x392b7c0 was not returned to mpool ucp_requests
[1622175400.406461] [holy7c16504:122750:0]          mpool.c:43   UCX  WARN  object 0x44c3800 was not returned to mpool ucp_requests
[1622175400.406488] [holy7c16504:122750:0]          mpool.c:43   UCX  WARN  object 0x44c39c0 was not returned to mpool ucp_requests
[1622175400.404202] [holy7c16611:220268:0]          mpool.c:43   UCX  WARN  object 0x4701400 was not returned to mpool ucp_requests
[1622175400.417352] [holy7c06410:78476:0]          mpool.c:43   UCX  WARN  object 0x433d240 was not returned to mpool ucp_requests
[1622175400.418552] [holy7c06410:78477:0]          mpool.c:43   UCX  WARN  object 0x469d3c0 was not returned to mpool ucp_requests
[1622175400.418577] [holy7c06410:78477:0]          mpool.c:43   UCX  WARN  object 0x469d580 was not returned to mpool ucp_requests
[1622175400.417904] [holy7c06410:78475:0]          mpool.c:43   UCX  WARN  object 0x3014b80 was not returned to mpool ucp_requests