     Program PWSCF v.6.5 starts on 25May2021 at 16:37:41

     R & G space division:  proc/nbgrp/npool/nimage =      32
     Reading input from YCBCO50_212_BaO_cleave_3.0_sep.pwi
Warning: card &IONS ignored
Warning: card     ION_DYNAMICS = 'BFGS' ignored
Warning: card / ignored
Warning: card &CELL ignored
Warning: card     CELL_DYNAMICS = 'BFGS' ignored
Warning: card     PRESS_CONV_THR = 5 ignored
Warning: card / ignored

     Current dimensions of program PWSCF are:
     Max number of different atomic species (ntypx) = 10
     Max number of k-points (npk) =  40000
     Max angular momentum in pseudopotentials (lmaxx) =  3

     Message from routine setup:
     using ibrav=0 with symmetry is DISCOURAGED, use correct ibrav instead

     bravais-lattice index     =            0
     lattice parameter (alat)  =      14.8133  a.u.
     unit-cell volume          =    9311.2145 (a.u.)^3
     number of atoms/cell      =           56
     number of atomic types    =            5
     number of electrons       =       456.00
     number of Kohn-Sham states=          274
     kinetic-energy cutoff     =      60.0000  Ry
     charge density cutoff     =     720.0000  Ry
     convergence threshold     =      1.0E-08
     mixing beta               =       0.5000
     number of iterations used =           10  local-TF  mixing
     Exchange-correlation= SLA PW PBE PBE
                           (   1   4   3   4   0   0   0)

     celldm(1)=  14.813271  celldm(2)=   0.000000  celldm(3)=   0.000000
     celldm(4)=   0.000000  celldm(5)=   0.000000  celldm(6)=   0.000000

     crystal axes: (cart. coord. in units of alat)
               a(1) = (   1.000000   0.000000   0.000000 )
               a(2) = (   0.000000   0.477453   0.000000 )
               a(3) = (   0.000000   0.000000   5.999610 )

     reciprocal axes: (cart. coord. in units 2 pi/alat)
               b(1) = (  1.000000  0.000000  0.000000 )
               b(2) = (  0.000000  2.094448  0.000000 )
               b(3) = (  0.000000  0.000000  0.166677 )

     PseudoPot. # 1 for Ba read from file:
     ./pseudo/Ba.pbe-nsp-van.UPF
     MD5 check sum: 2b9c31dd849566dd297d80989662b7a0
     Pseudo is Ultrasoft + core correction, Zval = 10.0
     Generated by new atomic code, or converted to UPF format
     Using radial grid of  907 points,  6 beta functions with:
                l(1) =   0
                l(2) =   0
                l(3) =   1
                l(4) =   1
                l(5) =   2
                l(6) =   2
     Q(r) pseudized with  6 coefficients,  rinner =    1.200   1.200   1.200
                                                       1.200   1.200

     PseudoPot. # 2 for Ca read from file:
     ./pseudo/Ca.pbe-nsp-van.UPF
     MD5 check sum: 6471098428ff4fa451746d08035ff179
     Pseudo is Ultrasoft + core correction, Zval = 10.0
     Generated by new atomic code, or converted to UPF format
     Using radial grid of  845 points,  6 beta functions with:
                l(1) =   0
                l(2) =   0
                l(3) =   1
                l(4) =   1
                l(5) =   2
                l(6) =   2
     Q(r) pseudized with  6 coefficients,  rinner =    1.200   1.200   1.200
                                                       1.200   1.200

     PseudoPot. # 3 for Cu read from file:
     ./pseudo/Cu.pbe-n-van_ak.UPF
     MD5 check sum: 34e3282627ffb533726feb647e090d62
     Pseudo is Ultrasoft + core correction, Zval = 11.0
     Generated by new atomic code, or converted to UPF format
     Using radial grid of  867 points,  6 beta functions with:
                l(1) =   0
                l(2) =   0
                l(3) =   1
                l(4) =   1
                l(5) =   2
                l(6) =   2
     Q(r) pseudized with  8 coefficients,  rinner =    1.400   1.400   1.400
                                                       1.400   1.400

     PseudoPot. # 4 for O  read from file:
     ./pseudo/O.pbe-van_ak.UPF
     MD5 check sum: 783ce7fe4c79b6a4916957118fed0856
     Pseudo is Ultrasoft, Zval =  6.0
     Generated by new atomic code, or converted to UPF format
     Using radial grid of  737 points,  4 beta functions with:
                l(1) =   0
                l(2) =   0
                l(3) =   1
                l(4) =   1
     Q(r) pseudized with  8 coefficients,  rinner =    0.800   0.800   0.800

     PseudoPot. # 5 for Y  read from file:
     ./pseudo/Y.pbe-nsp-van.UPF
     MD5 check sum: 4412fed3ab108fed87a1b7d6a69a4a38
     Pseudo is Ultrasoft + core correction, Zval = 11.0
     Generated by new atomic code, or converted to UPF format
     Using radial grid of  885 points,  6 beta functions with:
                l(1) =   0
                l(2) =   0
                l(3) =   1
                l(4) =   1
                l(5) =   2
                l(6) =   2
     Q(r) pseudized with  6 coefficients,  rinner =    1.200   1.200   1.200
                                                       1.200   1.200

     atomic species   valence    mass     pseudopotential
        Ba            10.00   137.32700     Ba( 1.00)
        Ca            10.00    40.07800     Ca( 1.00)
        Cu            11.00    63.54600     Cu( 1.00)
        O              6.00    15.99900     O ( 1.00)
        Y             11.00    88.90584     Y ( 1.00)

      4 Sym. Ops. (no inversion) found ( 2 have fractional translation)

   Cartesian axes

     site n.     atom                  positions (alat units)
         1           O   tau(   1) = (  -0.0008343   0.2387265  -0.0222443  )
         2           O   tau(   2) = (   0.5008340   0.2387265  -0.0222443  )
         3           Cu  tau(   3) = (   0.5017257   0.0000000   0.0109608  )
         4           Cu  tau(   4) = (  -0.0017260   0.0000000   0.0109608  )
         5           O   tau(   5) = (  -0.0028933   0.0000000   0.2506504  )
         6           O   tau(   6) = (   0.5028929   0.0000000   0.2506504  )
         7           Ba  tau(   7) = (   0.7499995   0.2387265   0.2749435  )
         8           Ba  tau(   8) = (   0.2499998   0.2387265   0.2755214  )
         9           Cu  tau(   9) = (   0.4980963   0.0000000   0.5208446  )
        10           Cu  tau(  10) = (   0.0019033   0.0000000   0.5208446  )
        11           O   tau(  11) = (   0.2499998   0.0000000   0.5341884  )
        12           O   tau(  12) = (   0.5083351   0.2387265   0.5569851  )
        13           O   tau(  13) = (  -0.0083354   0.2387265   0.5569851  )
        14           O   tau(  14) = (   0.7499995   0.0000000   0.5573831  )
        15           Ca  tau(  15) = (   0.2499998   0.2387265   0.7436937  )
        16           Y   tau(  16) = (   0.7499995   0.2387265   0.7469544  )
        17           O   tau(  17) = (  -0.0063798   0.2387265   0.9248530  )
        18           O   tau(  18) = (   0.5063794   0.2387265   0.9248530  )
        19           O   tau(  19) = (   0.7499995   0.0000000   0.9338544  )
        20           O   tau(  20) = (   0.2499998   0.0000000   0.9461329  )
        21           Cu  tau(  21) = (   0.0015717   0.0000000   0.9686860  )
        22           Cu  tau(  22) = (   0.4984280   0.0000000   0.9686860  )
        23           Ba  tau(  23) = (   0.2499998   0.2387265   1.2085224  )
        24           Ba  tau(  24) = (   0.7499995   0.2387265   1.2233294  )
        25           O   tau(  25) = (   0.0063772   0.0000000   1.2547537  )
        26           O   tau(  26) = (   0.4936224   0.0000000   1.2547537  )
        27           O   tau(  27) = (   0.5384045   0.2387265   1.4952521  )
        28           O   tau(  28) = (  -0.0384049   0.2387265   1.4952521  )
        29           Cu  tau(  29) = (   0.5006120   0.0000000   1.4952546  )
        30           Cu  tau(  30) = (  -0.0006123   0.0000000   1.4952546  )
        31           O   tau(  31) = (   0.4936212   0.0000000   1.7357531  )
        32           O   tau(  32) = (   0.0063785   0.0000000   1.7357531  )
        33           Ba  tau(  33) = (   0.7499995   0.2387265   1.7671824  )
        34           Ba  tau(  34) = (   0.2499998   0.2387265   1.7819920  )
        35           Cu  tau(  35) = (   0.4984280   0.0000000   2.4045327  )
        36           Cu  tau(  36) = (   0.0015717   0.0000000   2.4045327  )
        37           O   tau(  37) = (   0.2499998   0.0000000   2.4270908  )
        38           O   tau(  38) = (   0.7499995   0.0000000   2.4393605  )
        39           O   tau(  39) = (   0.5063781   0.2387265   2.4483656  )
        40           O   tau(  40) = (  -0.0063785   0.2387265   2.4483656  )
        41           Y   tau(  41) = (   0.7499995   0.2387265   2.6262592  )
        42           Ca  tau(  42) = (   0.2499998   0.2387265   2.6295288  )
        43           O   tau(  43) = (   0.7499995   0.0000000   2.8158266  )
        44           O   tau(  44) = (  -0.0083354   0.2387265   2.8162285  )
        45           O   tau(  45) = (   0.5083351   0.2387265   2.8162285  )
        46           O   tau(  46) = (   0.2499998   0.0000000   2.8390265  )
        47           Cu  tau(  47) = (   0.0019059   0.0000000   2.8523601  )
        48           Cu  tau(  48) = (   0.4980938   0.0000000   2.8523601  )
        49           Ba  tau(  49) = (   0.2499998   0.2387265   3.0976998  )
        50           Ba  tau(  50) = (   0.7499995   0.2387265   3.0982420  )
        51           O   tau(  51) = (  -0.0028895   0.0000000   3.1225491  )
        52           O   tau(  52) = (   0.5028891   0.0000000   3.1225491  )
        53           Cu  tau(  53) = (   0.5017844   0.0000000   3.3622336  )
        54           Cu  tau(  54) = (  -0.0017847   0.0000000   3.3622336  )
        55           O   tau(  55) = (   0.5008990   0.2387265   3.3954401  )
        56           O   tau(  56) = (  -0.0008994   0.2387265   3.3954401  )

     number of k points=    25  Gaussian smearing, width (Ry)=  0.0100
                       cart. coord. in units 2pi/alat
        k(    1) = (   0.0000000   0.0000000   0.0000000), wk =   0.0312500
        k(    2) = (   0.0000000   0.2618060   0.0000000), wk =   0.0625000
        k(    3) = (   0.0000000   0.5236121   0.0000000), wk =   0.0625000
        k(    4) = (   0.0000000   0.7854181   0.0000000), wk =   0.0625000
        k(    5) = (   0.0000000  -1.0472241   0.0000000), wk =   0.0312500
        k(    6) = (   0.1250000   0.0000000   0.0000000), wk =   0.0625000
        k(    7) = (   0.1250000   0.2618060   0.0000000), wk =   0.1250000
        k(    8) = (   0.1250000   0.5236121   0.0000000), wk =   0.1250000
        k(    9) = (   0.1250000   0.7854181   0.0000000), wk =   0.1250000
        k(   10) = (   0.1250000  -1.0472241   0.0000000), wk =   0.0625000
        k(   11) = (   0.2500000   0.0000000   0.0000000), wk =   0.0625000
        k(   12) = (   0.2500000   0.2618060   0.0000000), wk =   0.1250000
        k(   13) = (   0.2500000   0.5236121   0.0000000), wk =   0.1250000
        k(   14) = (   0.2500000   0.7854181   0.0000000), wk =   0.1250000
        k(   15) = (   0.2500000  -1.0472241   0.0000000), wk =   0.0625000
        k(   16) = (   0.3750000   0.0000000   0.0000000), wk =   0.0625000
        k(   17) = (   0.3750000   0.2618060   0.0000000), wk =   0.1250000
        k(   18) = (   0.3750000   0.5236121   0.0000000), wk =   0.1250000
        k(   19) = (   0.3750000   0.7854181   0.0000000), wk =   0.1250000
        k(   20) = (   0.3750000  -1.0472241   0.0000000), wk =   0.0625000
        k(   21) = (  -0.5000000   0.0000000   0.0000000), wk =   0.0312500
        k(   22) = (  -0.5000000   0.2618060   0.0000000), wk =   0.0625000
        k(   23) = (  -0.5000000   0.5236121   0.0000000), wk =   0.0625000
        k(   24) = (  -0.5000000   0.7854181   0.0000000), wk =   0.0625000
        k(   25) = (  -0.5000000  -1.0472241   0.0000000), wk =   0.0312500

     Initial potential from superposition of free atoms

     starting charge  455.69457, renormalised to  456.00000

     negative rho (up, down):  9.316E-02 0.000E+00
     Starting wfcs are  396 randomized atomic wfcs

     Self-consistent Calculation

     iteration #  1     ecut=    60.00 Ry     beta= 0.50
     Davidson diagonalization with overlap
     ethr =  1.00E-02,  avg # of iterations =  2.0

     negative rho (up, down):  8.617E-02 0.000E+00

     total energy              =   -3708.27299968 Ry
     Harris-Foulkes estimate   =   -3716.60189148 Ry
     estimated scf accuracy    <      34.01572007 Ry

[...]

     iteration # 11     ecut=    60.00 Ry     beta= 0.50
     Davidson diagonalization with overlap
     c_bands:  1 eigenvalues not converged
     c_bands:  1 eigenvalues not converged
     ethr =  4.11E-05,  avg # of iterations =  9.4

[...]

     iteration # 14     ecut=    60.00 Ry     beta= 0.50
     Davidson diagonalization with overlap
     c_bands:  2 eigenvalues not converged
     ethr =  8.03E-06,  avg # of iterations =  4.3

[...]

     total energy              =   -3711.60355312 Ry
     Harris-Foulkes estimate   =   -3711.60355311 Ry
     estimated scf accuracy    <       0.00000003 Ry

     iteration # 35     ecut=    60.00 Ry     beta= 0.50
     Davidson diagonalization with overlap
     ethr =  5.61E-12,  avg # of iterations =  1.1

[...]

     End of self-consistent calculation

          k = 0.0000 0.0000 0.0000 ( 73127 PWs)   bands (ev):

   -38.2950 -37.9680 -35.9239 -35.5585 -24.6945 -24.2689 -23.0715 -23.0462
   -22.9432 -22.9405 -22.9185 -22.7933 -18.7700 -18.6655 -18.4148 -18.3612
   -18.2982 -17.9794 -17.2717 -17.1361 -16.9537 -16.8790 -16.7954 -16.5990
   -15.6795 -15.4598 -15.4284 -15.2861 -15.2339 -15.1891 -14.9314 -14.8247
   -14.7708 -14.7490 -14.7205 -14.7093 -14.6263 -14.5438 -14.4988 -14.3751
   -14.3660 -14.2640 -14.2572 -14.2545 -14.2490 -14.2368 -14.2099 -14.2006
   -14.1602 -14.1350 -14.1317 -13.9524 -13.7759 -13.5412 -10.0708  -9.5609
    -9.4398  -9.4129  -9.0646  -9.0355  -8.3101  -8.2793  -8.2240  -8.1971
    -8.1748  -8.1288  -8.1209  -8.0980  -7.9828  -7.9581  -7.9370  -7.8863
    -7.8634  -7.8154  -7.7547  -7.7448  -7.7201  -7.5941  -3.2421  -3.1955
    -3.0876  -2.6569  -2.4273  -2.4143  -2.3605  -2.3387  -2.3329  -2.3240
    -2.3055  -2.1774  -2.1482  -2.1037  -2.0716  -2.0009  -1.9569  -1.9267
    -1.8981  -1.8947  -1.8762  -1.8012  -1.7974  -1.7585  -1.6681  -1.5919
    -1.5336  -1.4508  -1.4053  -1.3817  -1.3669  -1.3651  -1.3538  -1.2641
    -1.1747  -1.1743  -1.1742  -1.1727  -1.1659  -1.1311  -1.1301  -1.0367
    -1.0261  -1.0091  -0.9600  -0.9478  -0.9437  -0.9415  -0.9056  -0.7687
    -0.7441  -0.7349  -0.6134  -0.5084  -0.5028  -0.4907  -0.4514  -0.4506
    -0.3893  -0.3853  -0.3823  -0.3793  -0.3657  -0.3225  -0.2820  -0.2541
    -0.2490  -0.2121  -0.1959  -0.1861  -0.1781  -0.1711  -0.1050  -0.0875
    -0.0799  -0.0770  -0.0744  -0.0660  -0.0333  -0.0123   0.0193   0.0205
     0.0580   0.0598   0.0800   0.1061   0.1064   0.1426   0.1610   0.1976
     0.1978   0.2691   0.3302   0.3384   0.3521   0.3529   0.3668   0.4078
     0.4422   0.5085   0.5370   0.5639   0.6132   0.7857   0.8021   0.8159
     0.8280   0.8303   0.8393   0.8540   0.8898   0.9086   0.9246   0.9677
     0.9761   0.9813   1.0196   1.0260   1.0297   1.0444   1.0949   1.1154
     1.1426   1.1728   1.1945   1.2022   1.2270   1.2509   1.3229   1.3492
     1.3859   1.4450   1.4978   1.5155   1.5208   1.5292   1.5602   1.5890
     1.6044   1.6175   1.7109   1.7193   1.7631   1.7888   1.8588   1.8748
     1.9333   1.9855   2.0394   2.0517   2.0997   2.1237   2.1822   2.2806
     2.3647   2.3792   2.3834   2.4637   2.6617   2.6811   4.1189   4.8778
     5.0268   5.0600   5.4694   5.7242   5.8845   5.9882   6.2323   6.4205
     6.4743   6.5545   7.0377   7.0824   7.0948   7.1708   7.1727   7.2411
     7.3612   7.5073   7.7299   7.8640   7.9018   7.9328   8.0886   8.0929
     8.1847   8.2135   8.2704   8.2926   8.2991   8.3421   8.4481   8.5198
     8.5595   8.7678

[...]

          k = 0.3750-1.0472 0.0000 ( 73070 PWs)   bands (ev):

[...]

          k =-0.5000 0.0000 0.0000 ( 73132 PWs)   bands (ev):

[...]

          k =-0.5000-1.0472 0.0000 ( 73020 PWs)   bands (ev):

   -38.2765 -37.9495 -35.9123 -35.5468 -24.5609 -24.1469 -22.8686 -22.8417
   -22.8390 -22.8158 -22.7563 -22.6802 -18.9383 -18.6221 -18.5954 -18.4752
   -18.2905 -18.1165 -17.3449 -17.1674 -17.0637 -16.9927 -16.8280 -16.6665
   -14.9878 -14.9176 -14.9004 -14.8867 -14.8141 -14.7656 -14.7588 -14.6872
   -14.6834 -14.6405 -14.6026 -14.5877 -14.5717 -14.5593 -14.5569 -14.5083
   -14.4921 -14.3821 -14.3741 -14.3313 -14.1722 -14.1432 -14.1226 -14.1220
   -14.1218 -14.1212 -14.0230 -14.0082 -13.7924 -13.6086 -10.0624  -9.9407
    -9.8580  -9.7705  -9.4067  -9.3437  -8.6538  -8.6276  -8.6032  -8.5799
    -8.5298  -8.4238  -8.3287  -8.3053  -8.3040  -8.2828  -8.2460  -8.2269
    -8.2227  -8.1982  -8.1974  -8.1926  -8.0417  -8.0345  -4.0456  -3.9311
    -3.8369  -3.7582  -3.7427  -3.7113  -3.6124  -3.5022  -3.2677  -3.2505
    -3.2495  -3.2488  -3.2373  -3.1057  -2.5939  -2.5717  -2.4849  -2.4737
    -2.4570  -2.4046  -2.3667  -2.2959  -2.2590  -2.2344  -2.2315  -2.2130
    -2.1884  -2.1822  -2.1738  -2.1294  -2.1216  -2.0983  -1.9400  -1.9288
    -1.9085  -1.8889  -1.7198  -1.6643  -1.6531  -1.6251  -1.5623  -1.5100
    -1.4865  -1.4719  -1.3647  -1.3389  -1.3353  -1.3178  -1.2623  -1.1474
    -1.0625  -1.0434  -1.0335  -0.9599  -0.9552  -0.9525  -0.9414  -0.9284
    -0.9180  -0.9141  -0.7947  -0.7743  -0.7480  -0.7419  -0.7195  -0.6721
    -0.5805  -0.5742  -0.5546  -0.5276  -0.2957  -0.2838  -0.2756  -0.2385
     0.0088   0.0571   0.0638   0.0684   0.2541   0.2672   0.2889   0.3021
     0.3425   0.3570   0.3583   0.5321   0.5501   0.5882   0.5930   0.6027
     0.6581   0.7097   0.8373   0.8984   0.9202   0.9593   0.9597   0.9768
     1.0101   1.0251   1.0453   1.1044   1.1603   1.1608   1.1611   1.1870
     1.2322   1.2418   1.2478   1.2616   1.2650   1.3007   1.3141   1.3306
     1.3400   1.3572   1.3860   1.4013   1.4171   1.4222   1.4320   1.4404
     1.5595   1.6241   1.6495   1.6610   1.6756   1.6910   1.6930   1.7149
     1.7328   1.8103   1.8765   1.9537   1.9586   1.9890   1.9999   2.0005
     2.0025   2.0962   2.1677   2.2106   2.3479   2.3487   2.3569   2.3585
     2.5172   2.5235   2.5318   2.5386   3.2789   3.3538   3.3660   3.4631
     3.4634   3.5356   3.6634   3.6969   3.7335   3.7447   5.1379   5.3858
     6.2621   6.3574   6.5139   6.5306   6.5427   6.5672   6.6063   6.7647
     6.8454   6.8672   7.1176   7.3860   7.3988   7.5166   8.0694   8.1650
     8.1709   8.4910   8.6870   8.9552   8.9699   9.0695   9.1480   9.1529
     9.1598   9.1969   9.2257   9.2370   9.2600   9.3189   9.4653   9.4945
     9.5439   9.5530

     the Fermi energy is     2.5287 ev

!    total energy              =   -3711.60355309 Ry
     Harris-Foulkes estimate   =   -3711.60355312 Ry
     estimated scf accuracy    <          9.4E-09 Ry

     The total energy is the sum of the following terms:

     one-electron contribution =  -54502.87620200 Ry
     hartree contribution      =   27553.31396104 Ry
     xc contribution           =   -1263.75461048 Ry
     ewald contribution        =   24501.72789619 Ry
     smearing contrib. (-TS)   =      -0.01459783 Ry

     convergence has been achieved in  35 iterations

     negative rho (up, down):  9.198E-02 0.000E+00

     Forces acting on atoms (cartesian axes, Ry/au):

     atom    1 type  4   force =    -0.00000564    0.00000000   -0.00011779
     atom    2 type  4   force =     0.00000564    0.00000000   -0.00011779
     atom    3 type  3   force =    -0.00000780    0.00000000   -0.00014799
     atom    4 type  3   force =     0.00000780    0.00000000   -0.00014799
     atom    5 type  4   force =     0.00000563    0.00000000   -0.00002855
     atom    6 type  4   force =    -0.00000563    0.00000000   -0.00002855
     atom    7 type  1   force =     0.00000000    0.00000000   -0.00020079
     atom    8 type  1   force =     0.00000000    0.00000000   -0.00019116
     atom    9 type  3   force =     0.00002576    0.00000000    0.00001121
     atom   10 type  3   force =    -0.00002576    0.00000000    0.00001121
     atom   11 type  4   force =     0.00000000    0.00000000    0.00029993
     atom   12 type  4   force =     0.00000271    0.00000000    0.00030174
     atom   13 type  4   force =    -0.00000271    0.00000000    0.00030174
     atom   14 type  4   force =     0.00000000    0.00000000    0.00045502
     atom   15 type  2   force =     0.00000000    0.00000000   -0.00113910
     atom   16 type  5   force =     0.00000000    0.00000000   -0.00171698
     atom   17 type  4   force =     0.00019020    0.00000000    0.00205962
     atom   18 type  4   force =    -0.00019020    0.00000000    0.00205962
     atom   19 type  4   force =     0.00000000    0.00000000    0.00231541
     atom   20 type  4   force =     0.00000000    0.00000000    0.00286544
     atom   21 type  3   force =    -0.00010240    0.00000000   -0.00232552
     atom   22 type  3   force =     0.00010240    0.00000000   -0.00232552
     atom   23 type  1   force =     0.00000000    0.00000000   -0.00680440
     atom   24 type  1   force =     0.00000000    0.00000000   -0.00778325
     atom   25 type  4   force =    -0.00100934    0.00000000    0.00661542
     atom   26 type  4   force =     0.00100934    0.00000000    0.00661542
     atom   27 type  4   force =    -0.00063392    0.00000000    0.01723637
     atom   28 type  4   force =     0.00063392    0.00000000    0.01723637
     atom   29 type  3   force =     0.00388203    0.00000000   -0.01814415
     atom   30 type  3   force =    -0.00388203    0.00000000   -0.01814415
     atom   31 type  4   force =    -0.01071441    0.00000000    0.03718244
     atom   32 type  4   force =     0.01071441    0.00000000    0.03718244
     atom   33 type  1   force =     0.00000000    0.00000000   -0.03704580
     atom   34 type  1   force =     0.00000000    0.00000000   -0.02449143
     atom   35 type  3   force =    -0.00961912    0.00000000   -0.00447281
     atom   36 type  3   force =     0.00961912    0.00000000   -0.00447281
     atom   37 type  4   force =     0.00000000    0.00000000    0.01291212
     atom   38 type  4   force =     0.00000000    0.00000000    0.01675865
     atom   39 type  4   force =     0.00217991    0.00000000    0.00878982
     atom   40 type  4   force =    -0.00217991    0.00000000    0.00878982
     atom   41 type  5   force =     0.00000000    0.00000000   -0.03858895
     atom   42 type  2   force =     0.00000000    0.00000000   -0.02964529
     atom   43 type  4   force =     0.00000000    0.00000000    0.00605457
     atom   44 type  4   force =     0.00049198    0.00000000    0.00300482
     atom   45 type  4   force =    -0.00049198    0.00000000    0.00300482
     atom   46 type  4   force =     0.00000000    0.00000000    0.00439543
     atom   47 type  3   force =     0.00056491    0.00000000    0.00114953
     atom   48 type  3   force =    -0.00056491    0.00000000    0.00114953
     atom   49 type  1   force =     0.00000000    0.00000000   -0.00093076
     atom   50 type  1   force =     0.00000000    0.00000000   -0.00110096
     atom   51 type  4   force =     0.00008007    0.00000000    0.00076015
     atom   52 type  4   force =    -0.00008007    0.00000000    0.00076015
     atom   53 type  3   force =    -0.00004301    0.00000000   -0.00031875
     atom   54 type  3   force =     0.00004301    0.00000000   -0.00031875
     atom   55 type  4   force =    -0.00000303    0.00000000    0.00023560
     atom   56 type  4   force =     0.00000303    0.00000000    0.00023560

     Total force =     0.098847     Total SCF correction =     0.000380

     Computing stress (Cartesian axis) and pressure

     negative rho (up, down):  9.198E-02 0.000E+00
          total   stress  (Ry/bohr**3)                   (kbar)     P=       -7.06
  -0.00008170   0.00000000   0.00000000          -12.02        0.00        0.00
   0.00000000  -0.00003674   0.00000000            0.00       -5.40        0.00
   0.00000000   0.00000000  -0.00002546            0.00        0.00       -3.75

     General routines

     Parallel routines

   This run was terminated on:  17:16:43  25May2021

   JOB DONE.
[1621977403.961483] [holy7c08607:192129:0]          mpool.c:43   UCX  WARN  object 0x3c18f00 was not returned to mpool ucp_requests
[1621977403.964171] [holy7c08609:109852:0]          mpool.c:43   UCX  WARN  object 0x45cc600 was not returned to mpool ucp_requests
[1621977403.964928] [holy7c08609:109851:0]          mpool.c:43   UCX  WARN  object 0x3f95600 was not returned to mpool ucp_requests
[1621977403.959712] [holy7c08607:192131:0]          mpool.c:43   UCX  WARN  object 0x4612380 was not returned to mpool ucp_requests
[1621977403.959731] [holy7c08607:192131:0]          mpool.c:43   UCX  WARN  object 0x4612540 was not returned to mpool ucp_requests
[1621977403.962550] [holy7c08610:227098:0]          mpool.c:43   UCX  WARN  object 0x4431c40 was not returned to mpool ucp_requests
[1621977403.962576] [holy7c08610:227098:0]          mpool.c:43   UCX  WARN  object 0x4432180 was not returned to mpool ucp_requests
[1621977403.964575] [holy7c08607:192130:0]          mpool.c:43   UCX  WARN  object 0x29586c0 was not returned to mpool ucp_requests
[1621977403.977643] [holy7c08612:141748:0]          mpool.c:43   UCX  WARN  object 0x2ff83c0 was not returned to mpool ucp_requests
[1621977403.967585] [holy7c08610:227101:0]          mpool.c:43   UCX  WARN  object 0x3f32880 was not returned to mpool ucp_requests
[1621977403.973771] [holy7c08610:227103:0]          mpool.c:43   UCX  WARN  object 0x3f9f640 was not returned to mpool ucp_requests
[1621977403.973788] [holy7c08610:227103:0]          mpool.c:43   UCX  WARN  object 0x3f9f9c0 was not returned to mpool ucp_requests
[1621977403.981252] [holy7c08612:141752:0]          mpool.c:43   UCX  WARN  object 0x2dcc000 was not returned to mpool ucp_requests
[1621977403.981319] [holy7c08612:141750:0]          mpool.c:43   UCX  WARN  object 0x37990c0 was not returned to mpool ucp_requests
[1621977403.981345] [holy7c08612:141750:0]          mpool.c:43   UCX  WARN  object 0x3799440 was not returned to mpool ucp_requests
[1621977403.981349] [holy7c08612:141750:0]          mpool.c:43   UCX  WARN  object 0x3799600 was not returned to mpool ucp_requests
[1621977403.991693] [holy7c08612:141747:0]          mpool.c:43   UCX  WARN  object 0x2e23440 was not returned to mpool ucp_requests
[1621977403.988666] [holy7c08612:141753:0]          mpool.c:43   UCX  WARN  object 0x43dc880 was not returned to mpool ucp_requests