     Program PWSCF v.6.5 starts on 28May2021 at 10: 6:36

     R & G space division:  proc/nbgrp/npool/nimage =      32
     Reading input from YCBCO50_212_Y_cleave_3.0_sep.pwi
Warning: card &IONS ignored
Warning: card     ION_DYNAMICS = 'BFGS' ignored
Warning: card / ignored
Warning: card &CELL ignored
Warning: card     CELL_DYNAMICS = 'BFGS' ignored
Warning: card     PRESS_CONV_THR = 5 ignored
Warning: card / ignored

     Current dimensions of program PWSCF are:
     Max number of different atomic species (ntypx) = 10
     Max number of k-points (npk) =  40000
     Max angular momentum in pseudopotentials (lmaxx) =  3

     Message from routine setup:
     using ibrav=0 with symmetry is DISCOURAGED, use correct ibrav instead

     bravais-lattice index     =            0
     lattice parameter (alat)  =      14.8133  a.u.
     unit-cell volume          =    9311.2145 (a.u.)^3
     number of atoms/cell      =           56
     number of atomic types    =            5
     number of electrons       =       456.00
     number of Kohn-Sham states=          274
     kinetic-energy cutoff     =      60.0000  Ry
     charge density cutoff     =     720.0000  Ry
     convergence threshold     =      1.0E-08
     mixing beta               =       0.5000
     number of iterations used =           10  local-TF  mixing
     Exchange-correlation= SLA PW PBE PBE
                           (   1   4   3   4   0   0   0)

     celldm(1)=  14.813271  celldm(2)=   0.000000  celldm(3)=   0.000000
     celldm(4)=   0.000000  celldm(5)=   0.000000  celldm(6)=   0.000000

     crystal axes: (cart. coord. in units of alat)
               a(1) = (   1.000000   0.000000   0.000000 )
               a(2) = (   0.000000   0.477453   0.000000 )
               a(3) = (   0.000000   0.000000   5.999610 )

     reciprocal axes: (cart. coord. in units 2 pi/alat)
               b(1) = (  1.000000  0.000000  0.000000 )
               b(2) = (  0.000000  2.094448  0.000000 )
               b(3) = (  0.000000  0.000000  0.166677 )

     PseudoPot. # 1 for Ba read from file:
     ./pseudo/Ba.pbe-nsp-van.UPF
     MD5 check sum: 2b9c31dd849566dd297d80989662b7a0
     Pseudo is Ultrasoft + core correction, Zval = 10.0
     Generated by new atomic code, or converted to UPF format
     Using radial grid of  907 points,  6 beta functions with:
                l(1) =   0
                l(2) =   0
                l(3) =   1
                l(4) =   1
                l(5) =   2
                l(6) =   2
     Q(r) pseudized with  6 coefficients,  rinner =    1.200   1.200   1.200
                                                       1.200   1.200

     PseudoPot. # 2 for Ca read from file:
     ./pseudo/Ca.pbe-nsp-van.UPF
     MD5 check sum: 6471098428ff4fa451746d08035ff179
     Pseudo is Ultrasoft + core correction, Zval = 10.0
     Generated by new atomic code, or converted to UPF format
     Using radial grid of  845 points,  6 beta functions with:
                l(1) =   0
                l(2) =   0
                l(3) =   1
                l(4) =   1
                l(5) =   2
                l(6) =   2
     Q(r) pseudized with  6 coefficients,  rinner =    1.200   1.200   1.200
                                                       1.200   1.200

     PseudoPot. # 3 for Cu read from file:
     ./pseudo/Cu.pbe-n-van_ak.UPF
     MD5 check sum: 34e3282627ffb533726feb647e090d62
     Pseudo is Ultrasoft + core correction, Zval = 11.0
     Generated by new atomic code, or converted to UPF format
     Using radial grid of  867 points,  6 beta functions with:
                l(1) =   0
                l(2) =   0
                l(3) =   1
                l(4) =   1
                l(5) =   2
                l(6) =   2
     Q(r) pseudized with  8 coefficients,  rinner =    1.400   1.400   1.400
                                                       1.400   1.400

     PseudoPot. # 4 for O  read from file:
     ./pseudo/O.pbe-van_ak.UPF
     MD5 check sum: 783ce7fe4c79b6a4916957118fed0856
     Pseudo is Ultrasoft, Zval =  6.0
     Generated by new atomic code, or converted to UPF format
     Using radial grid of  737 points,  4 beta functions with:
                l(1) =   0
                l(2) =   0
                l(3) =   1
                l(4) =   1
     Q(r) pseudized with  8 coefficients,  rinner =    0.800   0.800   0.800

     PseudoPot. # 5 for Y  read from file:
     ./pseudo/Y.pbe-nsp-van.UPF
     MD5 check sum: 4412fed3ab108fed87a1b7d6a69a4a38
     Pseudo is Ultrasoft + core correction, Zval = 11.0
     Generated by new atomic code, or converted to UPF format
     Using radial grid of  885 points,  6 beta functions with:
                l(1) =   0
                l(2) =   0
                l(3) =   1
                l(4) =   1
                l(5) =   2
                l(6) =   2
     Q(r) pseudized with  6 coefficients,  rinner =    1.200   1.200   1.200
                                                       1.200   1.200

     atomic species   valence    mass     pseudopotential
        Ba            10.00   137.32700     Ba( 1.00)
        Ca            10.00    40.07800     Ca( 1.00)
        Cu            11.00    63.54600     Cu( 1.00)
        O              6.00    15.99900     O ( 1.00)
        Y             11.00    88.90584     Y ( 1.00)

      4 Sym. Ops. (no inversion) found ( 2 have fractional translation)

   Cartesian axes

     site n.     atom                  positions (alat units)
         1           O   tau(   1) = (  -0.0008343   0.2387265  -0.0222443  )
         2           O   tau(   2) = (   0.5008340   0.2387265  -0.0222443  )
         3           Cu  tau(   3) = (   0.5017257   0.0000000   0.0109608  )
         4           Cu  tau(   4) = (  -0.0017260   0.0000000   0.0109608  )
         5           O   tau(   5) = (  -0.0028933   0.0000000   0.2506504  )
         6           O   tau(   6) = (   0.5028929   0.0000000   0.2506504  )
         7           Ba  tau(   7) = (   0.7499995   0.2387265   0.2749435  )
         8           Ba  tau(   8) = (   0.2499998   0.2387265   0.2755214  )
         9           Cu  tau(   9) = (   0.4980963   0.0000000   0.5208446  )
        10           Cu  tau(  10) = (   0.0019033   0.0000000   0.5208446  )
        11           O   tau(  11) = (   0.2499998   0.0000000   0.5341884  )
        12           O   tau(  12) = (   0.5083351   0.2387265   0.5569851  )
        13           O   tau(  13) = (  -0.0083354   0.2387265   0.5569851  )
        14           O   tau(  14) = (   0.7499995   0.0000000   0.5573831  )
        15           Ca  tau(  15) = (   0.2499998   0.2387265   0.7436937  )
        16           Y   tau(  16) = (   0.7499995   0.2387265   0.7469544  )
        17           O   tau(  17) = (  -0.0063798   0.2387265   0.9248530  )
        18           O   tau(  18) = (   0.5063794   0.2387265   0.9248530  )
        19           O   tau(  19) = (   0.7499995   0.0000000   0.9338544  )
        20           O   tau(  20) = (   0.2499998   0.0000000   0.9461329  )
        21           Cu  tau(  21) = (   0.0015717   0.0000000   0.9686860  )
        22           Cu  tau(  22) = (   0.4984280   0.0000000   0.9686860  )
        23           Ba  tau(  23) = (   0.2499998   0.2387265   1.2085224  )
        24           Ba  tau(  24) = (   0.7499995   0.2387265   1.2233294  )
        25           O   tau(  25) = (   0.0063772   0.0000000   1.2547537  )
        26           O   tau(  26) = (   0.4936224   0.0000000   1.2547537  )
        27           O   tau(  27) = (   0.5384045   0.2387265   1.4952521  )
        28           O   tau(  28) = (  -0.0384049   0.2387265   1.4952521  )
        29           Cu  tau(  29) = (   0.5006120   0.0000000   1.4952546  )
        30           Cu  tau(  30) = (  -0.0006123   0.0000000   1.4952546  )
        31           O   tau(  31) = (   0.4936212   0.0000000   1.7357531  )
        32           O   tau(  32) = (   0.0063785   0.0000000   1.7357531  )
        33           Ba  tau(  33) = (   0.7499995   0.2387265   1.7671824  )
        34           Ba  tau(  34) = (   0.2499998   0.2387265   1.7819920  )
        35           Cu  tau(  35) = (   0.4984280   0.0000000   2.0218232  )
        36           Cu  tau(  36) = (   0.0015717   0.0000000   2.0218232  )
        37           O   tau(  37) = (   0.2499998   0.0000000   2.0443814  )
        38           O   tau(  38) = (   0.7499995   0.0000000   2.0566511  )
        39           O   tau(  39) = (   0.5063781   0.2387265   2.0656562  )
        40           O   tau(  40) = (  -0.0063785   0.2387265   2.0656562  )
        41           Y   tau(  41) = (   0.7499995   0.2387265   2.2435498  )
        42           Ca  tau(  42) = (   0.2499998   0.2387265   2.2468194  )
        43           O   tau(  43) = (   0.7499995   0.0000000   2.8158266  )
        44           O   tau(  44) = (  -0.0083354   0.2387265   2.8162285  )
        45           O   tau(  45) = (   0.5083351   0.2387265   2.8162285  )
        46           O   tau(  46) = (   0.2499998   0.0000000   2.8390265  )
        47           Cu  tau(  47) = (   0.0019059   0.0000000   2.8523601  )
        48           Cu  tau(  48) = (   0.4980938   0.0000000   2.8523601  )
        49           Ba  tau(  49) = (   0.2499998   0.2387265   3.0976998  )
        50           Ba  tau(  50) = (   0.7499995   0.2387265   3.0982420  )
        51           O   tau(  51) = (  -0.0028895   0.0000000   3.1225491  )
        52           O   tau(  52) = (   0.5028891   0.0000000   3.1225491  )
        53           Cu  tau(  53) = (   0.5017844   0.0000000   3.3622336  )
        54           Cu  tau(  54) = (  -0.0017847   0.0000000   3.3622336  )
        55           O   tau(  55) = (   0.5008990   0.2387265   3.3954401  )
        56           O   tau(  56) = (  -0.0008994   0.2387265   3.3954401  )

     number of k points=    25  Gaussian smearing, width (Ry)=  0.0100
                       cart. coord. in units 2pi/alat
        k(    1) = (   0.0000000   0.0000000   0.0000000), wk =   0.0312500
        k(    2) = (   0.0000000   0.2618060   0.0000000), wk =   0.0625000
        k(    3) = (   0.0000000   0.5236121   0.0000000), wk =   0.0625000
        k(    4) = (   0.0000000   0.7854181   0.0000000), wk =   0.0625000
        k(    5) = (   0.0000000  -1.0472241   0.0000000), wk =   0.0312500
        k(    6) = (   0.1250000   0.0000000   0.0000000), wk =   0.0625000
        k(    7) = (   0.1250000   0.2618060   0.0000000), wk =   0.1250000
        k(    8) = (   0.1250000   0.5236121   0.0000000), wk =   0.1250000
        k(    9) = (   0.1250000   0.7854181   0.0000000), wk =   0.1250000
        k(   10) = (   0.1250000  -1.0472241   0.0000000), wk =   0.0625000
        k(   11) = (   0.2500000   0.0000000   0.0000000), wk =   0.0625000
        k(   12) = (   0.2500000   0.2618060   0.0000000), wk =   0.1250000
        k(   13) = (   0.2500000   0.5236121   0.0000000), wk =   0.1250000
        k(   14) = (   0.2500000   0.7854181   0.0000000), wk =   0.1250000
        k(   15) = (   0.2500000  -1.0472241   0.0000000), wk =   0.0625000
        k(   16) = (   0.3750000   0.0000000   0.0000000), wk =   0.0625000
        k(   17) = (   0.3750000   0.2618060   0.0000000), wk =   0.1250000
        k(   18) = (   0.3750000   0.5236121   0.0000000), wk =   0.1250000
        k(   19) = (   0.3750000   0.7854181   0.0000000), wk =   0.1250000
        k(   20) = (   0.3750000  -1.0472241   0.0000000), wk =   0.0625000
        k(   21) = (  -0.5000000   0.0000000   0.0000000), wk =   0.0312500
        k(   22) = (  -0.5000000   0.2618060   0.0000000), wk =   0.0625000
        k(   23) = (  -0.5000000   0.5236121   0.0000000), wk =   0.0625000
        k(   24) = (  -0.5000000   0.7854181   0.0000000), wk =   0.0625000
        k(   25) = (  -0.5000000  -1.0472241   0.0000000), wk =   0.0312500

     Initial potential from superposition of free atoms

     starting charge  455.69457, renormalised to  456.00000

     negative rho (up, down):  9.335E-02 0.000E+00
     Starting wfcs are  396 randomized atomic wfcs

     Self-consistent Calculation

     iteration #  1     ecut=    60.00 Ry     beta= 0.50
     Davidson diagonalization with overlap
     ethr =  1.00E-02,  avg # of iterations =  2.0

     negative rho (up, down):  8.575E-02 0.000E+00

     total energy              =   -3708.32853235 Ry
     Harris-Foulkes estimate   =   -3716.35724752 Ry
     estimated scf accuracy    <      31.10580026 Ry

[...]

     iteration # 11     ecut=    60.00 Ry     beta= 0.50
     Davidson diagonalization with overlap
     c_bands:  2 eigenvalues not converged
     ethr =  6.75E-05,  avg # of iterations =  5.8

[...]

     iteration # 26     ecut=    60.00 Ry     beta= 0.50
     Davidson diagonalization with overlap
     c_bands:  1 eigenvalues not converged
     c_bands:  1 eigenvalues not converged
     c_bands:  1 eigenvalues not converged
     ethr =  3.87E-08,  avg # of iterations =  9.9

[...]

     total energy              =   -3711.09005659 Ry
     Harris-Foulkes estimate   =   -3711.09005658 Ry
     estimated scf accuracy    <       0.00000002 Ry

     iteration # 39     ecut=    60.00 Ry     beta= 0.50
     Davidson diagonalization with overlap
     ethr =  4.65E-12,  avg # of iterations =  1.0

[...]

     End of self-consistent calculation

          k = 0.0000 0.0000 0.0000 ( 73127 PWs)   bands (ev):

   -41.3437 -39.0080 -38.2541 -35.8813 -23.2091 -23.0627 -23.0427 -22.9144
   -22.8074 -22.7195 -22.6538 -22.5908 -21.4485 -21.3820 -21.2229 -20.0920
   -20.0474 -19.9706 -18.7292 -18.6251 -18.2573 -17.2293 -17.0941 -16.9110
   -16.2954 -15.8202 -15.6398 -15.5725 -15.2143 -15.1666 -15.0830 -15.0436
   -15.0041 -14.8864 -14.8075 -14.7847 -14.7079 -14.6802 -14.6165 -14.5442
   -14.3292 -14.3280 -14.2782 -14.2201 -14.2142 -14.2076 -14.1453 -14.1301
   -14.1162 -13.9404 -13.9363 -13.8188 -13.7950 -13.4588  -8.5459  -8.4346
    -8.2807  -8.1833  -8.1723  -8.0922  -8.0753  -8.0686  -7.9972  -7.9808
    -7.9540  -7.8620  -7.8577  -7.8465  -7.8020  -7.8007  -7.7993  -7.7160
    -7.6826  -7.6495  -7.6138  -7.5664  -7.4594  -7.4064  -3.6634  -3.2109
    -3.0425  -3.0183  -2.8675  -2.7416  -2.5992  -2.4559  -2.3995  -2.3914
    -2.3574  -2.3119  -2.2759  -2.2687  -2.2416  -2.1122  -2.0931  -2.0645
    -2.0270  -1.8914  -1.8583  -1.8331  -1.7576  -1.7358  -1.7339  -1.6721
    -1.5924  -1.5566  -1.3936  -1.3891  -1.3637  -1.3436  -1.3317  -1.2498
    -1.1515  -1.1471  -1.1457  -1.1289  -1.1166  -1.1042  -1.1038  -1.0984
    -1.0933  -1.0402  -1.0017  -0.9866  -0.9203  -0.8572  -0.8290  -0.8269
    -0.7747  -0.7334  -0.5492  -0.5402  -0.4808  -0.4708  -0.4139  -0.4103
    -0.4028  -0.3872  -0.3649  -0.3617  -0.3573  -0.2621  -0.2598  -0.2383
    -0.2250  -0.2025  -0.1933  -0.1736  -0.1686  -0.1526  -0.1367  -0.1172
    -0.1108  -0.1057  -0.0490  -0.0486   0.0437   0.0474   0.0773   0.0792
     0.0857   0.0866   0.1180   0.1491   0.1871   0.1883   0.1892   0.2001
     0.2632   0.2880   0.2996   0.3396   0.3527   0.3583   0.3799   0.3812
     0.3847   0.4260   0.4984   0.5406   0.5495   0.5845   0.6646   0.7567
     0.8156   0.8383   0.8581   0.8682   0.8932   0.9240   1.0091   1.0313
     1.0366   1.0450   1.0633   1.0637   1.0646   1.1508   1.1688   1.1755
     1.2310   1.2432   1.2517   1.2550   1.4111   1.4160   1.4643   1.4742
     1.4805   1.5426   1.5758   1.6155   1.6172   1.6267   1.6607   1.7184
     1.7190   1.7522   1.8375   1.8390   1.8697   1.8909   1.9461   2.0498
     2.0863   2.1002   2.1014   2.1031   2.1509   2.1852   2.2784   2.3068
     2.3130   2.4009   2.4099   2.4655   2.5145   2.7007   2.8455   3.2852
     4.0645   4.1095   5.0526   5.1785   5.2466   5.2490   5.4406   5.4731
     5.8840   6.3023   6.4489   6.4669   6.5598   6.6618   6.7299   6.7670
     7.0308   7.1057   7.1371   7.1987   7.2430   7.2543   7.2559   7.3761
     7.5874   7.6270   7.8950   7.9433   7.9727   8.1356   8.1854   8.2985
     8.3289   8.4347

[...]

          k = 0.3750-1.0472 0.0000 ( 73070 PWs)   bands (ev):

[...]

          k =-0.5000 0.0000 0.0000 ( 73132 PWs)   bands (ev):

[...]

          k =-0.5000-1.0472 0.0000 ( 73020 PWs)   bands (ev):

   -41.3295 -38.9988 -38.2357 -35.8697 -23.0265 -22.9479 -22.8398 -22.8102
   -22.6252 -22.5383 -22.5064 -22.4937 -21.5532 -21.3513 -21.3488 -20.1534
   -20.0404 -20.0333 -18.8976 -18.5549 -18.4343 -17.3023 -17.1255 -17.0213
   -15.7893 -15.6135 -15.5848 -15.2883 -14.9534 -14.8880 -14.7599 -14.7593
   -14.7289 -14.6542 -14.6073 -14.5512 -14.5303 -14.4821 -14.4640 -14.4477
   -14.3586 -14.3387 -14.2736 -14.2410 -14.0953 -14.0945 -14.0618 -14.0562
   -14.0501 -14.0357 -14.0341 -14.0340 -13.9002 -13.7706  -8.7906  -8.6812
    -8.6250  -8.5744  -8.5645  -8.4589  -8.3918  -8.3653  -8.3284  -8.3050
    -8.2999  -8.2952  -8.2876  -8.2765  -8.1977  -8.1951  -8.0905  -8.0466
    -7.9916  -7.9890  -7.8865  -7.8697  -7.8215  -7.7706  -4.4921  -4.2164
    -4.0100  -3.7900  -3.6102  -3.5973  -3.4879  -3.4443  -3.2791  -3.2538
    -3.2223  -3.2216  -3.1399  -3.1178  -2.9387  -2.8504  -2.7868  -2.7367
    -2.5650  -2.4559  -2.4317  -2.4049  -2.3689  -2.3157  -2.3127  -2.2790
    -2.2372  -2.1930  -2.1570  -2.1239  -2.0378  -2.0059  -1.9757  -1.9265
    -1.8928  -1.7559  -1.7454  -1.6832  -1.6608  -1.6503  -1.5561  -1.5428
    -1.5387  -1.3550  -1.3324  -1.3010  -1.2834  -1.2708  -1.2644  -1.2533
    -1.1479  -1.0804  -1.0248  -1.0245  -1.0032  -0.9969  -0.9946  -0.9288
    -0.9127  -0.8991  -0.8858  -0.8150  -0.8117  -0.8082  -0.7306  -0.6705
    -0.6442  -0.6328  -0.5268  -0.5033  -0.3959  -0.3367  -0.2897  -0.1414
    -0.1316   0.0223   0.0407   0.1344   0.1701   0.1712   0.3134   0.3205
     0.3226   0.3663   0.3852   0.5358   0.5437   0.7024   0.7367   0.7525
     0.7809   0.7868   0.7981   0.8720   0.9082   0.9573   0.9686   1.0025
     1.0168   1.0386   1.0745   1.1335   1.1458   1.1757   1.1781   1.2004
     1.2006   1.2062   1.2280   1.2435   1.2608   1.2803   1.2830   1.3581
     1.4162   1.4708   1.4902   1.5357   1.5534   1.6017   1.6079   1.6507
     1.6707   1.6990   1.7112   1.7231   1.7542   1.7866   1.8014   1.8329
     1.8520   1.9021   1.9597   2.0272   2.0310   2.0384   2.0496   2.0844
     2.0944   2.2401   2.3751   2.3840   2.4205   2.4289   2.4918   2.5455
     2.5603   2.6780   2.7101   2.7317   2.9649   2.9863   3.1367   3.3166
     3.3996   3.4662   3.4992   3.5945   3.7320   3.8174   3.8656   4.0400
     4.5956   4.7229   4.9056   5.1082   5.2827   5.8327   6.1205   6.4480
     6.5588   6.6057   6.7223   6.7975   6.8086   6.8230   6.9313   7.4420
     7.6086   7.7460   7.9609   7.9839   8.0380   8.0809   8.6403   8.7624
     8.7827   8.9421   9.0500   9.2302   9.2721   9.2938   9.3121   9.3495
     9.3913   9.4120

     the Fermi energy is     2.5554 ev

!    total energy              =   -3711.09005656 Ry
     Harris-Foulkes estimate   =   -3711.09005659 Ry
     estimated scf accuracy    <          4.8E-09 Ry

     The total energy is the sum of the following terms:

     one-electron contribution =  -60153.07064248 Ry
     hartree contribution      =   30377.16310503 Ry
     xc contribution           =   -1263.28441890 Ry
     ewald contribution        =   27328.11591544 Ry
     smearing contrib. (-TS)   =      -0.01401566 Ry

     convergence has been achieved in  39 iterations

     negative rho (up, down):  9.123E-02 0.000E+00

     Forces acting on atoms (cartesian axes, Ry/au):

     atom    1 type  4   force =    -0.00000493    0.00000000   -0.00012449
     atom    2 type  4   force =     0.00000493    0.00000000   -0.00012449
     atom    3 type  3   force =    -0.00001712    0.00000000   -0.00005888
     atom    4 type  3   force =     0.00001712    0.00000000   -0.00005888
     atom    5 type  4   force =     0.00000025    0.00000000   -0.00005533
     atom    6 type  4   force =    -0.00000025    0.00000000   -0.00005533
     atom    7 type  1   force =     0.00000000    0.00000000   -0.00011797
     atom    8 type  1   force =     0.00000000    0.00000000   -0.00010774
     atom    9 type  3   force =     0.00002781    0.00000000    0.00003510
     atom   10 type  3   force =    -0.00002781    0.00000000    0.00003510
     atom   11 type  4   force =     0.00000000    0.00000000    0.00012533
     atom   12 type  4   force =    -0.00000318    0.00000000    0.00005625
     atom   13 type  4   force =     0.00000318    0.00000000    0.00005625
     atom   14 type  4   force =     0.00000000    0.00000000    0.00018276
     atom   15 type  2   force =     0.00000000    0.00000000   -0.00050670
     atom   16 type  5   force =     0.00000000    0.00000000   -0.00075919
     atom   17 type  4   force =     0.00008770    0.00000000    0.00081387
     atom   18 type  4   force =    -0.00008770    0.00000000    0.00081387
     atom   19 type  4   force =     0.00000000    0.00000000    0.00089368
     atom   20 type  4   force =     0.00000000    0.00000000    0.00115112
     atom   21 type  3   force =    -0.00004825    0.00000000   -0.00116246
     atom   22 type  3   force =     0.00004825    0.00000000   -0.00116246
     atom   23 type  1   force =     0.00000000    0.00000000   -0.00211834
     atom   24 type  1   force =     0.00000000    0.00000000   -0.00221818
     atom   25 type  4   force =    -0.00023825    0.00000000    0.00395441
     atom   26 type  4   force =     0.00023825    0.00000000    0.00395441
     atom   27 type  4   force =    -0.00044313    0.00000000    0.00463650
     atom   28 type  4   force =     0.00044313    0.00000000    0.00463650
     atom   29 type  3   force =     0.00174043    0.00000000   -0.00905843
     atom   30 type  3   force =    -0.00174043    0.00000000   -0.00905843
     atom   31 type  4   force =    -0.00066140    0.00000000    0.01350166
     atom   32 type  4   force =     0.00066140    0.00000000    0.01350166
     atom   33 type  1   force =     0.00000000    0.00000000   -0.02358696
     atom   34 type  1   force =     0.00000000    0.00000000   -0.01812377
     atom   35 type  3   force =     0.00032057    0.00000000    0.00848007
     atom   36 type  3   force =    -0.00032057    0.00000000    0.00848007
     atom   37 type  4   force =     0.00000000    0.00000000    0.05525286
     atom   38 type  4   force =     0.00000000    0.00000000    0.06739823
     atom   39 type  4   force =     0.02021521    0.00000000    0.06579883
     atom   40 type  4   force =    -0.02021521    0.00000000    0.06579883
     atom   41 type  5   force =     0.00000000    0.00000000   -0.13820769
     atom   42 type  2   force =     0.00000000    0.00000000   -0.08082067
     atom   43 type  4   force =     0.00000000    0.00000000    0.02156474
     atom   44 type  4   force =    -0.00202491    0.00000000    0.01065891
     atom   45 type  4   force =     0.00202491    0.00000000    0.01065891
     atom   46 type  4   force =     0.00000000    0.00000000    0.01909549
     atom   47 type  3   force =    -0.00128871    0.00000000   -0.01761457
     atom   48 type  3   force =     0.00128871    0.00000000   -0.01761457
     atom   49 type  1   force =     0.00000000    0.00000000   -0.02380956
     atom   50 type  1   force =     0.00000000    0.00000000   -0.02930609
     atom   51 type  4   force =     0.00129354    0.00000000   -0.00349972
     atom   52 type  4   force =    -0.00129354    0.00000000   -0.00349972
     atom   53 type  3   force =    -0.00027028    0.00000000    0.00089319
     atom   54 type  3   force =     0.00027028    0.00000000    0.00089319
     atom   55 type  4   force =     0.00010230    0.00000000   -0.00024560
     atom   56 type  4   force =    -0.00010230    0.00000000   -0.00024560

     Total force =     0.217957     Total SCF correction =     0.000338

     Computing stress (Cartesian axis) and pressure

     negative rho (up, down):  9.123E-02 0.000E+00
          total   stress  (Ry/bohr**3)                   (kbar)     P=       -7.97
  -0.00002848   0.00000000   0.00000000           -4.19        0.00        0.00
   0.00000000  -0.00001149   0.00000000            0.00       -1.69        0.00
   0.00000000   0.00000000  -0.00012256            0.00        0.00      -18.03

     General routines

     Parallel routines

   This run was terminated on:  10:43: 9  28May2021

   JOB DONE.
[1622212989.301932] [holy7c06308:167708:0]          mpool.c:43   UCX  WARN  object 0x4577f80 was not returned to mpool ucp_requests
[1622212989.301950] [holy7c06308:167708:0]          mpool.c:43   UCX  WARN  object 0x45784c0 was not returned to mpool ucp_requests
[1622212989.306623] [holy7c06302:116032:0]          mpool.c:43   UCX  WARN  object 0x426f7c0 was not returned to mpool ucp_requests
[1622212989.307321] [holy7c06301:259148:0]          mpool.c:43   UCX  WARN  object 0x34f83c0 was not returned to mpool ucp_requests
[1622212989.325338] [holy7c06212:64790:0]          mpool.c:43   UCX  WARN  object 0x2ae88c0 was not returned to mpool ucp_requests
[1622212989.317159] [holy7c06303:251525:0]          mpool.c:43   UCX  WARN  object 0x3463b00 was not returned to mpool ucp_requests
[1622212989.320069] [holy7c06311:230204:0]          mpool.c:43   UCX  WARN  object 0x2c72100 was not returned to mpool ucp_requests
[1622212989.321186] [holy7c06311:230203:0]          mpool.c:43   UCX  WARN  object 0x304d1c0 was not returned to mpool ucp_requests
[1622212989.324336] [holy7c06212:64792:0]          mpool.c:43   UCX  WARN  object 0x3204200 was not returned to mpool ucp_requests
[1622212989.324364] [holy7c06212:64792:0]          mpool.c:43   UCX  WARN  object 0x3204580 was not returned to mpool ucp_requests
[1622212989.320546] [holy7c06212:64796:0]          mpool.c:43   UCX  WARN  object 0x333ef80 was not returned to mpool ucp_requests
[1622212989.332200] [holy7c06212:64797:0]          mpool.c:43   UCX  WARN  object 0x3546500 was not returned to mpool ucp_requests
[1622212989.332220] [holy7c06212:64797:0]          mpool.c:43   UCX  WARN  object 0x3546880 was not returned to mpool ucp_requests
[1622212989.334620] [holy7c06212:64791:0]          mpool.c:43   UCX  WARN  object 0x45c6200 was not returned to mpool ucp_requests
[1622212989.315845] [holy7c06303:251523:0]          mpool.c:43   UCX  WARN  object 0x441ba40 was not returned to mpool ucp_requests
[1622212989.315870] [holy7c06303:251523:0]          mpool.c:43   UCX  WARN  object 0x441c140 was not returned to mpool ucp_requests
[1622212989.315999] [holy7c06303:251526:0]          mpool.c:43   UCX  WARN  object 0x47395c0 was not returned to mpool ucp_requests
[1622212989.328166] [holy7c06212:64795:0]          mpool.c:43   UCX  WARN  object 0x3176bc0 was not returned to mpool ucp_requests
[1622212989.328190] [holy7c06212:64795:0]          mpool.c:43   UCX  WARN  object 0x3176d80 was not returned to mpool ucp_requests