     Program PWSCF v.6.5 starts on  1Jun2021 at 12: 7: 1

     R & G space division:  proc/nbgrp/npool/nimage =      32
     Reading input from YCBCO50_212_Y_cleave_7.0_sep.pwi
Warning: card &IONS ignored
Warning: card     ION_DYNAMICS = 'BFGS' ignored
Warning: card / ignored
Warning: card &CELL ignored
Warning: card     CELL_DYNAMICS = 'BFGS' ignored
Warning: card     PRESS_CONV_THR = 5 ignored
Warning: card / ignored

     Current dimensions of program PWSCF are:
     Max number of different atomic species (ntypx) = 10
     Max number of k-points (npk) =  40000
     Max angular momentum in pseudopotentials (lmaxx) =  3

     Message from routine setup:
     using ibrav=0 with symmetry is DISCOURAGED, use correct ibrav instead

     bravais-lattice index     =            0
     lattice parameter (alat)  =      14.8133  a.u.
     unit-cell volume          =   10103.1525 (a.u.)^3
     number of atoms/cell      =           56
     number of atomic types    =            5
     number of electrons       =       456.00
     number of Kohn-Sham states=          274
     kinetic-energy cutoff     =      60.0000  Ry
     charge density cutoff     =     720.0000  Ry
     convergence threshold     =      1.0E-08
     mixing beta               =       0.5000
     number of iterations used =           10  local-TF  mixing
     Exchange-correlation= SLA PW PBE PBE
                           (   1   4   3   4   0   0   0)

     celldm(1)=  14.813271  celldm(2)=   0.000000  celldm(3)=   0.000000
     celldm(4)=   0.000000  celldm(5)=   0.000000  celldm(6)=   0.000000

     crystal axes: (cart. coord. in units of alat)
               a(1) = (   1.000000   0.000000   0.000000 )
               a(2) = (   0.000000   0.477453   0.000000 )
               a(3) = (   0.000000   0.000000   6.509890 )

     reciprocal axes: (cart. coord. in units 2 pi/alat)
               b(1) = (  1.000000  0.000000  0.000000 )
               b(2) = (  0.000000  2.094448  0.000000 )
               b(3) = (  0.000000  0.000000  0.153612 )

     PseudoPot. # 1 for Ba read from file:
     ./pseudo/Ba.pbe-nsp-van.UPF
     MD5 check sum: 2b9c31dd849566dd297d80989662b7a0
     Pseudo is Ultrasoft + core correction, Zval = 10.0
     Generated by new atomic code, or converted to UPF format
     Using radial grid of  907 points,  6 beta functions with:
                l(1) =   0
                l(2) =   0
                l(3) =   1
                l(4) =   1
                l(5) =   2
                l(6) =   2
     Q(r) pseudized with  6 coefficients,  rinner =    1.200   1.200   1.200
                                                       1.200   1.200

     PseudoPot. # 2 for Ca read from file:
     ./pseudo/Ca.pbe-nsp-van.UPF
     MD5 check sum: 6471098428ff4fa451746d08035ff179
     Pseudo is Ultrasoft + core correction, Zval = 10.0
     Generated by new atomic code, or converted to UPF format
     Using radial grid of  845 points,  6 beta functions with:
                l(1) =   0
                l(2) =   0
                l(3) =   1
                l(4) =   1
                l(5) =   2
                l(6) =   2
     Q(r) pseudized with  6 coefficients,  rinner =    1.200   1.200   1.200
                                                       1.200   1.200

     PseudoPot. # 3 for Cu read from file:
     ./pseudo/Cu.pbe-n-van_ak.UPF
     MD5 check sum: 34e3282627ffb533726feb647e090d62
     Pseudo is Ultrasoft + core correction, Zval = 11.0
     Generated by new atomic code, or converted to UPF format
     Using radial grid of  867 points,  6 beta functions with:
                l(1) =   0
                l(2) =   0
                l(3) =   1
                l(4) =   1
                l(5) =   2
                l(6) =   2
     Q(r) pseudized with  8 coefficients,  rinner =    1.400   1.400   1.400
                                                       1.400   1.400

     PseudoPot. # 4 for O  read from file:
     ./pseudo/O.pbe-van_ak.UPF
     MD5 check sum: 783ce7fe4c79b6a4916957118fed0856
     Pseudo is Ultrasoft, Zval =  6.0
     Generated by new atomic code, or converted to UPF format
     Using radial grid of  737 points,  4 beta functions with:
                l(1) =   0
                l(2) =   0
                l(3) =   1
                l(4) =   1
     Q(r) pseudized with  8 coefficients,  rinner =    0.800   0.800   0.800

     PseudoPot. # 5 for Y  read from file:
     ./pseudo/Y.pbe-nsp-van.UPF
     MD5 check sum: 4412fed3ab108fed87a1b7d6a69a4a38
     Pseudo is Ultrasoft + core correction, Zval = 11.0
     Generated by new atomic code, or converted to UPF format
     Using radial grid of  885 points,  6 beta functions with:
                l(1) =   0
                l(2) =   0
                l(3) =   1
                l(4) =   1
                l(5) =   2
                l(6) =   2
     Q(r) pseudized with  6 coefficients,  rinner =    1.200   1.200   1.200
                                                       1.200   1.200

     atomic species   valence    mass     pseudopotential
        Ba            10.00   137.32700     Ba( 1.00)
        Ca            10.00    40.07800     Ca( 1.00)
        Cu            11.00    63.54600     Cu( 1.00)
        O              6.00    15.99900     O ( 1.00)
        Y             11.00    88.90584     Y ( 1.00)

      4 Sym. Ops. (no inversion) found ( 2 have fractional translation)

   Cartesian axes

     site n.     atom                  positions (alat units)
         1           O   tau(   1) = (  -0.0008343   0.2387265  -0.0222443  )
         2           O   tau(   2) = (   0.5008340   0.2387265  -0.0222443  )
         3           Cu  tau(   3) = (   0.5017257   0.0000000   0.0109608  )
         4           Cu  tau(   4) = (  -0.0017260   0.0000000   0.0109608  )
         5           O   tau(   5) = (  -0.0028933   0.0000000   0.2506504  )
         6           O   tau(   6) = (   0.5028929   0.0000000   0.2506504  )
         7           Ba  tau(   7) = (   0.7499995   0.2387265   0.2749435  )
         8           Ba  tau(   8) = (   0.2499998   0.2387265   0.2755214  )
         9           Cu  tau(   9) = (   0.4980963   0.0000000   0.5208446  )
        10           Cu  tau(  10) = (   0.0019033   0.0000000   0.5208446  )
        11           O   tau(  11) = (   0.2499998   0.0000000   0.5341884  )
        12           O   tau(  12) = (   0.5083351   0.2387265   0.5569851  )
        13           O   tau(  13) = (  -0.0083354   0.2387265   0.5569851  )
        14           O   tau(  14) = (   0.7499995   0.0000000   0.5573831  )
        15           Ca  tau(  15) = (   0.2499998   0.2387265   0.7436937  )
        16           Y   tau(  16) = (   0.7499995   0.2387265   0.7469544  )
        17           O   tau(  17) = (  -0.0063798   0.2387265   0.9248530  )
        18           O   tau(  18) = (   0.5063794   0.2387265   0.9248530  )
        19           O   tau(  19) = (   0.7499995   0.0000000   0.9338544  )
        20           O   tau(  20) = (   0.2499998   0.0000000   0.9461329  )
        21           Cu  tau(  21) = (   0.0015717   0.0000000   0.9686860  )
        22           Cu  tau(  22) = (   0.4984280   0.0000000   0.9686860  )
        23           Ba  tau(  23) = (   0.2499998   0.2387265   1.2085224  )
        24           Ba  tau(  24) = (   0.7499995   0.2387265   1.2233294  )
        25           O   tau(  25) = (   0.0063772   0.0000000   1.2547537  )
        26           O   tau(  26) = (   0.4936224   0.0000000   1.2547537  )
        27           O   tau(  27) = (   0.5384045   0.2387265   1.4952521  )
        28           O   tau(  28) = (  -0.0384049   0.2387265   1.4952521  )
        29           Cu  tau(  29) = (   0.5006120   0.0000000   1.4952546  )
        30           Cu  tau(  30) = (  -0.0006123   0.0000000   1.4952546  )
        31           O   tau(  31) = (   0.4936212   0.0000000   1.7357531  )
        32           O   tau(  32) = (   0.0063785   0.0000000   1.7357531  )
        33           Ba  tau(  33) = (   0.7499995   0.2387265   1.7671824  )
        34           Ba  tau(  34) = (   0.2499998   0.2387265   1.7819920  )
        35           Cu  tau(  35) = (   0.4984280   0.0000000   2.0218232  )
        36           Cu  tau(  36) = (   0.0015717   0.0000000   2.0218232  )
        37           O   tau(  37) = (   0.2499998   0.0000000   2.0443814  )
        38           O   tau(  38) = (   0.7499995   0.0000000   2.0566511  )
        39           O   tau(  39) = (   0.5063781   0.2387265   2.0656562  )
        40           O   tau(  40) = (  -0.0063785   0.2387265   2.0656562  )
        41           Y   tau(  41) = (   0.7499995   0.2387265   2.2435498  )
        42           Ca  tau(  42) = (   0.2499998   0.2387265   2.2468194  )
        43           O   tau(  43) = (   0.7499995   0.0000000   3.3261059  )
        44           O   tau(  44) = (  -0.0083354   0.2387265   3.3265077  )
        45           O   tau(  45) = (   0.5083351   0.2387265   3.3265077  )
        46           O   tau(  46) = (   0.2499998   0.0000000   3.3493057  )
        47           Cu  tau(  47) = (   0.0019059   0.0000000   3.3626393  )
        48           Cu  tau(  48) = (   0.4980938   0.0000000   3.3626393  )
        49           Ba  tau(  49) = (   0.2499998   0.2387265   3.6079790  )
        50           Ba  tau(  50) = (   0.7499995   0.2387265   3.6085212  )
        51           O   tau(  51) = (  -0.0028895   0.0000000   3.6328283  )
        52           O   tau(  52) = (   0.5028891   0.0000000   3.6328283  )
        53           Cu  tau(  53) = (   0.5017844   0.0000000   3.8725129  )
        54           Cu  tau(  54) = (  -0.0017847   0.0000000   3.8725129  )
        55           O   tau(  55) = (   0.5008990   0.2387265   3.9057193  )
        56           O   tau(  56) = (  -0.0008994   0.2387265   3.9057193  )

     number of k points=    25  Gaussian smearing, width (Ry)=  0.0100
                       cart. coord. in units 2pi/alat
        k(    1) = (   0.0000000   0.0000000   0.0000000), wk =   0.0312500
        k(    2) = (   0.0000000   0.2618060   0.0000000), wk =   0.0625000
        k(    3) = (   0.0000000   0.5236121   0.0000000), wk =   0.0625000
        k(    4) = (   0.0000000   0.7854181   0.0000000), wk =   0.0625000
        k(    5) = (   0.0000000  -1.0472241   0.0000000), wk =   0.0312500
        k(    6) = (   0.1250000   0.0000000   0.0000000), wk =   0.0625000
        k(    7) = (   0.1250000   0.2618060   0.0000000), wk =   0.1250000
        k(    8) = (   0.1250000   0.5236121   0.0000000), wk =   0.1250000
        k(    9) = (   0.1250000   0.7854181   0.0000000), wk =   0.1250000
        k(   10) = (   0.1250000  -1.0472241   0.0000000), wk =   0.0625000
        k(   11) = (   0.2500000   0.0000000   0.0000000), wk =   0.0625000
        k(   12) = (   0.2500000   0.2618060   0.0000000), wk =   0.1250000
        k(   13) = (   0.2500000   0.5236121   0.0000000), wk =   0.1250000
        k(   14) = (   0.2500000   0.7854181   0.0000000), wk =   0.1250000
        k(   15) = (   0.2500000  -1.0472241   0.0000000), wk =   0.0625000
        k(   16) = (   0.3750000   0.0000000   0.0000000), wk =   0.0625000
        k(   17) = (   0.3750000   0.2618060   0.0000000), wk =   0.1250000
        k(   18) = (   0.3750000   0.5236121   0.0000000), wk =   0.1250000
        k(   19) = (   0.3750000   0.7854181   0.0000000), wk =   0.1250000
        k(   20) = (   0.3750000  -1.0472241   0.0000000), wk =   0.0625000
        k(   21) = (  -0.5000000   0.0000000   0.0000000), wk =   0.0312500
        k(   22) = (  -0.5000000   0.2618060   0.0000000), wk =   0.0625000
        k(   23) = (  -0.5000000   0.5236121   0.0000000), wk =   0.0625000
        k(   24) = (  -0.5000000   0.7854181   0.0000000), wk =   0.0625000
        k(   25) = (  -0.5000000  -1.0472241   0.0000000), wk =   0.0312500

     Initial potential from superposition of free atoms

     starting charge  455.69457, renormalised to  456.00000

     negative rho (up, down):  9.317E-02 0.000E+00
     Starting wfcs are  396 randomized atomic wfcs

     Self-consistent Calculation

     iteration #  1     ecut=    60.00 Ry     beta= 0.50
     Davidson diagonalization with overlap
     ethr =  1.00E-02,  avg # of iterations =  2.0

     negative rho (up, down):  8.576E-02 0.000E+00

     total energy              =   -3708.35546743 Ry
     Harris-Foulkes estimate   =   -3716.37115360 Ry
     estimated scf accuracy    <      31.33546022 Ry

[...]

     iteration # 18     ecut=    60.00 Ry     beta= 0.50
     Davidson diagonalization with overlap
     c_bands:  1 eigenvalues not converged
     ethr =  1.12E-05,  avg # of iterations =  5.7

[...]

     iteration # 23     ecut=    60.00 Ry     beta= 0.50
     Davidson diagonalization with overlap
     c_bands:  1 eigenvalues not converged
     ethr =  2.24E-06,  avg # of iterations =  9.3

[...]

     total energy              =   -3711.02819879 Ry
     Harris-Foulkes estimate   =   -3711.02819877 Ry
     estimated scf accuracy    <       0.00000002 Ry

     iteration # 42     ecut=    60.00 Ry     beta= 0.50
     Davidson diagonalization with overlap
     ethr =  4.23E-12,  avg # of iterations =  1.1

[...]

     End of self-consistent calculation

          k = 0.0000 0.0000 0.0000 ( 79365 PWs)   bands (ev):

   -41.7544 -39.4646 -38.9056 -36.5326 -23.8129 -23.6953 -23.6669 -23.5670
   -23.4520 -23.3225 -23.2984 -23.1935 -21.8644 -21.8024 -21.6369 -20.5632
   -20.5025 -20.4258 -19.3807 -19.2766 -18.9088 -17.8807 -17.7454 -17.5623
   -16.8382 -16.3676 -16.2915 -16.1183 -15.8641 -15.8044 -15.6656 -15.6532
   -15.6344 -15.5375 -15.4363 -15.3825 -15.3595 -15.3327 -15.2372 -15.1940
   -14.9811 -14.9207 -14.9096 -14.8720 -14.8659 -14.8600 -14.7717 -14.7674
   -14.7422 -14.5781 -14.5614 -14.4356 -14.3863 -14.0356  -9.1493  -9.0371
    -8.9333  -8.8248  -8.7891  -8.7448  -8.7110  -8.6802  -8.6249  -8.6067
    -8.6046  -8.5103  -8.4665  -8.4471  -8.4430  -8.4067  -8.4012  -8.3687
    -8.3271  -8.2577  -8.2527  -8.1701  -8.1040  -8.0089  -4.2501  -3.8633
    -3.6934  -3.5753  -3.4320  -3.3423  -3.1469  -3.0521  -3.0257  -3.0158
    -2.9903  -2.9646  -2.9206  -2.8980  -2.8664  -2.7638  -2.7161  -2.6786
    -2.6580  -2.5434  -2.5097  -2.4131  -2.4091  -2.3729  -2.3111  -2.3085
    -2.2086  -2.1519  -2.0314  -2.0116  -1.9837  -1.9392  -1.9318  -1.8886
    -1.7998  -1.7983  -1.7830  -1.7556  -1.7497  -1.7344  -1.7313  -1.7300
    -1.6802  -1.6417  -1.6268  -1.5955  -1.5729  -1.4886  -1.4670  -1.4502
    -1.3930  -1.3359  -1.1994  -1.1802  -1.1335  -1.0651  -1.0480  -1.0376
    -1.0278  -1.0144  -1.0099  -0.9843  -0.9059  -0.8850  -0.8794  -0.8790
    -0.8752  -0.8506  -0.8322  -0.8236  -0.8211  -0.7664  -0.7419  -0.7414
    -0.7090  -0.7016  -0.7010  -0.6379  -0.6053  -0.5980  -0.5661  -0.5530
    -0.5526  -0.5506  -0.5119  -0.4953  -0.4641  -0.4638  -0.4197  -0.4140
    -0.3627  -0.3508  -0.3199  -0.2956  -0.2906  -0.2779  -0.2668  -0.2500
    -0.2189  -0.2010  -0.1255  -0.1055  -0.0636  -0.0599   0.0263   0.1135
     0.1635   0.2127   0.2165   0.2311   0.2550   0.2908   0.3642   0.3819
     0.3872   0.4079   0.4149   0.4527   0.4691   0.5176   0.5265   0.5542
     0.5802   0.6042   0.6136   0.6861   0.7647   0.7778   0.8132   0.8478
     0.8899   0.8954   0.9645   0.9680   0.9711   1.0021   1.0097   1.0685
     1.1018   1.1034   1.1903   1.2030   1.2338   1.2507   1.3180   1.3495
     1.4188   1.4362   1.4598   1.5163   1.5389   1.6314   1.6608   1.6801
     1.7173   1.7575   1.8142   1.8209   1.8889   2.0493   2.2657   2.5050
     3.2111   3.3922   4.4008   4.5579   4.6583   4.7359   4.8152   4.8580
     5.2404   5.6747   5.8164   5.9652   6.0956   6.1064   6.1158   6.1534
     6.1804   6.4519   6.5418   6.5465   6.6135   6.6214   6.6301   6.6558
     6.8228   7.1261   7.1605   7.2469   7.3212   7.3559   7.4630   7.5814
     7.5942   7.6774

[...]

          k = 0.3750-1.0472 0.0000 ( 79290 PWs)   bands (ev):

[...]

          k =-0.5000 0.0000 0.0000 ( 79384 PWs)   bands (ev):

[...]

          k =-0.5000-1.0472 0.0000 ( 79260 PWs)   bands (ev):

   -41.7402 -39.4553 -38.8871 -36.5210 -23.6301 -23.5525 -23.4924 -23.4628
   -23.2698 -23.1828 -23.1094 -23.0960 -21.9723 -21.7710 -21.7610 -20.6112
   -20.5026 -20.4958 -19.5491 -19.2064 -19.0858 -17.9536 -17.7769 -17.6726
   -16.3255 -16.1583 -16.1291 -15.8574 -15.6055 -15.5405 -15.3833 -15.3822
   -15.3808 -15.3061 -15.2595 -15.2008 -15.1701 -15.1222 -15.1144 -15.0984
   -14.9966 -14.9703 -14.9077 -14.8836 -14.7479 -14.7471 -14.6972 -14.6769
   -14.6717 -14.6691 -14.6250 -14.6175 -14.4699 -14.3456  -9.3961  -9.2860
    -9.2777  -9.2270  -9.1664  -9.0646  -9.0361  -8.9703  -8.9527  -8.9410
    -8.9396  -8.9291  -8.9070  -8.8882  -8.8503  -8.8477  -8.7310  -8.6882
    -8.5958  -8.5924  -8.5299  -8.5113  -8.4242  -8.3731  -5.0600  -4.7944
    -4.6620  -4.4417  -4.2601  -4.2384  -4.1293  -4.0932  -3.8779  -3.8749
    -3.8742  -3.8626  -3.7521  -3.7224  -3.5025  -3.4438  -3.3902  -3.3125
    -3.2175  -3.1080  -3.0714  -3.0427  -2.9898  -2.9640  -2.9403  -2.9286
    -2.8857  -2.8414  -2.8080  -2.7760  -2.6860  -2.6336  -2.5631  -2.5275
    -2.4656  -2.3980  -2.3849  -2.2971  -2.2820  -2.2155  -2.2063  -2.1505
    -2.1479  -2.0054  -1.9821  -1.9114  -1.9070  -1.8955  -1.8921  -1.8750
    -1.7578  -1.7162  -1.6525  -1.6476  -1.6457  -1.6283  -1.6277  -1.5811
    -1.5516  -1.5503  -1.5379  -1.4482  -1.4253  -1.4193  -1.3815  -1.2954
    -1.2848  -1.2481  -1.1791  -1.1548  -0.9448  -0.9377  -0.8933  -0.7812
    -0.7715  -0.6096  -0.5966  -0.5077  -0.4607  -0.3867  -0.3311  -0.3090
    -0.2979  -0.2842  -0.2664  -0.1123  -0.0859   0.0550   0.1127   0.1682
     0.1867   0.1961   0.2273   0.2350   0.2608   0.3072   0.3396   0.3517
     0.3862   0.3878   0.4498   0.4864   0.5171   0.5384   0.5569   0.5626
     0.5706   0.5925   0.6083   0.6267   0.6290   0.6310   0.6420   0.7072
     0.7654   0.8299   0.8499   0.9172   0.9513   0.9639   0.9649   1.0147
     1.0213   1.0728   1.1027   1.1256   1.1456   1.1608   1.1931   1.2005
     1.2534   1.2552   1.3191   1.3746   1.3786   1.4519   1.4589   1.5408
     1.5524   1.6040   1.7224   1.7314   1.7954   1.8002   1.8924   1.8930
     1.9078   2.0838   2.1082   2.1334   2.3336   2.3762   2.5063   2.6647
     2.7483   2.8474   2.8522   2.9469   3.1286   3.1780   3.2690   3.3830
     3.8310   3.8347   4.2412   4.5559   4.7561   5.2027   5.3393   5.8209
     5.9062   5.9537   6.1064   6.1722   6.1820   6.3129   6.4543   6.7908
     6.9825   7.1083   7.3802   7.3901   7.4285   7.4310   7.9022   8.0685
     8.1600   8.2915   8.4033   8.4997   8.5598   8.5809   8.6329   8.6527
     8.7711   8.7993

     the Fermi energy is     1.9026 ev

!    total energy              =   -3711.02819878 Ry
     Harris-Foulkes estimate   =   -3711.02819879 Ry
     estimated scf accuracy    <          6.0E-09 Ry

     The total energy is the sum of the following terms:

     one-electron contribution =  -58821.38373128 Ry
     hartree contribution      =   29700.83537935 Ry
     xc contribution           =   -1263.13716386 Ry
     ewald contribution        =   26672.67244801 Ry
     smearing contrib. (-TS)   =      -0.01513101 Ry

     convergence has been achieved in  42 iterations

     negative rho (up, down):  9.140E-02 0.000E+00

     Forces acting on atoms (cartesian axes, Ry/au):

     atom    1 type  4   force =    -0.00000567    0.00000000   -0.00009265
     atom    2 type  4   force =     0.00000567    0.00000000   -0.00009265
     atom    3 type  3   force =    -0.00001548    0.00000000   -0.00009224
     atom    4 type  3   force =     0.00001548    0.00000000   -0.00009224
     atom    5 type  4   force =    -0.00000517    0.00000000   -0.00007585
     atom    6 type  4   force =     0.00000517    0.00000000   -0.00007585
     atom    7 type  1   force =     0.00000000    0.00000000   -0.00010375
     atom    8 type  1   force =     0.00000000    0.00000000   -0.00009394
     atom    9 type  3   force =     0.00002932    0.00000000   -0.00000828
     atom   10 type  3   force =    -0.00002932    0.00000000   -0.00000828
     atom   11 type  4   force =     0.00000000    0.00000000    0.00011388
     atom   12 type  4   force =    -0.00000245    0.00000000    0.00003887
     atom   13 type  4   force =     0.00000245    0.00000000    0.00003887
     atom   14 type  4   force =     0.00000000    0.00000000    0.00015880
     atom   15 type  2   force =     0.00000000    0.00000000   -0.00043894
     atom   16 type  5   force =     0.00000000    0.00000000   -0.00066571
     atom   17 type  4   force =     0.00007561    0.00000000    0.00071338
     atom   18 type  4   force =    -0.00007561    0.00000000    0.00071338
     atom   19 type  4   force =     0.00000000    0.00000000    0.00078195
     atom   20 type  4   force =     0.00000000    0.00000000    0.00100308
     atom   21 type  3   force =    -0.00004341    0.00000000   -0.00106784
     atom   22 type  3   force =     0.00004341    0.00000000   -0.00106784
     atom   23 type  1   force =     0.00000000    0.00000000   -0.00185142
     atom   24 type  1   force =     0.00000000    0.00000000   -0.00192932
     atom   25 type  4   force =    -0.00021373    0.00000000    0.00361617
     atom   26 type  4   force =     0.00021373    0.00000000    0.00361617
     atom   27 type  4   force =    -0.00034463    0.00000000    0.00422786
     atom   28 type  4   force =     0.00034463    0.00000000    0.00422786
     atom   29 type  3   force =     0.00154164    0.00000000   -0.00820451
     atom   30 type  3   force =    -0.00154164    0.00000000   -0.00820451
     atom   31 type  4   force =    -0.00052835    0.00000000    0.01202829
     atom   32 type  4   force =     0.00052835    0.00000000    0.01202829
     atom   33 type  1   force =     0.00000000    0.00000000   -0.02156417
     atom   34 type  1   force =     0.00000000    0.00000000   -0.01658161
     atom   35 type  3   force =     0.00088383    0.00000000    0.00780815
     atom   36 type  3   force =    -0.00088383    0.00000000    0.00780815
     atom   37 type  4   force =     0.00000000    0.00000000    0.05074270
     atom   38 type  4   force =     0.00000000    0.00000000    0.06275654
     atom   39 type  4   force =     0.01842153    0.00000000    0.06105235
     atom   40 type  4   force =    -0.01842153    0.00000000    0.06105235
     atom   41 type  5   force =     0.00000000    0.00000000   -0.14474426
     atom   42 type  2   force =     0.00000000    0.00000000   -0.08541282
     atom   43 type  4   force =     0.00000000    0.00000000    0.03219812
     atom   44 type  4   force =    -0.00324694    0.00000000    0.02025442
     atom   45 type  4   force =     0.00324694    0.00000000    0.02025442
     atom   46 type  4   force =     0.00000000    0.00000000    0.02858466
     atom   47 type  3   force =    -0.00104783    0.00000000   -0.02112377
     atom   48 type  3   force =     0.00104783    0.00000000   -0.02112377
     atom   49 type  1   force =     0.00000000    0.00000000   -0.02465340
     atom   50 type  1   force =     0.00000000    0.00000000   -0.02924041
     atom   51 type  4   force =     0.00134490    0.00000000   -0.00510447
     atom   52 type  4   force =    -0.00134490    0.00000000   -0.00510447
     atom   53 type  3   force =    -0.00031901    0.00000000    0.00145755
     atom   54 type  3   force =     0.00031901    0.00000000    0.00145755
     atom   55 type  4   force =     0.00016788    0.00000000    0.00004258
     atom   56 type  4   force =    -0.00016788    0.00000000    0.00004258

     Total force =     0.222202     Total SCF correction =     0.000253

     Computing stress (Cartesian axis) and pressure

     negative rho (up, down):  9.140E-02 0.000E+00
          total   stress  (Ry/bohr**3)                   (kbar)     P=       -7.59
  -0.00004147   0.00000000   0.00000000           -6.10        0.00        0.00
   0.00000000  -0.00002795   0.00000000            0.00       -4.11        0.00
   0.00000000   0.00000000  -0.00008537            0.00        0.00      -12.56

     General routines

     Parallel routines

   This run was terminated on:  12:46: 2   1Jun2021

   JOB DONE.
[1622565962.924389] [holy7c04304:59103:0]          mpool.c:43   UCX  WARN  object 0x3f6e040 was not returned to mpool ucp_requests
[1622565962.927517] [holy7c04301:258105:0]          mpool.c:43   UCX  WARN  object 0x4550780 was not returned to mpool ucp_requests
[1622565962.929598] [holy7c04207:178051:0]          mpool.c:43   UCX  WARN  object 0x3e88680 was not returned to mpool ucp_requests
[1622565962.933687] [holy7c04403:246985:0]          mpool.c:43   UCX  WARN  object 0x3a19580 was not returned to mpool ucp_requests
[1622565962.928917] [holy7c04301:258106:0]          mpool.c:43   UCX  WARN  object 0x42d7000 was not returned to mpool ucp_requests
[1622565962.928936] [holy7c04301:258106:0]          mpool.c:43   UCX  WARN  object 0x42d71c0 was not returned to mpool ucp_requests
[1622565962.933812] [holy7c04309:196809:0]          mpool.c:43   UCX  WARN  object 0x3e4d600 was not returned to mpool ucp_requests
[1622565962.933831] [holy7c04309:196809:0]          mpool.c:43   UCX  WARN  object 0x3e4d980 was not returned to mpool ucp_requests
[1622565962.935001] [holy7c04304:59102:0]          mpool.c:43   UCX  WARN  object 0x3f30840 was not returned to mpool ucp_requests
[1622565962.934735] [holy7c04401:234810:0]          mpool.c:43   UCX  WARN  object 0x3372380 was not returned to mpool ucp_requests
[1622565962.938258] [holy7c04312:73105:0]          mpool.c:43   UCX  WARN  object 0x34b2380 was not returned to mpool ucp_requests
[1622565962.933217] [holy7c04208:254710:0]          mpool.c:43   UCX  WARN  object 0x3c90b40 was not returned to mpool ucp_requests
[1622565962.935471] [holy7c04211:67813:0]          mpool.c:43   UCX  WARN  object 0x2d75100 was not returned to mpool ucp_requests
[1622565962.935493] [holy7c04211:67813:0]          mpool.c:43   UCX  WARN  object 0x2d75480 was not returned to mpool ucp_requests
[1622565962.936362] [holy7c04211:67816:0]          mpool.c:43   UCX  WARN  object 0x3b26c00 was not returned to mpool ucp_requests
[1622565962.936382] [holy7c04211:67816:0]          mpool.c:43   UCX  WARN  object 0x3b274c0 was not returned to mpool ucp_requests
[1622565962.939053] [holy7c04312:73106:0]          mpool.c:43   UCX  WARN  object 0x2e1b9c0 was not returned to mpool ucp_requests
[1622565962.939565] [holy7c04312:73108:0]          mpool.c:43   UCX  WARN  object 0x281c180 was not returned to mpool ucp_requests
[1622565962.939583] [holy7c04312:73108:0]          mpool.c:43   UCX  WARN  object 0x281c500 was not returned to mpool ucp_requests