     Program PWSCF v.6.5 starts on 28May2021 at 10: 5: 0

     R & G space division:  proc/nbgrp/npool/nimage =      32
     Reading input from YCBCO50_212_Y_cleave_1.75_sep.pwi
Warning: card &IONS ignored
Warning: card     ION_DYNAMICS = 'BFGS' ignored
Warning: card / ignored
Warning: card &CELL ignored
Warning: card     CELL_DYNAMICS = 'BFGS' ignored
Warning: card     PRESS_CONV_THR = 5 ignored
Warning: card / ignored

     Current dimensions of program PWSCF are:
     Max number of different atomic species (ntypx) = 10
     Max number of k-points (npk) =  40000
     Max angular momentum in pseudopotentials (lmaxx) =  3

     Message from routine setup:
     using ibrav=0 with symmetry is DISCOURAGED, use correct ibrav instead

     bravais-lattice index     =            0
     lattice parameter (alat)  =      14.8133  a.u.
     unit-cell volume          =    9063.7339 (a.u.)^3
     number of atoms/cell      =           56
     number of atomic types    =            5
     number of electrons       =       456.00
     number of Kohn-Sham states=          274
     kinetic-energy cutoff     =      60.0000  Ry
     charge density cutoff     =     720.0000  Ry
     convergence threshold     =      1.0E-08
     mixing beta               =       0.5000
     number of iterations used =           10  local-TF  mixing
     Exchange-correlation= SLA PW PBE PBE
                           (   1   4   3   4   0   0   0)

     celldm(1)=  14.813271  celldm(2)=   0.000000  celldm(3)=   0.000000
     celldm(4)=   0.000000  celldm(5)=   0.000000  celldm(6)=   0.000000

     crystal axes: (cart. coord. in units of alat)
               a(1) = (   1.000000   0.000000   0.000000 )
               a(2) = (   0.000000   0.477453   0.000000 )
               a(3) = (   0.000000   0.000000   5.840148 )

     reciprocal axes: (cart. coord. in units 2 pi/alat)
               b(1) = (  1.000000  0.000000  0.000000 )
               b(2) = (  0.000000  2.094448  0.000000 )
               b(3) = (  0.000000  0.000000  0.171229 )

     PseudoPot. # 1 for Ba read from file:
     ./pseudo/Ba.pbe-nsp-van.UPF
     MD5 check sum: 2b9c31dd849566dd297d80989662b7a0
     Pseudo is Ultrasoft + core correction, Zval = 10.0
     Generated by new atomic code, or converted to UPF format
     Using radial grid of  907 points,  6 beta functions with:
                l(1) =   0
                l(2) =   0
                l(3) =   1
                l(4) =   1
                l(5) =   2
                l(6) =   2
     Q(r) pseudized with  6 coefficients,  rinner =    1.200   1.200   1.200
                                                       1.200   1.200

     PseudoPot. # 2 for Ca read from file:
     ./pseudo/Ca.pbe-nsp-van.UPF
     MD5 check sum: 6471098428ff4fa451746d08035ff179
     Pseudo is Ultrasoft + core correction, Zval = 10.0
     Generated by new atomic code, or converted to UPF format
     Using radial grid of  845 points,  6 beta functions with:
                l(1) =   0
                l(2) =   0
                l(3) =   1
                l(4) =   1
                l(5) =   2
                l(6) =   2
     Q(r) pseudized with  6 coefficients,  rinner =    1.200   1.200   1.200
                                                       1.200   1.200

     PseudoPot. # 3 for Cu read from file:
     ./pseudo/Cu.pbe-n-van_ak.UPF
     MD5 check sum: 34e3282627ffb533726feb647e090d62
     Pseudo is Ultrasoft + core correction, Zval = 11.0
     Generated by new atomic code, or converted to UPF format
     Using radial grid of  867 points,  6 beta functions with:
                l(1) =   0
                l(2) =   0
                l(3) =   1
                l(4) =   1
                l(5) =   2
                l(6) =   2
     Q(r) pseudized with  8 coefficients,  rinner =    1.400   1.400   1.400
                                                       1.400   1.400

     PseudoPot. # 4 for O  read from file:
     ./pseudo/O.pbe-van_ak.UPF
     MD5 check sum: 783ce7fe4c79b6a4916957118fed0856
     Pseudo is Ultrasoft, Zval =  6.0
     Generated by new atomic code, or converted to UPF format
     Using radial grid of  737 points,  4 beta functions with:
                l(1) =   0
                l(2) =   0
                l(3) =   1
                l(4) =   1
     Q(r) pseudized with  8 coefficients,  rinner =    0.800   0.800   0.800

     PseudoPot. # 5 for Y  read from file:
     ./pseudo/Y.pbe-nsp-van.UPF
     MD5 check sum: 4412fed3ab108fed87a1b7d6a69a4a38
     Pseudo is Ultrasoft + core correction, Zval = 11.0
     Generated by new atomic code, or converted to UPF format
     Using radial grid of  885 points,  6 beta functions with:
                l(1) =   0
                l(2) =   0
                l(3) =   1
                l(4) =   1
                l(5) =   2
                l(6) =   2
     Q(r) pseudized with  6 coefficients,  rinner =    1.200   1.200   1.200
                                                       1.200   1.200

     atomic species   valence    mass     pseudopotential
        Ba            10.00   137.32700     Ba( 1.00)
        Ca            10.00    40.07800     Ca( 1.00)
        Cu            11.00    63.54600     Cu( 1.00)
        O              6.00    15.99900     O ( 1.00)
        Y             11.00    88.90584     Y ( 1.00)

      4 Sym. Ops. (no inversion) found ( 2 have fractional translation)

   Cartesian axes

     site n.     atom                  positions (alat units)
         1           O   tau(   1) = (  -0.0008343   0.2387265  -0.0222443  )
         2           O   tau(   2) = (   0.5008340   0.2387265  -0.0222443  )
         3           Cu  tau(   3) = (   0.5017257   0.0000000   0.0109608  )
         4           Cu  tau(   4) = (  -0.0017260   0.0000000   0.0109608  )
         5           O   tau(   5) = (  -0.0028933   0.0000000   0.2506504  )
         6           O   tau(   6) = (   0.5028929   0.0000000   0.2506504  )
         7           Ba  tau(   7) = (   0.7499995   0.2387265   0.2749435  )
         8           Ba  tau(   8) = (   0.2499998   0.2387265   0.2755214  )
         9           Cu  tau(   9) = (   0.4980963   0.0000000   0.5208446  )
        10           Cu  tau(  10) = (   0.0019033   0.0000000   0.5208446  )
        11           O   tau(  11) = (   0.2499998   0.0000000   0.5341884  )
        12           O   tau(  12) = (   0.5083351   0.2387265   0.5569851  )
        13           O   tau(  13) = (  -0.0083354   0.2387265   0.5569851  )
        14           O   tau(  14) = (   0.7499995   0.0000000   0.5573831  )
        15           Ca  tau(  15) = (   0.2499998   0.2387265   0.7436937  )
        16           Y   tau(  16) = (   0.7499995   0.2387265   0.7469544  )
        17           O   tau(  17) = (  -0.0063798   0.2387265   0.9248530  )
        18           O   tau(  18) = (   0.5063794   0.2387265   0.9248530  )
        19           O   tau(  19) = (   0.7499995   0.0000000   0.9338544  )
        20           O   tau(  20) = (   0.2499998   0.0000000   0.9461329  )
        21           Cu  tau(  21) = (   0.0015717   0.0000000   0.9686860  )
        22           Cu  tau(  22) = (   0.4984280   0.0000000   0.9686860  )
        23           Ba  tau(  23) = (   0.2499998   0.2387265   1.2085224  )
        24           Ba  tau(  24) = (   0.7499995   0.2387265   1.2233294  )
        25           O   tau(  25) = (   0.0063772   0.0000000   1.2547537  )
        26           O   tau(  26) = (   0.4936224   0.0000000   1.2547537  )
        27           O   tau(  27) = (   0.5384045   0.2387265   1.4952521  )
        28           O   tau(  28) = (  -0.0384049   0.2387265   1.4952521  )
        29           Cu  tau(  29) = (   0.5006120   0.0000000   1.4952546  )
        30           Cu  tau(  30) = (  -0.0006123   0.0000000   1.4952546  )
        31           O   tau(  31) = (   0.4936212   0.0000000   1.7357531  )
        32           O   tau(  32) = (   0.0063785   0.0000000   1.7357531  )
        33           Ba  tau(  33) = (   0.7499995   0.2387265   1.7671824  )
        34           Ba  tau(  34) = (   0.2499998   0.2387265   1.7819920  )
        35           Cu  tau(  35) = (   0.4984280   0.0000000   2.0218232  )
        36           Cu  tau(  36) = (   0.0015717   0.0000000   2.0218232  )
        37           O   tau(  37) = (   0.2499998   0.0000000   2.0443814  )
        38           O   tau(  38) = (   0.7499995   0.0000000   2.0566511  )
        39           O   tau(  39) = (   0.5063781   0.2387265   2.0656562  )
        40           O   tau(  40) = (  -0.0063785   0.2387265   2.0656562  )
        41           Y   tau(  41) = (   0.7499995   0.2387265   2.2435498  )
        42           Ca  tau(  42) = (   0.2499998   0.2387265   2.2468194  )
        43           O   tau(  43) = (   0.7499995   0.0000000   2.6563644  )
        44           O   tau(  44) = (  -0.0083354   0.2387265   2.6567662  )
        45           O   tau(  45) = (   0.5083351   0.2387265   2.6567662  )
        46           O   tau(  46) = (   0.2499998   0.0000000   2.6795642  )
        47           Cu  tau(  47) = (   0.0019059   0.0000000   2.6928978  )
        48           Cu  tau(  48) = (   0.4980938   0.0000000   2.6928978  )
        49           Ba  tau(  49) = (   0.2499998   0.2387265   2.9382375  )
        50           Ba  tau(  50) = (   0.7499995   0.2387265   2.9387797  )
        51           O   tau(  51) = (  -0.0028895   0.0000000   2.9630869  )
        52           O   tau(  52) = (   0.5028891   0.0000000   2.9630869  )
        53           Cu  tau(  53) = (   0.5017844   0.0000000   3.2027714  )
        54           Cu  tau(  54) = (  -0.0017847   0.0000000   3.2027714  )
        55           O   tau(  55) = (   0.5008990   0.2387265   3.2359778  )
        56           O   tau(  56) = (  -0.0008994   0.2387265   3.2359778  )

     number of k points=    25  Gaussian smearing, width (Ry)=  0.0100
                       cart. coord. in units 2pi/alat
        k(    1) = (   0.0000000   0.0000000   0.0000000), wk =   0.0312500
        k(    2) = (   0.0000000   0.2618060   0.0000000), wk =   0.0625000
        k(    3) = (   0.0000000   0.5236121   0.0000000), wk =   0.0625000
        k(    4) = (   0.0000000   0.7854181   0.0000000), wk =   0.0625000
        k(    5) = (   0.0000000  -1.0472241   0.0000000), wk =   0.0312500
        k(    6) = (   0.1250000   0.0000000   0.0000000), wk =   0.0625000
        k(    7) = (   0.1250000   0.2618060   0.0000000), wk =   0.1250000
        k(    8) = (   0.1250000   0.5236121   0.0000000), wk =   0.1250000
        k(    9) = (   0.1250000   0.7854181   0.0000000), wk =   0.1250000
        k(   10) = (   0.1250000  -1.0472241   0.0000000), wk =   0.0625000
        k(   11) = (   0.2500000   0.0000000   0.0000000), wk =   0.0625000
        k(   12) = (   0.2500000   0.2618060   0.0000000), wk =   0.1250000
        k(   13) = (   0.2500000   0.5236121   0.0000000), wk =   0.1250000
        k(   14) = (   0.2500000   0.7854181   0.0000000), wk =   0.1250000
        k(   15) = (   0.2500000  -1.0472241   0.0000000), wk =   0.0625000
        k(   16) = (   0.3750000   0.0000000   0.0000000), wk =   0.0625000
        k(   17) = (   0.3750000   0.2618060   0.0000000), wk =   0.1250000
        k(   18) = (   0.3750000   0.5236121   0.0000000), wk =   0.1250000
        k(   19) = (   0.3750000   0.7854181   0.0000000), wk =   0.1250000
        k(   20) = (   0.3750000  -1.0472241   0.0000000), wk =   0.0625000
        k(   21) = (  -0.5000000   0.0000000   0.0000000), wk =   0.0312500
        k(   22) = (  -0.5000000   0.2618060   0.0000000), wk =   0.0625000
        k(   23) = (  -0.5000000   0.5236121   0.0000000), wk =   0.0625000
        k(   24) = (  -0.5000000   0.7854181   0.0000000), wk =   0.0625000
        k(   25) = (  -0.5000000  -1.0472241   0.0000000), wk =   0.0312500

     Initial potential from superposition of free atoms

     starting charge  455.69457, renormalised to  456.00000

     negative rho (up, down):  9.337E-02 0.000E+00
     Starting wfcs are  396 randomized atomic wfcs

     Self-consistent Calculation

     iteration #  1     ecut=    60.00 Ry     beta= 0.50
     Davidson diagonalization with overlap
     ethr =  1.00E-02,  avg # of iterations =  2.0

     negative rho (up, down):  8.576E-02 0.000E+00

     total energy              =   -3708.33269867 Ry
     Harris-Foulkes estimate   =   -3716.32251148 Ry
     estimated scf accuracy    <      30.85084202 Ry

[...]

     iteration # 13     ecut=    60.00 Ry     beta= 0.50
     Davidson diagonalization with overlap
     c_bands:  1 eigenvalues not converged
     ethr =  2.47E-05,  avg # of iterations =  2.5

[...]

     iteration # 24     ecut=    60.00 Ry     beta= 0.50
     Davidson diagonalization with overlap
     c_bands:  1 eigenvalues not converged
     c_bands:  1 eigenvalues not converged
     ethr =  4.18E-08,  avg # of iterations =  5.3

[...]

     total energy              =   -3711.26262809 Ry
     Harris-Foulkes estimate   =   -3711.26262810 Ry
     estimated scf accuracy    <       0.00000003 Ry

     iteration # 35     ecut=    60.00 Ry     beta= 0.50
     Davidson diagonalization with overlap
     ethr =  7.19E-12,  avg # of iterations =  2.3

[...]

     End of self-consistent calculation

          k = 0.0000 0.0000 0.0000 ( 71173 PWs)   bands (ev):

   -41.2376 -38.6753 -38.0423 -35.6696 -23.0122 -22.8789 -22.8307 -22.7023
   -22.6187 -22.5964 -22.4913 -22.4426 -21.2738 -21.2701 -21.1550 -19.7380
   -19.7107 -19.6527 -18.5175 -18.4133 -18.0455 -17.0176 -16.8823 -16.6993
   -16.1534 -15.6444 -15.4450 -15.4280 -15.0031 -14.9575 -14.8875 -14.8803
   -14.7954 -14.7720 -14.6748 -14.5729 -14.4960 -14.4682 -14.4523 -14.3329
   -14.2539 -14.1173 -14.0716 -14.0082 -14.0023 -13.9956 -13.9764 -13.9747
   -13.9044 -13.7938 -13.7314 -13.7309 -13.5842 -13.4392  -8.3450  -8.2565
    -8.0687  -7.9887  -7.9603  -7.8831  -7.8801  -7.8587  -7.8068  -7.7698
    -7.7616  -7.7420  -7.6940  -7.6939  -7.6737  -7.6456  -7.5884  -7.5482
    -7.5040  -7.4715  -7.4621  -7.4029  -7.3064  -7.2483  -3.5090  -2.9989
    -2.8649  -2.8307  -2.6847  -2.6356  -2.4692  -2.2798  -2.1883  -2.1875
    -2.1494  -2.1149  -2.0998  -2.0712  -2.0569  -1.9164  -1.9004  -1.8527
    -1.8153  -1.6796  -1.6464  -1.6456  -1.5572  -1.5458  -1.5243  -1.4626
    -1.4129  -1.3449  -1.3118  -1.2499  -1.1890  -1.1776  -1.1198  -1.0401
    -1.0368  -1.0227  -0.9482  -0.9351  -0.9336  -0.9327  -0.9241  -0.9225
    -0.8923  -0.8867  -0.7920  -0.7776  -0.7082  -0.6644  -0.6535  -0.6295
    -0.6203  -0.5548  -0.5223  -0.3372  -0.3308  -0.2866  -0.2687  -0.2548
    -0.2376  -0.2102  -0.2019  -0.1756  -0.1496  -0.1452  -0.0985  -0.0483
    -0.0318  -0.0123   0.0089   0.0186   0.0380   0.0433   0.0489   0.0519
     0.0616   0.0946   0.1631   0.1634   0.2527   0.2542   0.2595   0.2636
     0.2955   0.2988   0.3026   0.3303   0.3573   0.3936   0.3988   0.4003
     0.4229   0.4247   0.5105   0.5139   0.5565   0.5602   0.5705   0.5869
     0.5931   0.6056   0.6587   0.7524   0.7537   0.7965   0.8759   0.9690
     1.0275   1.0480   1.0709   1.0801   1.1007   1.1067   1.1665   1.2193
     1.2428   1.2514   1.2572   1.2686   1.2767   1.2883   1.3072   1.3806
     1.3867   1.4426   1.4610   1.4668   1.5618   1.6183   1.6279   1.6771
     1.6835   1.7155   1.7250   1.7547   1.7940   1.8268   1.8293   1.8559
     1.8725   1.9645   2.0320   2.0517   2.0771   2.1026   2.1070   2.1359
     2.1839   2.2747   2.2983   2.3142   2.3319   2.3901   2.4116   2.4813
     2.5247   2.6010   2.6219   2.6776   2.9125   2.9558   3.0921   4.2674
     4.6525   5.0057   5.2642   5.3923   5.4104   5.5758   5.7060   6.0893
     6.2611   6.5394   6.6799   6.7553   6.8759   6.8782   6.9485   7.0989
     7.3145   7.3845   7.4101   7.4129   7.4339   7.5870   7.6304   7.7124
     7.8965   7.9467   8.1084   8.1671   8.1846   8.3472   8.4330   8.5408
     8.5680   8.6926

[...]

          k = 0.3750-1.0472 0.0000 ( 71134 PWs)   bands (ev):

[...]

          k =-0.5000 0.0000 0.0000 ( 71168 PWs)   bands (ev):

[...]

          k =-0.5000-1.0472 0.0000 ( 71164 PWs)   bands (ev):

   -41.2234 -38.6661 -38.0239 -35.6580 -22.8243 -22.7695 -22.6277 -22.5982
   -22.4142 -22.4045 -22.3960 -22.3271 -21.4859 -21.2442 -21.1673 -19.8371
   -19.7299 -19.6487 -18.6858 -18.3431 -18.2225 -17.0905 -16.9138 -16.8096
   -15.7102 -15.4383 -15.4113 -15.0726 -14.7413 -14.6759 -14.6003 -14.5984
   -14.5168 -14.4424 -14.3954 -14.3395 -14.3207 -14.2722 -14.2526 -14.2362
   -14.1501 -14.1332 -14.0651 -14.0313 -14.0208 -14.0103 -13.8834 -13.8826
   -13.8595 -13.8590 -13.8458 -13.8458 -13.8231 -13.7820  -8.6136  -8.4782
    -8.4130  -8.3623  -8.3612  -8.2581  -8.2151  -8.1857  -8.1807  -8.1784
    -8.1413  -8.0878  -8.0841  -8.0644  -7.9856  -7.9831  -7.8920  -7.8818
    -7.8787  -7.8374  -7.7123  -7.6815  -7.6757  -7.6602  -4.3385  -4.0299
    -3.7982  -3.5781  -3.3988  -3.3879  -3.2776  -3.2332  -3.1863  -3.1392
    -3.0103  -3.0096  -2.9791  -2.9694  -2.7716  -2.6900  -2.5850  -2.5324
    -2.3529  -2.2440  -2.2210  -2.2116  -2.1967  -2.1476  -2.1010  -2.0676
    -2.0257  -1.9815  -1.9452  -1.9120  -1.8271  -1.8211  -1.8041  -1.7692
    -1.7075  -1.5964  -1.5633  -1.5464  -1.5361  -1.4397  -1.4271  -1.4212
    -1.3446  -1.1618  -1.1434  -1.1297  -1.1211  -1.0911  -1.0612  -1.0433
    -0.9366  -0.9126  -0.9085  -0.8703  -0.7919  -0.7854  -0.7827  -0.7168
    -0.7039  -0.6872  -0.6739  -0.6607  -0.6536  -0.6021  -0.5286  -0.5188
    -0.5058  -0.4324  -0.3147  -0.2914  -0.2557  -0.2142  -0.1918   0.0682
     0.0786   0.2331   0.2502   0.3448   0.3793   0.3824   0.4783   0.4868
     0.5323   0.5782   0.5970   0.7452   0.7465   0.7789   0.8238   0.9146
     0.9588   0.9915   1.0037   1.0838   1.1201   1.1686   1.1750   1.2143
     1.2337   1.2508   1.2840   1.3169   1.3292   1.3483   1.3608   1.3813
     1.3895   1.4127   1.4135   1.4197   1.4619   1.4925   1.4948   1.5563
     1.5697   1.6279   1.6763   1.6997   1.7003   1.7620   1.7877   1.8110
     1.8183   1.8528   1.8593   1.8823   1.9345   1.9659   1.9935   1.9974
     2.0091   2.0442   2.0637   2.1130   2.1700   2.2392   2.2429   2.2553
     2.2558   2.4490   2.5418   2.5871   2.5960   2.6069   2.6299   2.7456
     2.7575   2.7724   2.8454   2.8579   3.2071   3.2414   3.5260   3.6124
     3.6185   3.7111   3.7491   3.8231   3.9726   3.9886   4.2026   4.3331
     5.3740   5.3991   5.6195   5.6825   5.7998   6.0402   6.6479   6.7707
     6.8175   6.8788   6.8992   6.9690   7.0347   7.1480   7.2447   7.6538
     8.0260   8.1099   8.2033   8.2495   8.2947   8.5376   8.9075   8.9999
     9.0354   9.1542   9.2630   9.4417   9.4837   9.5091   9.5639   9.6011
     9.6111   9.6606

     the Fermi energy is     2.7674 ev

!    total energy              =   -3711.26262810 Ry
     Harris-Foulkes estimate   =   -3711.26262809 Ry
     estimated scf accuracy    <          7.1E-09 Ry

     The total energy is the sum of the following terms:

     one-electron contribution =  -61740.79178968 Ry
     hartree contribution      =   31174.22059623 Ry
     xc contribution           =   -1263.48590812 Ry
     ewald contribution        =   28118.80742925 Ry
     smearing contrib. (-TS)   =      -0.01295578 Ry

     convergence has been achieved in  35 iterations

     negative rho (up, down):  9.107E-02 0.000E+00

     Forces acting on atoms (cartesian axes, Ry/au):

     atom    1 type  4   force =    -0.00001015    0.00000000   -0.00011616
     atom    2 type  4   force =     0.00001015    0.00000000   -0.00011616
     atom    3 type  3   force =    -0.00001420    0.00000000   -0.00003271
     atom    4 type  3   force =     0.00001420    0.00000000   -0.00003271
     atom    5 type  4   force =    -0.00000137    0.00000000   -0.00005859
     atom    6 type  4   force =     0.00000137    0.00000000   -0.00005859
     atom    7 type  1   force =     0.00000000    0.00000000   -0.00010891
     atom    8 type  1   force =     0.00000000    0.00000000   -0.00010003
     atom    9 type  3   force =     0.00002438    0.00000000   -0.00000241
     atom   10 type  3   force =    -0.00002438    0.00000000   -0.00000241
     atom   11 type  4   force =     0.00000000    0.00000000    0.00013611
     atom   12 type  4   force =    -0.00000151    0.00000000    0.00006369
     atom   13 type  4   force =     0.00000151    0.00000000    0.00006369
     atom   14 type  4   force =     0.00000000    0.00000000    0.00018769
     atom   15 type  2   force =     0.00000000    0.00000000   -0.00049192
     atom   16 type  5   force =     0.00000000    0.00000000   -0.00076279
     atom   17 type  4   force =     0.00009474    0.00000000    0.00081577
     atom   18 type  4   force =    -0.00009474    0.00000000    0.00081577
     atom   19 type  4   force =     0.00000000    0.00000000    0.00089315
     atom   20 type  4   force =     0.00000000    0.00000000    0.00114950
     atom   21 type  3   force =    -0.00003792    0.00000000   -0.00119706
     atom   22 type  3   force =     0.00003792    0.00000000   -0.00119706
     atom   23 type  1   force =     0.00000000    0.00000000   -0.00216469
     atom   24 type  1   force =     0.00000000    0.00000000   -0.00228633
     atom   25 type  4   force =    -0.00021020    0.00000000    0.00395542
     atom   26 type  4   force =     0.00021020    0.00000000    0.00395542
     atom   27 type  4   force =    -0.00020492    0.00000000    0.00481595
     atom   28 type  4   force =     0.00020492    0.00000000    0.00481595
     atom   29 type  3   force =     0.00181610    0.00000000   -0.00935067
     atom   30 type  3   force =    -0.00181610    0.00000000   -0.00935067
     atom   31 type  4   force =     0.00004775    0.00000000    0.01370894
     atom   32 type  4   force =    -0.00004775    0.00000000    0.01370894
     atom   33 type  1   force =     0.00000000    0.00000000   -0.02471380
     atom   34 type  1   force =     0.00000000    0.00000000   -0.01775666
     atom   35 type  3   force =    -0.00281253    0.00000000    0.00609437
     atom   36 type  3   force =     0.00281253    0.00000000    0.00609437
     atom   37 type  4   force =     0.00000000    0.00000000    0.05655473
     atom   38 type  4   force =     0.00000000    0.00000000    0.08420589
     atom   39 type  4   force =     0.02168659    0.00000000    0.07150191
     atom   40 type  4   force =    -0.02168659    0.00000000    0.07150191
     atom   41 type  5   force =     0.00000000    0.00000000   -0.09888036
     atom   42 type  2   force =     0.00000000    0.00000000   -0.04846350
     atom   43 type  4   force =     0.00000000    0.00000000   -0.01170348
     atom   44 type  4   force =    -0.00098261    0.00000000   -0.01130244
     atom   45 type  4   force =     0.00098261    0.00000000   -0.01130244
     atom   46 type  4   force =     0.00000000    0.00000000    0.00214207
     atom   47 type  3   force =     0.00116296    0.00000000   -0.02176148
     atom   48 type  3   force =    -0.00116296    0.00000000   -0.02176148
     atom   49 type  1   force =     0.00000000    0.00000000   -0.02175952
     atom   50 type  1   force =     0.00000000    0.00000000   -0.02731879
     atom   51 type  4   force =     0.00069489    0.00000000   -0.00164215
     atom   52 type  4   force =    -0.00069489    0.00000000   -0.00164215
     atom   53 type  3   force =    -0.00015502    0.00000000    0.00027834
     atom   54 type  3   force =     0.00015502    0.00000000    0.00027834
     atom   55 type  4   force =     0.00005984    0.00000000   -0.00014990
     atom   56 type  4   force =    -0.00005984    0.00000000   -0.00014990

     Total force =     0.194485     Total SCF correction =     0.000376

     Computing stress (Cartesian axis) and pressure

     negative rho (up, down):  9.107E-02 0.000E+00
          total   stress  (Ry/bohr**3)                   (kbar)     P=       -8.91
  -0.00000839   0.00000000   0.00000000           -1.23        0.00        0.00
   0.00000000   0.00001408   0.00000000            0.00        2.07        0.00
   0.00000000   0.00000000  -0.00018747            0.00        0.00      -27.58

     General routines

     Parallel routines

   This run was terminated on:  10:37:25  28May2021

   JOB DONE.
[1622212645.633505] [holy7c04405:130362:0]          mpool.c:43   UCX  WARN  object 0x444f740 was not returned to mpool ucp_requests
[1622212645.640412] [holy7c02501:76443:0]          mpool.c:43   UCX  WARN  object 0x380bfc0 was not returned to mpool ucp_requests
[1622212645.637079] [holy7c04310:5860 :0]          mpool.c:43   UCX  WARN  object 0x36aff40 was not returned to mpool ucp_requests
[1622212645.637979] [holy7c04401:11647:0]          mpool.c:43   UCX  WARN  object 0x2b6d3c0 was not returned to mpool ucp_requests
[1622212645.638000] [holy7c04401:11647:0]          mpool.c:43   UCX  WARN  object 0x2b6d740 was not returned to mpool ucp_requests
[1622212645.651580] [holy7c04406:131549:0]          mpool.c:43   UCX  WARN  object 0x44d3200 was not returned to mpool ucp_requests
[1622212645.651604] [holy7c04406:131549:0]          mpool.c:43   UCX  WARN  object 0x44d3580 was not returned to mpool ucp_requests
[1622212645.635958] [holy7c04310:5861 :0]          mpool.c:43   UCX  WARN  object 0x37f8700 was not returned to mpool ucp_requests
[1622212645.635981] [holy7c04310:5861 :0]          mpool.c:43   UCX  WARN  object 0x37f8c40 was not returned to mpool ucp_requests
[1622212645.639492] [holy7c04401:11648:0]          mpool.c:43   UCX  WARN  object 0x4378fc0 was not returned to mpool ucp_requests
[1622212645.644405] [holy7c04403:93770:0]          mpool.c:43   UCX  WARN  object 0x42f9280 was not returned to mpool ucp_requests
[1622212645.644427] [holy7c04403:93770:0]          mpool.c:43   UCX  WARN  object 0x42f9b40 was not returned to mpool ucp_requests
[1622212645.645585] [holy7c04403:93772:0]          mpool.c:43   UCX  WARN  object 0x2aac700 was not returned to mpool ucp_requests
[1622212645.646539] [holy7c04403:93768:0]          mpool.c:43   UCX  WARN  object 0x46b6540 was not returned to mpool ucp_requests
[1622212645.639744] [holy7c04401:11649:0]          mpool.c:43   UCX  WARN  object 0x2efcf80 was not returned to mpool ucp_requests
[1622212645.639761] [holy7c04401:11649:0]          mpool.c:43   UCX  WARN  object 0x2efd300 was not returned to mpool ucp_requests
[1622212645.654990] [holy7c04406:131551:0]          mpool.c:43   UCX  WARN  object 0x32ab3c0 was not returned to mpool ucp_requests
[1622212645.653499] [holy7c04406:131552:0]          mpool.c:43   UCX  WARN  object 0x438f680 was not returned to mpool ucp_requests