     Program PWSCF v.6.5 starts on 25May2021 at 16:37:41

     R & G space division:  proc/nbgrp/npool/nimage =      32
     Reading input from YCBCO50_212_BaO_cleave_2.5_sep.pwi
Warning: card &IONS ignored
Warning: card     ION_DYNAMICS = 'BFGS' ignored
Warning: card / ignored
Warning: card &CELL ignored
Warning: card     CELL_DYNAMICS = 'BFGS' ignored
Warning: card     PRESS_CONV_THR = 5 ignored
Warning: card / ignored

     Current dimensions of program PWSCF are:
     Max number of different atomic species (ntypx) = 10
     Max number of k-points (npk) =  40000
     Max angular momentum in pseudopotentials (lmaxx) =  3

     Message from routine setup:
     using ibrav=0 with symmetry is DISCOURAGED, use correct ibrav instead

     bravais-lattice index     =            0
     lattice parameter (alat)  =      14.8133  a.u.
     unit-cell volume          =    9212.2223 (a.u.)^3
     number of atoms/cell      =           56
     number of atomic types    =            5
     number of electrons       =       456.00
     number of Kohn-Sham states=          274
     kinetic-energy cutoff     =      60.0000  Ry
     charge density cutoff     =     720.0000  Ry
     convergence threshold     =      1.0E-08
     mixing beta               =       0.5000
     number of iterations used =           10  local-TF  mixing
     Exchange-correlation= SLA PW PBE PBE
                           (   1   4   3   4   0   0   0)

     celldm(1)=  14.813271  celldm(2)=   0.000000  celldm(3)=   0.000000
     celldm(4)=   0.000000  celldm(5)=   0.000000  celldm(6)=   0.000000

     crystal axes: (cart. coord. in units of alat)
               a(1) = (   1.000000   0.000000   0.000000 )
               a(2) = (   0.000000   0.477453   0.000000 )
               a(3) = (   0.000000   0.000000   5.935826 )

     reciprocal axes: (cart. coord. in units 2 pi/alat)
               b(1) = (  1.000000  0.000000  0.000000 )
               b(2) = (  0.000000  2.094448  0.000000 )
               b(3) = (  0.000000  0.000000  0.168469 )

     PseudoPot. # 1 for Ba read from file:
     ./pseudo/Ba.pbe-nsp-van.UPF
     MD5 check sum: 2b9c31dd849566dd297d80989662b7a0
     Pseudo is Ultrasoft + core correction, Zval = 10.0
     Generated by new atomic code, or converted to UPF format
     Using radial grid of  907 points,  6 beta functions with:
                l(1) =   0
                l(2) =   0
                l(3) =   1
                l(4) =   1
                l(5) =   2
                l(6) =   2
     Q(r) pseudized with  6 coefficients,  rinner =    1.200   1.200   1.200
                                                       1.200   1.200

     PseudoPot. # 2 for Ca read from file:
     ./pseudo/Ca.pbe-nsp-van.UPF
     MD5 check sum: 6471098428ff4fa451746d08035ff179
     Pseudo is Ultrasoft + core correction, Zval = 10.0
     Generated by new atomic code, or converted to UPF format
     Using radial grid of  845 points,  6 beta functions with:
                l(1) =   0
                l(2) =   0
                l(3) =   1
                l(4) =   1
                l(5) =   2
                l(6) =   2
     Q(r) pseudized with  6 coefficients,  rinner =    1.200   1.200   1.200
                                                       1.200   1.200

     PseudoPot. # 3 for Cu read from file:
     ./pseudo/Cu.pbe-n-van_ak.UPF
     MD5 check sum: 34e3282627ffb533726feb647e090d62
     Pseudo is Ultrasoft + core correction, Zval = 11.0
     Generated by new atomic code, or converted to UPF format
     Using radial grid of  867 points,  6 beta functions with:
                l(1) =   0
                l(2) =   0
                l(3) =   1
                l(4) =   1
                l(5) =   2
                l(6) =   2
     Q(r) pseudized with  8 coefficients,  rinner =    1.400   1.400   1.400
                                                       1.400   1.400

     PseudoPot. # 4 for O  read from file:
     ./pseudo/O.pbe-van_ak.UPF
     MD5 check sum: 783ce7fe4c79b6a4916957118fed0856
     Pseudo is Ultrasoft, Zval =  6.0
     Generated by new atomic code, or converted to UPF format
     Using radial grid of  737 points,  4 beta functions with:
                l(1) =   0
                l(2) =   0
                l(3) =   1
                l(4) =   1
     Q(r) pseudized with  8 coefficients,  rinner =    0.800   0.800   0.800

     PseudoPot. # 5 for Y  read from file:
     ./pseudo/Y.pbe-nsp-van.UPF
     MD5 check sum: 4412fed3ab108fed87a1b7d6a69a4a38
     Pseudo is Ultrasoft + core correction, Zval = 11.0
     Generated by new atomic code, or converted to UPF format
     Using radial grid of  885 points,  6 beta functions with:
                l(1) =   0
                l(2) =   0
                l(3) =   1
                l(4) =   1
                l(5) =   2
                l(6) =   2
     Q(r) pseudized with  6 coefficients,  rinner =    1.200   1.200   1.200
                                                       1.200   1.200

     atomic species   valence    mass     pseudopotential
        Ba            10.00   137.32700     Ba( 1.00)
        Ca            10.00    40.07800     Ca( 1.00)
        Cu            11.00    63.54600     Cu( 1.00)
        O              6.00    15.99900     O ( 1.00)
        Y             11.00    88.90584     Y ( 1.00)

      4 Sym. Ops. (no inversion) found ( 2 have fractional translation)

   Cartesian axes

     site n.     atom                  positions (alat units)
         1           O   tau(   1) = (  -0.0008343   0.2387265  -0.0222443  )
         2           O   tau(   2) = (   0.5008340   0.2387265  -0.0222443  )
         3           Cu  tau(   3) = (   0.5017257   0.0000000   0.0109608  )
         4           Cu  tau(   4) = (  -0.0017260   0.0000000   0.0109608  )
         5           O   tau(   5) = (  -0.0028933   0.0000000   0.2506504  )
         6           O   tau(   6) = (   0.5028929   0.0000000   0.2506504  )
         7           Ba  tau(   7) = (   0.7499995   0.2387265   0.2749435  )
         8           Ba  tau(   8) = (   0.2499998   0.2387265   0.2755214  )
         9           Cu  tau(   9) = (   0.4980963   0.0000000   0.5208446  )
        10           Cu  tau(  10) = (   0.0019033   0.0000000   0.5208446  )
        11           O   tau(  11) = (   0.2499998   0.0000000   0.5341884  )
        12           O   tau(  12) = (   0.5083351   0.2387265   0.5569851  )
        13           O   tau(  13) = (  -0.0083354   0.2387265   0.5569851  )
        14           O   tau(  14) = (   0.7499995   0.0000000   0.5573831  )
        15           Ca  tau(  15) = (   0.2499998   0.2387265   0.7436937  )
        16           Y   tau(  16) = (   0.7499995   0.2387265   0.7469544  )
        17           O   tau(  17) = (  -0.0063798   0.2387265   0.9248530  )
        18           O   tau(  18) = (   0.5063794   0.2387265   0.9248530  )
        19           O   tau(  19) = (   0.7499995   0.0000000   0.9338544  )
        20           O   tau(  20) = (   0.2499998   0.0000000   0.9461329  )
        21           Cu  tau(  21) = (   0.0015717   0.0000000   0.9686860  )
        22           Cu  tau(  22) = (   0.4984280   0.0000000   0.9686860  )
        23           Ba  tau(  23) = (   0.2499998   0.2387265   1.2085224  )
        24           Ba  tau(  24) = (   0.7499995   0.2387265   1.2233294  )
        25           O   tau(  25) = (   0.0063772   0.0000000   1.2547537  )
        26           O   tau(  26) = (   0.4936224   0.0000000   1.2547537  )
        27           O   tau(  27) = (   0.5384045   0.2387265   1.4952521  )
        28           O   tau(  28) = (  -0.0384049   0.2387265   1.4952521  )
        29           Cu  tau(  29) = (   0.5006120   0.0000000   1.4952546  )
        30           Cu  tau(  30) = (  -0.0006123   0.0000000   1.4952546  )
        31           O   tau(  31) = (   0.4936212   0.0000000   1.7357531  )
        32           O   tau(  32) = (   0.0063785   0.0000000   1.7357531  )
        33           Ba  tau(  33) = (   0.7499995   0.2387265   1.7671824  )
        34           Ba  tau(  34) = (   0.2499998   0.2387265   1.7819920  )
        35           Cu  tau(  35) = (   0.4984280   0.0000000   2.3407478  )
        36           Cu  tau(  36) = (   0.0015717   0.0000000   2.3407478  )
        37           O   tau(  37) = (   0.2499998   0.0000000   2.3633059  )
        38           O   tau(  38) = (   0.7499995   0.0000000   2.3755756  )
        39           O   tau(  39) = (   0.5063781   0.2387265   2.3845807  )
        40           O   tau(  40) = (  -0.0063785   0.2387265   2.3845807  )
        41           Y   tau(  41) = (   0.7499995   0.2387265   2.5624743  )
        42           Ca  tau(  42) = (   0.2499998   0.2387265   2.5657439  )
        43           O   tau(  43) = (   0.7499995   0.0000000   2.7520417  )
        44           O   tau(  44) = (  -0.0083354   0.2387265   2.7524436  )
        45           O   tau(  45) = (   0.5083351   0.2387265   2.7524436  )
        46           O   tau(  46) = (   0.2499998   0.0000000   2.7752416  )
        47           Cu  tau(  47) = (   0.0019059   0.0000000   2.7885752  )
        48           Cu  tau(  48) = (   0.4980938   0.0000000   2.7885752  )
        49           Ba  tau(  49) = (   0.2499998   0.2387265   3.0339149  )
        50           Ba  tau(  50) = (   0.7499995   0.2387265   3.0344571  )
        51           O   tau(  51) = (  -0.0028895   0.0000000   3.0587642  )
        52           O   tau(  52) = (   0.5028891   0.0000000   3.0587642  )
        53           Cu  tau(  53) = (   0.5017844   0.0000000   3.2984487  )
        54           Cu  tau(  54) = (  -0.0017847   0.0000000   3.2984487  )
        55           O   tau(  55) = (   0.5008990   0.2387265   3.3316552  )
        56           O   tau(  56) = (  -0.0008994   0.2387265   3.3316552  )

     number of k points=    25  Gaussian smearing, width (Ry)=  0.0100
                       cart. coord. in units 2pi/alat
        k(    1) = (   0.0000000   0.0000000   0.0000000), wk =   0.0312500
        k(    2) = (   0.0000000   0.2618060   0.0000000), wk =   0.0625000
        k(    3) = (   0.0000000   0.5236121   0.0000000), wk =   0.0625000
        k(    4) = (   0.0000000   0.7854181   0.0000000), wk =   0.0625000
        k(    5) = (   0.0000000  -1.0472241   0.0000000), wk =   0.0312500
        k(    6) = (   0.1250000   0.0000000   0.0000000), wk =   0.0625000
        k(    7) = (   0.1250000   0.2618060   0.0000000), wk =   0.1250000
        k(    8) = (   0.1250000   0.5236121   0.0000000), wk =   0.1250000
        k(    9) = (   0.1250000   0.7854181   0.0000000), wk =   0.1250000
        k(   10) = (   0.1250000  -1.0472241   0.0000000), wk =   0.0625000
        k(   11) = (   0.2500000   0.0000000   0.0000000), wk =   0.0625000
        k(   12) = (   0.2500000   0.2618060   0.0000000), wk =   0.1250000
        k(   13) = (   0.2500000   0.5236121   0.0000000), wk =   0.1250000
        k(   14) = (   0.2500000   0.7854181   0.0000000), wk =   0.1250000
        k(   15) = (   0.2500000  -1.0472241   0.0000000), wk =   0.0625000
        k(   16) = (   0.3750000   0.0000000   0.0000000), wk =   0.0625000
        k(   17) = (   0.3750000   0.2618060   0.0000000), wk =   0.1250000
        k(   18) = (   0.3750000   0.5236121   0.0000000), wk =   0.1250000
        k(   19) = (   0.3750000   0.7854181   0.0000000), wk =   0.1250000
        k(   20) = (   0.3750000  -1.0472241   0.0000000), wk =   0.0625000
        k(   21) = (  -0.5000000   0.0000000   0.0000000), wk =   0.0312500
        k(   22) = (  -0.5000000   0.2618060   0.0000000), wk =   0.0625000
        k(   23) = (  -0.5000000   0.5236121   0.0000000), wk =   0.0625000
        k(   24) = (  -0.5000000   0.7854181   0.0000000), wk =   0.0625000
        k(   25) = (  -0.5000000  -1.0472241   0.0000000), wk =   0.0312500

     Initial potential from superposition of free atoms

     starting charge  455.69457, renormalised to  456.00000

     negative rho (up, down):  9.322E-02 0.000E+00
     Starting wfcs are  396 randomized atomic wfcs

     Self-consistent Calculation

     iteration #  1     ecut=    60.00 Ry     beta= 0.50
     Davidson diagonalization with overlap
     ethr =  1.00E-02,  avg # of iterations =  2.0

     negative rho (up, down):  8.633E-02 0.000E+00

     total energy              =   -3708.27557938 Ry
     Harris-Foulkes estimate   =   -3716.58448016 Ry
     estimated scf accuracy    <      33.40907534 Ry

[...]

     iteration # 11     ecut=    60.00 Ry     beta= 0.50
     Davidson diagonalization with overlap
     c_bands:  2 eigenvalues not converged
     ethr =  3.30E-05,  avg # of iterations =  9.4

[...]

     iteration # 24     ecut=    60.00 Ry     beta= 0.50
     Davidson diagonalization with overlap
     c_bands:  1 eigenvalues not converged
     ethr =  1.48E-07,  avg # of iterations =  4.7

[...]

     total energy              =   -3711.61662245 Ry
     Harris-Foulkes estimate   =   -3711.61662244 Ry
     estimated scf accuracy    <       0.00000009 Ry

     iteration # 35     ecut=    60.00 Ry     beta= 0.50
     Davidson diagonalization with overlap
     ethr =  1.11E-11,  avg # of iterations =  1.0

[...]

     End of self-consistent calculation

          k = 0.0000 0.0000 0.0000 ( 72345 PWs)   bands (ev):

   -38.2390 -37.9269 -35.8677 -35.5179 -24.4936 -24.0880 -23.0170 -22.9928
   -22.8887 -22.8751 -22.8650 -22.7273 -18.7141 -18.6097 -18.3733 -18.3192
   -18.2422 -17.9384 -17.2156 -17.0800 -16.8976 -16.8377 -16.7539 -16.5587
   -15.6237 -15.3813 -15.3673 -15.2014 -15.1787 -15.1359 -14.8745 -14.7690
   -14.7197 -14.6929 -14.6667 -14.6548 -14.5521 -14.4956 -14.4000 -14.3348
   -14.3105 -14.2117 -14.2045 -14.1981 -14.1944 -14.1822 -14.1576 -14.1041
   -14.0952 -14.0673 -14.0550 -13.8832 -13.7421 -13.5103  -9.8580  -9.3744
    -9.2475  -9.2161  -8.8888  -8.8553  -8.2555  -8.2261  -8.1603  -8.1403
    -8.1214  -8.0664  -8.0624  -8.0444  -7.9283  -7.9046  -7.8713  -7.8318
    -7.8098  -7.7499  -7.6903  -7.6885  -7.6667  -7.5284  -3.1872  -3.1429
    -3.0308  -2.6196  -2.3728  -2.3604  -2.2871  -2.2788  -2.2761  -2.2501
    -2.2457  -2.1259  -2.0919  -2.0481  -2.0153  -1.9498  -1.8813  -1.8715
    -1.8422  -1.8316  -1.8228  -1.7507  -1.7414  -1.7185  -1.6210  -1.5369
    -1.4583  -1.4145  -1.3383  -1.3321  -1.3116  -1.2668  -1.2637  -1.2119
    -1.1205  -1.1200  -1.1199  -1.1184  -1.1025  -1.0717  -1.0715  -0.9739
    -0.9478  -0.9389  -0.9130  -0.8934  -0.8874  -0.8671  -0.8486  -0.7273
    -0.6890  -0.6744  -0.5534  -0.4540  -0.4487  -0.4456  -0.3956  -0.3870
    -0.3350  -0.3308  -0.3283  -0.3252  -0.2991  -0.2475  -0.2371  -0.2090
    -0.1931  -0.1571  -0.1416  -0.1349  -0.1271  -0.1149  -0.0581  -0.0251
    -0.0225  -0.0179  -0.0122  -0.0121   0.0198   0.0359   0.0735   0.0748
     0.1123   0.1141   0.1545   0.1637   0.1740   0.1988   0.2157   0.2470
     0.2764   0.3256   0.3847   0.3925   0.4062   0.4073   0.4177   0.4447
     0.5011   0.5732   0.5742   0.6194   0.6427   0.8411   0.8551   0.8593
     0.8844   0.8858   0.9052   0.9162   0.9526   0.9651   1.0041   1.0218
     1.0250   1.0477   1.0762   1.0798   1.0982   1.1055   1.1469   1.1675
     1.1984   1.2336   1.2548   1.2600   1.2775   1.3002   1.3974   1.4247
     1.4930   1.4965   1.5601   1.5702   1.5749   1.6040   1.6434   1.6464
     1.6581   1.6744   1.7576   1.7674   1.8275   1.8421   1.9136   1.9277
     1.9695   2.0486   2.1027   2.1067   2.1308   2.1748   2.2443   2.3164
     2.4227   2.4338   2.4368   2.5103   2.7169   2.7314   4.3627   5.0433
     5.0838   5.1594   5.5850   5.8151   6.0999   6.1808   6.3607   6.4882
     6.5358   6.7704   7.1284   7.1467   7.2165   7.2251   7.2268   7.4580
     7.4774   7.6533   7.8104   7.9194   7.9723   7.9886   8.1437   8.2558
     8.2950   8.3272   8.3586   8.3821   8.4621   8.5127   8.5386   8.7339
     8.8332   8.8622

[...]

          k = 0.3750-1.0472 0.0000 ( 72290 PWs)   bands (ev):

[...]

          k =-0.5000 0.0000 0.0000 ( 72396 PWs)   bands (ev):

[...]

          k =-0.5000-1.0472 0.0000 ( 72268 PWs)   bands (ev):

   -38.2206 -37.9083 -35.8561 -35.5062 -24.3595 -23.9663 -22.8141 -22.7883
   -22.7845 -22.7622 -22.6912 -22.6139 -18.8824 -18.5808 -18.5396 -18.4193
   -18.2486 -18.0752 -17.2887 -17.1114 -17.0076 -16.9520 -16.7864 -16.6256
   -14.9325 -14.8629 -14.8475 -14.8332 -14.7356 -14.7098 -14.6808 -14.6316
   -14.5855 -14.5759 -14.5202 -14.5109 -14.5050 -14.4973 -14.4690 -14.4527
   -14.4365 -14.3309 -14.3115 -14.2645 -14.1072 -14.0792 -14.0682 -14.0679
   -14.0674 -14.0671 -13.9856 -13.9712 -13.7583 -13.5786  -9.8683  -9.7277
    -9.6808  -9.5756  -9.2209  -9.1693  -8.5993  -8.5742  -8.5486  -8.5264
    -8.4637  -8.3587  -8.2742  -8.2507  -8.2505  -8.2292  -8.1812  -8.1723
    -8.1672  -8.1447  -8.1441  -8.1268  -7.9748  -7.9669  -3.9902  -3.8797
    -3.7784  -3.6918  -3.6902  -3.6452  -3.5541  -3.4460  -3.2241  -3.1965
    -3.1952  -3.1944  -3.1874  -3.0662  -2.5394  -2.5183  -2.4300  -2.4050
    -2.4035  -2.3347  -2.3086  -2.2328  -2.2001  -2.1821  -2.1780  -2.1484
    -2.1376  -2.1235  -2.1135  -2.0687  -2.0531  -2.0457  -1.8995  -1.8706
    -1.8615  -1.8275  -1.6622  -1.6230  -1.6064  -1.5655  -1.5200  -1.4422
    -1.4389  -1.4081  -1.3094  -1.2861  -1.2800  -1.2652  -1.1743  -1.0639
    -1.0060  -0.9874  -0.9780  -0.9050  -0.9026  -0.9006  -0.8881  -0.8739
    -0.8632  -0.8614  -0.7238  -0.7121  -0.7079  -0.6903  -0.6472  -0.5976
    -0.5279  -0.5220  -0.4990  -0.4674  -0.2627  -0.2158  -0.2111  -0.1992
     0.0540   0.1032   0.1262   0.1292   0.3319   0.3411   0.3412   0.3539
     0.3993   0.4265   0.4440   0.5776   0.5992   0.6350   0.6783   0.7127
     0.7691   0.7724   0.8946   0.9613   0.9756   1.0112   1.0121   1.0330
     1.0649   1.0788   1.0969   1.1598   1.2142   1.2157   1.2165   1.2358
     1.2744   1.2912   1.3029   1.3406   1.3452   1.3585   1.3610   1.3716
     1.3918   1.4204   1.4570   1.4582   1.4678   1.4696   1.5058   1.5103
     1.6293   1.6796   1.6948   1.7020   1.7308   1.7483   1.7575   1.7705
     1.7845   1.8663   1.9325   1.9979   2.0419   2.0448   2.0543   2.0545
     2.0569   2.1354   2.2087   2.2487   2.4023   2.4028   2.4112   2.4125
     2.5718   2.5771   2.5864   2.5922   3.3348   3.4061   3.4214   3.5150
     3.5185   3.5937   3.7387   3.7421   3.7853   3.8167   5.2908   5.5611
     6.3667   6.5850   6.5963   6.6222   6.6267   6.6742   6.7930   6.8234
     6.9370   6.9630   7.3276   7.4538   7.5014   7.7514   8.1399   8.2952
     8.2985   8.5361   8.8321   9.0214   9.0857   9.1250   9.2190   9.2519
     9.2842   9.2877   9.3099   9.3555   9.4935   9.5182   9.5857   9.5915
     9.6147   9.6487

     the Fermi energy is     2.5830 ev

!    total energy              =   -3711.61662244 Ry
     Harris-Foulkes estimate   =   -3711.61662245 Ry
     estimated scf accuracy    <          5.8E-09 Ry

     The total energy is the sum of the following terms:

     one-electron contribution =  -55952.77792528 Ry
     hartree contribution      =   28279.29792201 Ry
     xc contribution           =   -1263.75508898 Ry
     ewald contribution        =   25225.63272526 Ry
     smearing contrib. (-TS)   =      -0.01425546 Ry

     convergence has been achieved in  35 iterations

     negative rho (up, down):  9.221E-02 0.000E+00

     Forces acting on atoms (cartesian axes, Ry/au):

     atom    1 type  4   force =    -0.00000949    0.00000000   -0.00010145
     atom    2 type  4   force =     0.00000949    0.00000000   -0.00010145
     atom    3 type  3   force =    -0.00001003    0.00000000   -0.00004451
     atom    4 type  3   force =     0.00001003    0.00000000   -0.00004451
     atom    5 type  4   force =     0.00000372    0.00000000   -0.00003407
     atom    6 type  4   force =    -0.00000372    0.00000000   -0.00003407
     atom    7 type  1   force =     0.00000000    0.00000000   -0.00019319
     atom    8 type  1   force =     0.00000000    0.00000000   -0.00017842
     atom    9 type  3   force =     0.00004713    0.00000000   -0.00002501
     atom   10 type  3   force =    -0.00004713    0.00000000   -0.00002501
     atom   11 type  4   force =     0.00000000    0.00000000    0.00025996
     atom   12 type  4   force =     0.00000595    0.00000000    0.00026561
     atom   13 type  4   force =    -0.00000595    0.00000000    0.00026561
     atom   14 type  4   force =     0.00000000    0.00000000    0.00040507
     atom   15 type  2   force =     0.00000000    0.00000000   -0.00104944
     atom   16 type  5   force =     0.00000000    0.00000000   -0.00160601
     atom   17 type  4   force =     0.00018074    0.00000000    0.00185431
     atom   18 type  4   force =    -0.00018074    0.00000000    0.00185431
     atom   19 type  4   force =     0.00000000    0.00000000    0.00212055
     atom   20 type  4   force =     0.00000000    0.00000000    0.00263335
     atom   21 type  3   force =    -0.00012738    0.00000000   -0.00216675
     atom   22 type  3   force =     0.00012738    0.00000000   -0.00216675
     atom   23 type  1   force =     0.00000000    0.00000000   -0.00635361
     atom   24 type  1   force =     0.00000000    0.00000000   -0.00725486
     atom   25 type  4   force =    -0.00095387    0.00000000    0.00641123
     atom   26 type  4   force =     0.00095387    0.00000000    0.00641123
     atom   27 type  4   force =    -0.00030794    0.00000000    0.01582100
     atom   28 type  4   force =     0.00030794    0.00000000    0.01582100
     atom   29 type  3   force =     0.00329667    0.00000000   -0.01604001
     atom   30 type  3   force =    -0.00329667    0.00000000   -0.01604001
     atom   31 type  4   force =    -0.01010885    0.00000000    0.03121574
     atom   32 type  4   force =     0.01010885    0.00000000    0.03121574
     atom   33 type  1   force =     0.00000000    0.00000000   -0.03008656
     atom   34 type  1   force =     0.00000000    0.00000000   -0.01693978
     atom   35 type  3   force =    -0.00926596    0.00000000   -0.00301062
     atom   36 type  3   force =     0.00926596    0.00000000   -0.00301062
     atom   37 type  4   force =     0.00000000    0.00000000    0.00996670
     atom   38 type  4   force =     0.00000000    0.00000000    0.01478002
     atom   39 type  4   force =     0.00209948    0.00000000    0.00722981
     atom   40 type  4   force =    -0.00209948    0.00000000    0.00722981
     atom   41 type  5   force =     0.00000000    0.00000000   -0.03760512
     atom   42 type  2   force =     0.00000000    0.00000000   -0.02917348
     atom   43 type  4   force =     0.00000000    0.00000000    0.00574810
     atom   44 type  4   force =     0.00045314    0.00000000    0.00286625
     atom   45 type  4   force =    -0.00045314    0.00000000    0.00286625
     atom   46 type  4   force =     0.00000000    0.00000000    0.00420933
     atom   47 type  3   force =     0.00055604    0.00000000    0.00115026
     atom   48 type  3   force =    -0.00055604    0.00000000    0.00115026
     atom   49 type  1   force =     0.00000000    0.00000000   -0.00090288
     atom   50 type  1   force =     0.00000000    0.00000000   -0.00106512
     atom   51 type  4   force =     0.00007714    0.00000000    0.00079071
     atom   52 type  4   force =    -0.00007714    0.00000000    0.00079071
     atom   53 type  3   force =    -0.00004550    0.00000000   -0.00028929
     atom   54 type  3   force =     0.00004550    0.00000000   -0.00028929
     atom   55 type  4   force =     0.00000226    0.00000000    0.00024950
     atom   56 type  4   force =    -0.00000226    0.00000000    0.00024950

     Total force =     0.086903     Total SCF correction =     0.000418

     Computing stress (Cartesian axis) and pressure

     negative rho (up, down):  9.221E-02 0.000E+00
          total   stress  (Ry/bohr**3)                   (kbar)     P=       -7.16
  -0.00007907   0.00000000   0.00000000          -11.63        0.00        0.00
   0.00000000  -0.00003747   0.00000000            0.00       -5.51        0.00
   0.00000000   0.00000000  -0.00002939            0.00        0.00       -4.32

     General routines

     Parallel routines

   This run was terminated on:  17:13:42  25May2021

   JOB DONE.
[1621977222.679307] [holy7c08306:129431:0]          mpool.c:43   UCX  WARN  object 0x3b5d780 was not returned to mpool ucp_requests
[1621977222.679326] [holy7c08306:129431:0]          mpool.c:43   UCX  WARN  object 0x3b5e200 was not returned to mpool ucp_requests
[1621977222.681986] [holy7c08401:77226:0]          mpool.c:43   UCX  WARN  object 0x2905380 was not returned to mpool ucp_requests
[1621977222.681307] [holy7c08208:10920:0]          mpool.c:43   UCX  WARN  object 0x3fad3c0 was not returned to mpool ucp_requests
[1621977222.686087] [holy7c06608:271154:0]          mpool.c:43   UCX  WARN  object 0x450c8c0 was not returned to mpool ucp_requests
[1621977222.686115] [holy7c06608:271154:0]          mpool.c:43   UCX  WARN  object 0x450cc40 was not returned to mpool ucp_requests
[1621977222.687305] [holy7c08404:201108:0]          mpool.c:43   UCX  WARN  object 0x4340880 was not returned to mpool ucp_requests
[1621977222.688876] [holy7c06607:121997:0]          mpool.c:43   UCX  WARN  object 0x3670a40 was not returned to mpool ucp_requests
[1621977222.690741] [holy7c08108:216144:0]          mpool.c:43   UCX  WARN  object 0x31755c0 was not returned to mpool ucp_requests
[1621977222.690756] [holy7c08108:216144:0]          mpool.c:43   UCX  WARN  object 0x3175940 was not returned to mpool ucp_requests
[1621977222.692223] [holy7c08105:51010:0]          mpool.c:43   UCX  WARN  object 0x42cf800 was not returned to mpool ucp_requests
[1621977222.692359] [holy7c06510:182576:0]          mpool.c:43   UCX  WARN  object 0x3846cc0 was not returned to mpool ucp_requests
[1621977222.686479] [holy7c06602:79049:0]          mpool.c:43   UCX  WARN  object 0x455d500 was not returned to mpool ucp_requests
[1621977222.686502] [holy7c06602:79049:0]          mpool.c:43   UCX  WARN  object 0x455da40 was not returned to mpool ucp_requests
[1621977222.689756] [holy7c08208:10919:0]          mpool.c:43   UCX  WARN  object 0x300d140 was not returned to mpool ucp_requests
[1621977222.690189] [holy7c06607:121998:0]          mpool.c:43   UCX  WARN  object 0x31f8600 was not returned to mpool ucp_requests
[1621977222.693014] [holy7c08105:51011:0]          mpool.c:43   UCX  WARN  object 0x2f6c600 was not returned to mpool ucp_requests
[1621977222.695679] [holy7c06510:182577:0]          mpool.c:43   UCX  WARN  object 0x3a658c0 was not returned to mpool ucp_requests