     Program PWSCF v.6.5 starts on 25May2021 at 16:36:34

     R & G space division:  proc/nbgrp/npool/nimage =      32
     Reading input from YCBCO50_212_BaO_cleave_1.75_sep.pwi
Warning: card &IONS ignored
Warning: card     ION_DYNAMICS = 'BFGS' ignored
Warning: card / ignored
Warning: card &CELL ignored
Warning: card     CELL_DYNAMICS = 'BFGS' ignored
Warning: card     PRESS_CONV_THR = 5 ignored
Warning: card / ignored

     Current dimensions of program PWSCF are:
     Max number of different atomic species (ntypx) = 10
     Max number of k-points (npk) =  40000
     Max angular momentum in pseudopotentials (lmaxx) =  3

     Message from routine setup:
     using ibrav=0 with symmetry is DISCOURAGED, use correct ibrav instead

     bravais-lattice index     =            0
     lattice parameter (alat)  =      14.8133  a.u.
     unit-cell volume          =    9063.7339 (a.u.)^3
     number of atoms/cell      =           56
     number of atomic types    =            5
     number of electrons       =       456.00
     number of Kohn-Sham states=          274
     kinetic-energy cutoff     =      60.0000  Ry
     charge density cutoff     =     720.0000  Ry
     convergence threshold     =      1.0E-08
     mixing beta               =       0.5000
     number of iterations used =           10  local-TF  mixing
     Exchange-correlation= SLA PW PBE PBE
                           (   1   4   3   4   0   0   0)

     celldm(1)=  14.813271  celldm(2)=   0.000000  celldm(3)=   0.000000
     celldm(4)=   0.000000  celldm(5)=   0.000000  celldm(6)=   0.000000

     crystal axes: (cart. coord. in units of alat)
               a(1) = (   1.000000   0.000000   0.000000 )
               a(2) = (   0.000000   0.477453   0.000000 )
               a(3) = (   0.000000   0.000000   5.840148 )

     reciprocal axes: (cart. coord. in units 2 pi/alat)
               b(1) = (  1.000000  0.000000  0.000000 )
               b(2) = (  0.000000  2.094448  0.000000 )
               b(3) = (  0.000000  0.000000  0.171229 )

     PseudoPot. # 1 for Ba read from file:
     ./pseudo/Ba.pbe-nsp-van.UPF
     MD5 check sum: 2b9c31dd849566dd297d80989662b7a0
     Pseudo is Ultrasoft + core correction, Zval = 10.0
     Generated by new atomic code, or converted to UPF format
     Using radial grid of  907 points,  6 beta functions with:
                l(1) =   0
                l(2) =   0
                l(3) =   1
                l(4) =   1
                l(5) =   2
                l(6) =   2
     Q(r) pseudized with  6 coefficients,  rinner =    1.200   1.200   1.200
                                                       1.200   1.200

     PseudoPot. # 2 for Ca read from file:
     ./pseudo/Ca.pbe-nsp-van.UPF
     MD5 check sum: 6471098428ff4fa451746d08035ff179
     Pseudo is Ultrasoft + core correction, Zval = 10.0
     Generated by new atomic code, or converted to UPF format
     Using radial grid of  845 points,  6 beta functions with:
                l(1) =   0
                l(2) =   0
                l(3) =   1
                l(4) =   1
                l(5) =   2
                l(6) =   2
     Q(r) pseudized with  6 coefficients,  rinner =    1.200   1.200   1.200
                                                       1.200   1.200

     PseudoPot. # 3 for Cu read from file:
     ./pseudo/Cu.pbe-n-van_ak.UPF
     MD5 check sum: 34e3282627ffb533726feb647e090d62
     Pseudo is Ultrasoft + core correction, Zval = 11.0
     Generated by new atomic code, or converted to UPF format
     Using radial grid of  867 points,  6 beta functions with:
                l(1) =   0
                l(2) =   0
                l(3) =   1
                l(4) =   1
                l(5) =   2
                l(6) =   2
     Q(r) pseudized with  8 coefficients,  rinner =    1.400   1.400   1.400
                                                       1.400   1.400

     PseudoPot. # 4 for O  read from file:
     ./pseudo/O.pbe-van_ak.UPF
     MD5 check sum: 783ce7fe4c79b6a4916957118fed0856
     Pseudo is Ultrasoft, Zval =  6.0
     Generated by new atomic code, or converted to UPF format
     Using radial grid of  737 points,  4 beta functions with:
                l(1) =   0
                l(2) =   0
                l(3) =   1
                l(4) =   1
     Q(r) pseudized with  8 coefficients,  rinner =    0.800   0.800   0.800

     PseudoPot. # 5 for Y  read from file:
     ./pseudo/Y.pbe-nsp-van.UPF
     MD5 check sum: 4412fed3ab108fed87a1b7d6a69a4a38
     Pseudo is Ultrasoft + core correction, Zval = 11.0
     Generated by new atomic code, or converted to UPF format
     Using radial grid of  885 points,  6 beta functions with:
                l(1) =   0
                l(2) =   0
                l(3) =   1
                l(4) =   1
                l(5) =   2
                l(6) =   2
     Q(r) pseudized with  6 coefficients,  rinner =    1.200   1.200   1.200
                                                       1.200   1.200

     atomic species   valence    mass     pseudopotential
        Ba            10.00   137.32700     Ba( 1.00)
        Ca            10.00    40.07800     Ca( 1.00)
        Cu            11.00    63.54600     Cu( 1.00)
        O              6.00    15.99900     O ( 1.00)
        Y             11.00    88.90584     Y ( 1.00)

      4 Sym. Ops. (no inversion) found ( 2 have fractional translation)

   Cartesian axes

     site n.     atom                  positions (alat units)
         1           O   tau(   1) = (  -0.0008343   0.2387265  -0.0222443  )
         2           O   tau(   2) = (   0.5008340   0.2387265  -0.0222443  )
         3           Cu  tau(   3) = (   0.5017257   0.0000000   0.0109608  )
         4           Cu  tau(   4) = (  -0.0017260   0.0000000   0.0109608  )
         5           O   tau(   5) = (  -0.0028933   0.0000000   0.2506504  )
         6           O   tau(   6) = (   0.5028929   0.0000000   0.2506504  )
         7           Ba  tau(   7) = (   0.7499995   0.2387265   0.2749435  )
         8           Ba  tau(   8) = (   0.2499998   0.2387265   0.2755214  )
         9           Cu  tau(   9) = (   0.4980963   0.0000000   0.5208446  )
        10           Cu  tau(  10) = (   0.0019033   0.0000000   0.5208446  )
        11           O   tau(  11) = (   0.2499998   0.0000000   0.5341884  )
        12           O   tau(  12) = (   0.5083351   0.2387265   0.5569851  )
        13           O   tau(  13) = (  -0.0083354   0.2387265   0.5569851  )
        14           O   tau(  14) = (   0.7499995   0.0000000   0.5573831  )
        15           Ca  tau(  15) = (   0.2499998   0.2387265   0.7436937  )
        16           Y   tau(  16) = (   0.7499995   0.2387265   0.7469544  )
        17           O   tau(  17) = (  -0.0063798   0.2387265   0.9248530  )
        18           O   tau(  18) = (   0.5063794   0.2387265   0.9248530  )
        19           O   tau(  19) = (   0.7499995   0.0000000   0.9338544  )
        20           O   tau(  20) = (   0.2499998   0.0000000   0.9461329  )
        21           Cu  tau(  21) = (   0.0015717   0.0000000   0.9686860  )
        22           Cu  tau(  22) = (   0.4984280   0.0000000   0.9686860  )
        23           Ba  tau(  23) = (   0.2499998   0.2387265   1.2085224  )
        24           Ba  tau(  24) = (   0.7499995   0.2387265   1.2233294  )
        25           O   tau(  25) = (   0.0063772   0.0000000   1.2547537  )
        26           O   tau(  26) = (   0.4936224   0.0000000   1.2547537  )
        27           O   tau(  27) = (   0.5384045   0.2387265   1.4952521  )
        28           O   tau(  28) = (  -0.0384049   0.2387265   1.4952521  )
        29           Cu  tau(  29) = (   0.5006120   0.0000000   1.4952546  )
        30           Cu  tau(  30) = (  -0.0006123   0.0000000   1.4952546  )
        31           O   tau(  31) = (   0.4936212   0.0000000   1.7357531  )
        32           O   tau(  32) = (   0.0063785   0.0000000   1.7357531  )
        33           Ba  tau(  33) = (   0.7499995   0.2387265   1.7671824  )
        34           Ba  tau(  34) = (   0.2499998   0.2387265   1.7819920  )
        35           Cu  tau(  35) = (   0.4984280   0.0000000   2.2450704  )
        36           Cu  tau(  36) = (   0.0015717   0.0000000   2.2450704  )
        37           O   tau(  37) = (   0.2499998   0.0000000   2.2676286  )
        38           O   tau(  38) = (   0.7499995   0.0000000   2.2798982  )
        39           O   tau(  39) = (   0.5063781   0.2387265   2.2889034  )
        40           O   tau(  40) = (  -0.0063785   0.2387265   2.2889034  )
        41           Y   tau(  41) = (   0.7499995   0.2387265   2.4667969  )
        42           Ca  tau(  42) = (   0.2499998   0.2387265   2.4700665  )
        43           O   tau(  43) = (   0.7499995   0.0000000   2.6563644  )
        44           O   tau(  44) = (  -0.0083354   0.2387265   2.6567662  )
        45           O   tau(  45) = (   0.5083351   0.2387265   2.6567662  )
        46           O   tau(  46) = (   0.2499998   0.0000000   2.6795642  )
        47           Cu  tau(  47) = (   0.0019059   0.0000000   2.6928978  )
        48           Cu  tau(  48) = (   0.4980938   0.0000000   2.6928978  )
        49           Ba  tau(  49) = (   0.2499998   0.2387265   2.9382375  )
        50           Ba  tau(  50) = (   0.7499995   0.2387265   2.9387797  )
        51           O   tau(  51) = (  -0.0028895   0.0000000   2.9630869  )
        52           O   tau(  52) = (   0.5028891   0.0000000   2.9630869  )
        53           Cu  tau(  53) = (   0.5017844   0.0000000   3.2027714  )
        54           Cu  tau(  54) = (  -0.0017847   0.0000000   3.2027714  )
        55           O   tau(  55) = (   0.5008990   0.2387265   3.2359778  )
        56           O   tau(  56) = (  -0.0008994   0.2387265   3.2359778  )

     number of k points=    25  Gaussian smearing, width (Ry)=  0.0100
                       cart. coord. in units 2pi/alat
        k(    1) = (   0.0000000   0.0000000   0.0000000), wk =   0.0312500
        k(    2) = (   0.0000000   0.2618060   0.0000000), wk =   0.0625000
        k(    3) = (   0.0000000   0.5236121   0.0000000), wk =   0.0625000
        k(    4) = (   0.0000000   0.7854181   0.0000000), wk =   0.0625000
        k(    5) = (   0.0000000  -1.0472241   0.0000000), wk =   0.0312500
        k(    6) = (   0.1250000   0.0000000   0.0000000), wk =   0.0625000
        k(    7) = (   0.1250000   0.2618060   0.0000000), wk =   0.1250000
        k(    8) = (   0.1250000   0.5236121   0.0000000), wk =   0.1250000
        k(    9) = (   0.1250000   0.7854181   0.0000000), wk =   0.1250000
        k(   10) = (   0.1250000  -1.0472241   0.0000000), wk =   0.0625000
        k(   11) = (   0.2500000   0.0000000   0.0000000), wk =   0.0625000
        k(   12) = (   0.2500000   0.2618060   0.0000000), wk =   0.1250000
        k(   13) = (   0.2500000   0.5236121   0.0000000), wk =   0.1250000
        k(   14) = (   0.2500000   0.7854181   0.0000000), wk =   0.1250000
        k(   15) = (   0.2500000  -1.0472241   0.0000000), wk =   0.0625000
        k(   16) = (   0.3750000   0.0000000   0.0000000), wk =   0.0625000
        k(   17) = (   0.3750000   0.2618060   0.0000000), wk =   0.1250000
        k(   18) = (   0.3750000   0.5236121   0.0000000), wk =   0.1250000
        k(   19) = (   0.3750000   0.7854181   0.0000000), wk =   0.1250000
        k(   20) = (   0.3750000  -1.0472241   0.0000000), wk =   0.0625000
        k(   21) = (  -0.5000000   0.0000000   0.0000000), wk =   0.0312500
        k(   22) = (  -0.5000000   0.2618060   0.0000000), wk =   0.0625000
        k(   23) = (  -0.5000000   0.5236121   0.0000000), wk =   0.0625000
        k(   24) = (  -0.5000000   0.7854181   0.0000000), wk =   0.0625000
        k(   25) = (  -0.5000000  -1.0472241   0.0000000), wk =   0.0312500

     Initial potential from superposition of free atoms

     starting charge  455.69457, renormalised to  456.00000

     negative rho (up, down):  9.307E-02 0.000E+00
     Starting wfcs are  396 randomized atomic wfcs

     Self-consistent Calculation

     iteration #  1     ecut=    60.00 Ry     beta= 0.50
     Davidson diagonalization with overlap
     ethr =  1.00E-02,  avg # of iterations =  2.0

     negative rho (up, down):  8.623E-02 0.000E+00

     total energy              =   -3708.28863743 Ry
     Harris-Foulkes estimate   =   -3716.54004414 Ry
     estimated scf accuracy    <      32.29724339 Ry

[...]

     iteration # 11     ecut=    60.00 Ry     beta= 0.50
     Davidson diagonalization with overlap
     c_bands:  1 eigenvalues not converged
     c_bands:  1 eigenvalues not converged
     ethr =  3.17E-05,  avg # of iterations = 10.2

[...]

     iteration # 25     ecut=    60.00 Ry     beta= 0.50
     Davidson diagonalization with overlap
     c_bands:  1 eigenvalues not converged
     ethr =  3.65E-08,  avg # of iterations =  5.8

[...]

     total energy              =   -3711.64697430 Ry
     Harris-Foulkes estimate   =   -3711.64697430 Ry
     estimated scf accuracy    <       0.00000001 Ry

     iteration # 36     ecut=    60.00 Ry     beta= 0.50
     Davidson diagonalization with overlap
     ethr =  2.97E-12,  avg # of iterations =  1.0

[...]

     End of self-consistent calculation

          k = 0.0000 0.0000 0.0000 ( 71173 PWs)   bands (ev):

   -38.1533 -37.8780 -35.7812 -35.4707 -24.0855 -23.7284 -22.9345 -22.9133
   -22.8062 -22.7855 -22.7663 -22.6173 -18.6284 -18.5241 -18.3242 -18.2680
   -18.1564 -17.8898 -17.1292 -16.9937 -16.8109 -16.7896 -16.7044 -16.5120
   -15.5383 -15.3181 -15.2097 -15.0942 -15.0567 -15.0546 -14.7871 -14.6835
   -14.6463 -14.6068 -14.5861 -14.5723 -14.4493 -14.4299 -14.2885 -14.2257
   -14.2085 -14.1351 -14.1285 -14.1122 -14.1116 -14.0997 -14.0800 -14.0472
   -14.0171 -13.9131 -13.8281 -13.7603 -13.7115 -13.4879  -9.4280  -9.0060
    -8.8620  -8.8183  -8.5427  -8.4970  -8.1728  -8.1470  -8.0671  -8.0420
    -8.0405  -7.9839  -7.9647  -7.9517  -7.8458  -7.8251  -7.7617  -7.7494
    -7.7301  -7.6409  -7.6078  -7.5871  -7.5777  -7.4192  -3.1040  -3.0651
    -2.9429  -2.5778  -2.2905  -2.2795  -2.2034  -2.1974  -2.1654  -2.1407
    -2.1159  -2.0511  -2.0047  -1.9628  -1.9284  -1.8764  -1.7873  -1.7741
    -1.7563  -1.7519  -1.6997  -1.6777  -1.6699  -1.6555  -1.5555  -1.4526
    -1.3769  -1.3418  -1.2797  -1.2272  -1.2076  -1.1354  -1.1136  -1.0957
    -1.0387  -1.0382  -1.0379  -1.0364  -1.0068  -0.9742  -0.9690  -0.8810
    -0.8478  -0.8310  -0.8142  -0.8123  -0.8113  -0.8061  -0.6786  -0.6758
    -0.6269  -0.5547  -0.4610  -0.3810  -0.3719  -0.3673  -0.3097  -0.2884
    -0.2528  -0.2485  -0.2470  -0.2437  -0.1882  -0.1729  -0.1480  -0.1268
    -0.1001  -0.0734  -0.0594  -0.0582  -0.0503  -0.0281   0.0108   0.0582
     0.0598   0.0685   0.0881   0.0988   0.1009   0.1032   0.1553   0.1567
     0.1942   0.1960   0.2195   0.2536   0.2857   0.2979   0.3196   0.3439
     0.4104   0.4162   0.4670   0.4739   0.4869   0.4894   0.4909   0.4947
     0.5954   0.6190   0.6256   0.7027   0.7427   0.9105   0.9240   0.9245
     0.9461   0.9708   0.9713   1.0251   1.0260   1.0521   1.0951   1.0958
     1.1436   1.1606   1.1647   1.2184   1.2239   1.2245   1.2329   1.2438
     1.2855   1.3260   1.3492   1.3527   1.3712   1.3720   1.5140   1.5144
     1.5709   1.6512   1.6563   1.6651   1.7194   1.7258   1.7370   1.7418
     1.7680   1.7877   1.8094   1.8551   1.8706   1.9867   1.9966   2.0067
     2.0093   2.1538   2.1600   2.1905   2.2093   2.2492   2.3460   2.3487
     2.5154   2.5160   2.5174   2.5751   2.8011   2.8056   4.7618   5.1631
     5.1875   5.4963   5.7602   5.9723   6.4621   6.5091   6.5477   6.5874
     6.6891   7.2040   7.2165   7.2281   7.3071   7.3086   7.4752   7.6557
     7.8792   7.9607   7.9952   8.0320   8.0743   8.0877   8.2357   8.3081
     8.3858   8.4297   8.4728   8.5800   8.5923   8.7901   8.9059   8.9136
     8.9344   9.0554

[...]

          k = 0.3750-1.0472 0.0000 ( 71134 PWs)   bands (ev):

[...]

          k =-0.5000 0.0000 0.0000 ( 71168 PWs)   bands (ev):

[...]

          k =-0.5000-1.0472 0.0000 ( 71164 PWs)   bands (ev):

   -38.1349 -37.8595 -35.7696 -35.4591 -23.9496 -23.6072 -22.7316 -22.7089
   -22.7020 -22.6826 -22.5827 -22.5034 -18.7965 -18.5317 -18.4539 -18.3336
   -18.1977 -18.0265 -17.2021 -17.0251 -16.9212 -16.9044 -16.7366 -16.5784
   -14.8483 -14.7802 -14.7698 -14.7534 -14.6249 -14.6002 -14.5455 -14.5452
   -14.5017 -14.4627 -14.4457 -14.4446 -14.4293 -14.3666 -14.3508 -14.2880
   -14.2570 -14.2526 -14.1912 -14.1389 -13.9893 -13.9865 -13.9861 -13.9857
   -13.9854 -13.9695 -13.9462 -13.9327 -13.7268 -13.5591  -9.4771  -9.3317
    -9.2959  -9.1840  -8.8532  -8.8269  -8.5168  -8.4948  -8.4662  -8.4467
    -8.3536  -8.2502  -8.1917  -8.1709  -8.1683  -8.1494  -8.0897  -8.0881
    -8.0676  -8.0653  -8.0650  -8.0163  -7.8630  -7.8531  -3.9057  -3.8052
    -3.6894  -3.6130  -3.5784  -3.5379  -3.4588  -3.3583  -3.1733  -3.1154
    -3.1131  -3.1124  -3.1095  -3.0187  -2.4568  -2.4385  -2.3470  -2.3236
    -2.2964  -2.2286  -2.2189  -2.1290  -2.1124  -2.1053  -2.0981  -2.0655
    -2.0389  -2.0285  -2.0230  -1.9699  -1.9679  -1.9410  -1.8490  -1.8267
    -1.7477  -1.7268  -1.5769  -1.5731  -1.5475  -1.4727  -1.4643  -1.3724
    -1.3277  -1.3014  -1.2240  -1.2077  -1.1951  -1.1869  -1.0246  -0.9218
    -0.9177  -0.9009  -0.8935  -0.8253  -0.8249  -0.8215  -0.8092  -0.7915
    -0.7835  -0.7801  -0.6678  -0.6676  -0.6343  -0.5507  -0.5278  -0.4655
    -0.4504  -0.4457  -0.4126  -0.3650  -0.2284  -0.1767  -0.0986  -0.0778
     0.1239   0.1733   0.2226   0.2230   0.4195   0.4247   0.4323   0.4584
     0.4860   0.5740   0.5859   0.6473   0.6682   0.7069   0.8247   0.8769
     0.9154   0.9457   0.9914   1.0603   1.0740   1.0860   1.0903   1.1237
     1.1478   1.1594   1.1729   1.2443   1.2931   1.2992   1.3025   1.3028
     1.3035   1.3786   1.3872   1.4188   1.4293   1.4532   1.4674   1.4842
     1.4883   1.5238   1.5292   1.5462   1.5463   1.5889   1.6164   1.6529
     1.7003   1.7435   1.7555   1.7649   1.8311   1.8555   1.8596   1.8677
     1.8820   1.9522   2.0198   2.0565   2.1180   2.1358   2.1363   2.1391
     2.1813   2.2003   2.2586   2.2908   2.4843   2.4844   2.4932   2.4939
     2.6541   2.6578   2.6689   2.6728   3.4200   3.4832   3.5059   3.5902
     3.6032   3.6819   3.7941   3.8433   3.8749   3.9542   5.5602   5.8685
     6.5245   6.6673   6.6768   6.7068   6.7770   6.9133   7.0794   7.0954
     7.2254   7.2971   7.5411   7.6936   7.7312   8.1002   8.3315   8.5330
     8.5400   8.5987   8.9935   9.1274   9.1977   9.3231   9.3354   9.3673
     9.3749   9.3782   9.3977   9.4397   9.6886   9.7078   9.7133   9.7503
     9.7925   9.8236

     the Fermi energy is     2.6650 ev

!    total energy              =   -3711.64697431 Ry
     Harris-Foulkes estimate   =   -3711.64697430 Ry
     estimated scf accuracy    <          7.1E-09 Ry

     The total energy is the sum of the following terms:

     one-electron contribution =  -58347.69751523 Ry
     hartree contribution      =   29478.39960392 Ry
     xc contribution           =   -1263.76597991 Ry
     ewald contribution        =   26421.43037808 Ry
     smearing contrib. (-TS)   =      -0.01346117 Ry

     convergence has been achieved in  36 iterations

     negative rho (up, down):  9.200E-02 0.000E+00

     Forces acting on atoms (cartesian axes, Ry/au):

     atom    1 type  4   force =    -0.00001053    0.00000000   -0.00011593
     atom    2 type  4   force =     0.00001053    0.00000000   -0.00011593
     atom    3 type  3   force =    -0.00001136    0.00000000   -0.00008811
     atom    4 type  3   force =     0.00001136    0.00000000   -0.00008811
     atom    5 type  4   force =     0.00000370    0.00000000   -0.00004564
     atom    6 type  4   force =    -0.00000370    0.00000000   -0.00004564
     atom    7 type  1   force =     0.00000000    0.00000000   -0.00017520
     atom    8 type  1   force =     0.00000000    0.00000000   -0.00016642
     atom    9 type  3   force =     0.00002454    0.00000000    0.00003671
     atom   10 type  3   force =    -0.00002454    0.00000000    0.00003671
     atom   11 type  4   force =     0.00000000    0.00000000    0.00019944
     atom   12 type  4   force =     0.00000517    0.00000000    0.00019403
     atom   13 type  4   force =    -0.00000517    0.00000000    0.00019403
     atom   14 type  4   force =     0.00000000    0.00000000    0.00030939
     atom   15 type  2   force =     0.00000000    0.00000000   -0.00087428
     atom   16 type  5   force =     0.00000000    0.00000000   -0.00135047
     atom   17 type  4   force =     0.00015133    0.00000000    0.00142818
     atom   18 type  4   force =    -0.00015133    0.00000000    0.00142818
     atom   19 type  4   force =     0.00000000    0.00000000    0.00167242
     atom   20 type  4   force =     0.00000000    0.00000000    0.00209746
     atom   21 type  3   force =    -0.00009934    0.00000000   -0.00166522
     atom   22 type  3   force =     0.00009934    0.00000000   -0.00166522
     atom   23 type  1   force =     0.00000000    0.00000000   -0.00531040
     atom   24 type  1   force =     0.00000000    0.00000000   -0.00606595
     atom   25 type  4   force =    -0.00081927    0.00000000    0.00575399
     atom   26 type  4   force =     0.00081927    0.00000000    0.00575399
     atom   27 type  4   force =     0.00029883    0.00000000    0.01288027
     atom   28 type  4   force =    -0.00029883    0.00000000    0.01288027
     atom   29 type  3   force =     0.00211123    0.00000000   -0.01130259
     atom   30 type  3   force =    -0.00211123    0.00000000   -0.01130259
     atom   31 type  4   force =    -0.00867249    0.00000000    0.01972484
     atom   32 type  4   force =     0.00867249    0.00000000    0.01972484
     atom   33 type  1   force =     0.00000000    0.00000000   -0.01546062
     atom   34 type  1   force =     0.00000000    0.00000000   -0.00095763
     atom   35 type  3   force =    -0.00828049    0.00000000   -0.00017423
     atom   36 type  3   force =     0.00828049    0.00000000   -0.00017423
     atom   37 type  4   force =     0.00000000    0.00000000    0.00298102
     atom   38 type  4   force =     0.00000000    0.00000000    0.01003256
     atom   39 type  4   force =     0.00188338    0.00000000    0.00357218
     atom   40 type  4   force =    -0.00188338    0.00000000    0.00357218
     atom   41 type  5   force =     0.00000000    0.00000000   -0.03496270
     atom   42 type  2   force =     0.00000000    0.00000000   -0.02768196
     atom   43 type  4   force =     0.00000000    0.00000000    0.00495078
     atom   44 type  4   force =     0.00037026    0.00000000    0.00252159
     atom   45 type  4   force =    -0.00037026    0.00000000    0.00252159
     atom   46 type  4   force =     0.00000000    0.00000000    0.00370305
     atom   47 type  3   force =     0.00055279    0.00000000    0.00098702
     atom   48 type  3   force =    -0.00055279    0.00000000    0.00098702
     atom   49 type  1   force =     0.00000000    0.00000000   -0.00082059
     atom   50 type  1   force =     0.00000000    0.00000000   -0.00096731
     atom   51 type  4   force =     0.00007314    0.00000000    0.00074336
     atom   52 type  4   force =    -0.00007314    0.00000000    0.00074336
     atom   53 type  3   force =    -0.00003916    0.00000000   -0.00028544
     atom   54 type  3   force =     0.00003916    0.00000000   -0.00028544
     atom   55 type  4   force =     0.00000223    0.00000000    0.00025871
     atom   56 type  4   force =    -0.00000223    0.00000000    0.00025871

     Total force =     0.065131     Total SCF correction =     0.000290

     Computing stress (Cartesian axis) and pressure

     negative rho (up, down):  9.200E-02 0.000E+00
          total   stress  (Ry/bohr**3)                   (kbar)     P=       -7.29
  -0.00007229   0.00000000   0.00000000          -10.63        0.00        0.00
   0.00000000  -0.00003870   0.00000000            0.00       -5.69        0.00
   0.00000000   0.00000000  -0.00003765            0.00        0.00       -5.54

     General routines

     Parallel routines

   This run was terminated on:  17:10: 0  25May2021

   JOB DONE.
[1621977000.960118] [holy7c04401:67742:0]          mpool.c:43   UCX  WARN  object 0x438eb40 was not returned to mpool ucp_requests
[1621977000.959930] [holy7c04104:40746:0]          mpool.c:43   UCX  WARN  object 0x46c9e40 was not returned to mpool ucp_requests
[1621977000.960354] [holy7c04401:67741:0]          mpool.c:43   UCX  WARN  object 0x2b931c0 was not returned to mpool ucp_requests
[1621977000.963841] [holy7c04106:107655:0]          mpool.c:43   UCX  WARN  object 0x31a6a00 was not returned to mpool ucp_requests
[1621977000.964927] [holy7c04209:202169:0]          mpool.c:43   UCX  WARN  object 0x31969c0 was not returned to mpool ucp_requests
[1621977000.965228] [holy7c04309:187961:0]          mpool.c:43   UCX  WARN  object 0x28e5940 was not returned to mpool ucp_requests
[1621977000.968813] [holy7c04306:113075:0]          mpool.c:43   UCX  WARN  object 0x3519b40 was not returned to mpool ucp_requests
[1621977000.968488] [holy7c04310:249317:0]          mpool.c:43   UCX  WARN  object 0x3e38200 was not returned to mpool ucp_requests
[1621977000.968505] [holy7c04310:249317:0]          mpool.c:43   UCX  WARN  object 0x3e383c0 was not returned to mpool ucp_requests
[1621977000.969717] [holy7c04208:111270:0]          mpool.c:43   UCX  WARN  object 0x2fc0400 was not returned to mpool ucp_requests
[1621977000.970832] [holy7c04107:9249 :0]          mpool.c:43   UCX  WARN  object 0x2b80d40 was not returned to mpool ucp_requests
[1621977000.970853] [holy7c04107:9249 :0]          mpool.c:43   UCX  WARN  object 0x2b81440 was not returned to mpool ucp_requests
[1621977000.970460] [holy7c04111:112130:0]          mpool.c:43   UCX  WARN  object 0x3810280 was not returned to mpool ucp_requests
[1621977000.970504] [holy7c04111:112131:0]          mpool.c:43   UCX  WARN  object 0x3cdb2c0 was not returned to mpool ucp_requests
[1621977000.966142] [holy7c04210:51187:0]          mpool.c:43   UCX  WARN  object 0x27ea100 was not returned to mpool ucp_requests
[1621977000.966159] [holy7c04210:51187:0]          mpool.c:43   UCX  WARN  object 0x27ea2c0 was not returned to mpool ucp_requests
[1621977000.986616] [holy7c04201:177831:0]          mpool.c:43   UCX  WARN  object 0x2e79140 was not returned to mpool ucp_requests
[1621977000.986644] [holy7c04201:177831:0]          mpool.c:43   UCX  WARN  object 0x2e79a00 was not returned to mpool ucp_requests