     Program PWSCF v.6.5 starts on 28May2021 at 10: 5: 1

     R & G space division:  proc/nbgrp/npool/nimage =      32
     Reading input from YCBCO50_212_Y_cleave_2.0_sep.pwi
Warning: card &IONS ignored
Warning: card     ION_DYNAMICS = 'BFGS' ignored
Warning: card / ignored
Warning: card &CELL ignored
Warning: card     CELL_DYNAMICS = 'BFGS' ignored
Warning: card     PRESS_CONV_THR = 5 ignored
Warning: card / ignored

     Current dimensions of program PWSCF are:
     Max number of different atomic species (ntypx) = 10
     Max number of k-points (npk) =  40000
     Max angular momentum in pseudopotentials (lmaxx) =  3

     Message from routine setup:
     using ibrav=0 with symmetry is DISCOURAGED, use correct ibrav instead

     bravais-lattice index     =            0
     lattice parameter (alat)  =      14.8133  a.u.
     unit-cell volume          =    9113.2300 (a.u.)^3
     number of atoms/cell      =           56
     number of atomic types    =            5
     number of electrons       =       456.00
     number of Kohn-Sham states=          274
     kinetic-energy cutoff     =      60.0000  Ry
     charge density cutoff     =     720.0000  Ry
     convergence threshold     =      1.0E-08
     mixing beta               =       0.5000
     number of iterations used =           10  local-TF  mixing
     Exchange-correlation= SLA PW PBE PBE
                           (   1   4   3   4   0   0   0)

     celldm(1)=  14.813271  celldm(2)=   0.000000  celldm(3)=   0.000000
     celldm(4)=   0.000000  celldm(5)=   0.000000  celldm(6)=   0.000000

     crystal axes: (cart. coord. in units of alat)
               a(1) = (   1.000000   0.000000   0.000000 )
               a(2) = (   0.000000   0.477453   0.000000 )
               a(3) = (   0.000000   0.000000   5.872041 )

     reciprocal axes: (cart. coord. in units 2 pi/alat)
               b(1) = (  1.000000  0.000000  0.000000 )
               b(2) = (  0.000000  2.094448  0.000000 )
               b(3) = (  0.000000  0.000000  0.170299 )

     PseudoPot. # 1 for Ba read from file:
     ./pseudo/Ba.pbe-nsp-van.UPF
     MD5 check sum: 2b9c31dd849566dd297d80989662b7a0
     Pseudo is Ultrasoft + core correction, Zval = 10.0
     Generated by new atomic code, or converted to UPF format
     Using radial grid of  907 points,  6 beta functions with:
                l(1) =   0
                l(2) =   0
                l(3) =   1
                l(4) =   1
                l(5) =   2
                l(6) =   2
     Q(r) pseudized with  6 coefficients,  rinner =    1.200   1.200   1.200
                                                       1.200   1.200

     PseudoPot. # 2 for Ca read from file:
     ./pseudo/Ca.pbe-nsp-van.UPF
     MD5 check sum: 6471098428ff4fa451746d08035ff179
     Pseudo is Ultrasoft + core correction, Zval = 10.0
     Generated by new atomic code, or converted to UPF format
     Using radial grid of  845 points,  6 beta functions with:
                l(1) =   0
                l(2) =   0
                l(3) =   1
                l(4) =   1
                l(5) =   2
                l(6) =   2
     Q(r) pseudized with  6 coefficients,  rinner =    1.200   1.200   1.200
                                                       1.200   1.200

     PseudoPot. # 3 for Cu read from file:
     ./pseudo/Cu.pbe-n-van_ak.UPF
     MD5 check sum: 34e3282627ffb533726feb647e090d62
     Pseudo is Ultrasoft + core correction, Zval = 11.0
     Generated by new atomic code, or converted to UPF format
     Using radial grid of  867 points,  6 beta functions with:
                l(1) =   0
                l(2) =   0
                l(3) =   1
                l(4) =   1
                l(5) =   2
                l(6) =   2
     Q(r) pseudized with  8 coefficients,  rinner =    1.400   1.400   1.400
                                                       1.400   1.400

     PseudoPot. # 4 for O  read from file:
     ./pseudo/O.pbe-van_ak.UPF
     MD5 check sum: 783ce7fe4c79b6a4916957118fed0856
     Pseudo is Ultrasoft, Zval =  6.0
     Generated by new atomic code, or converted to UPF format
     Using radial grid of  737 points,  4 beta functions with:
                l(1) =   0
                l(2) =   0
                l(3) =   1
                l(4) =   1
     Q(r) pseudized with  8 coefficients,  rinner =    0.800   0.800   0.800

     PseudoPot. # 5 for Y  read from file:
     ./pseudo/Y.pbe-nsp-van.UPF
     MD5 check sum: 4412fed3ab108fed87a1b7d6a69a4a38
     Pseudo is Ultrasoft + core correction, Zval = 11.0
     Generated by new atomic code, or converted to UPF format
     Using radial grid of  885 points,  6 beta functions with:
                l(1) =   0
                l(2) =   0
                l(3) =   1
                l(4) =   1
                l(5) =   2
                l(6) =   2
     Q(r) pseudized with  6 coefficients,  rinner =    1.200   1.200   1.200
                                                       1.200   1.200

     atomic species   valence    mass     pseudopotential
        Ba            10.00   137.32700     Ba( 1.00)
        Ca            10.00    40.07800     Ca( 1.00)
        Cu            11.00    63.54600     Cu( 1.00)
        O              6.00    15.99900     O ( 1.00)
        Y             11.00    88.90584     Y ( 1.00)

      4 Sym. Ops. (no inversion) found ( 2 have fractional translation)

   Cartesian axes

     site n.     atom                  positions (alat units)
         1           O   tau(   1) = (  -0.0008343   0.2387265  -0.0222443  )
         2           O   tau(   2) = (   0.5008340   0.2387265  -0.0222443  )
         3           Cu  tau(   3) = (   0.5017257   0.0000000   0.0109608  )
         4           Cu  tau(   4) = (  -0.0017260   0.0000000   0.0109608  )
         5           O   tau(   5) = (  -0.0028933   0.0000000   0.2506504  )
         6           O   tau(   6) = (   0.5028929   0.0000000   0.2506504  )
         7           Ba  tau(   7) = (   0.7499995   0.2387265   0.2749435  )
         8           Ba  tau(   8) = (   0.2499998   0.2387265   0.2755214  )
         9           Cu  tau(   9) = (   0.4980963   0.0000000   0.5208446  )
        10           Cu  tau(  10) = (   0.0019033   0.0000000   0.5208446  )
        11           O   tau(  11) = (   0.2499998   0.0000000   0.5341884  )
        12           O   tau(  12) = (   0.5083351   0.2387265   0.5569851  )
        13           O   tau(  13) = (  -0.0083354   0.2387265   0.5569851  )
        14           O   tau(  14) = (   0.7499995   0.0000000   0.5573831  )
        15           Ca  tau(  15) = (   0.2499998   0.2387265   0.7436937  )
        16           Y   tau(  16) = (   0.7499995   0.2387265   0.7469544  )
        17           O   tau(  17) = (  -0.0063798   0.2387265   0.9248530  )
        18           O   tau(  18) = (   0.5063794   0.2387265   0.9248530  )
        19           O   tau(  19) = (   0.7499995   0.0000000   0.9338544  )
        20           O   tau(  20) = (   0.2499998   0.0000000   0.9461329  )
        21           Cu  tau(  21) = (   0.0015717   0.0000000   0.9686860  )
        22           Cu  tau(  22) = (   0.4984280   0.0000000   0.9686860  )
        23           Ba  tau(  23) = (   0.2499998   0.2387265   1.2085224  )
        24           Ba  tau(  24) = (   0.7499995   0.2387265   1.2233294  )
        25           O   tau(  25) = (   0.0063772   0.0000000   1.2547537  )
        26           O   tau(  26) = (   0.4936224   0.0000000   1.2547537  )
        27           O   tau(  27) = (   0.5384045   0.2387265   1.4952521  )
        28           O   tau(  28) = (  -0.0384049   0.2387265   1.4952521  )
        29           Cu  tau(  29) = (   0.5006120   0.0000000   1.4952546  )
        30           Cu  tau(  30) = (  -0.0006123   0.0000000   1.4952546  )
        31           O   tau(  31) = (   0.4936212   0.0000000   1.7357531  )
        32           O   tau(  32) = (   0.0063785   0.0000000   1.7357531  )
        33           Ba  tau(  33) = (   0.7499995   0.2387265   1.7671824  )
        34           Ba  tau(  34) = (   0.2499998   0.2387265   1.7819920  )
        35           Cu  tau(  35) = (   0.4984280   0.0000000   2.0218232  )
        36           Cu  tau(  36) = (   0.0015717   0.0000000   2.0218232  )
        37           O   tau(  37) = (   0.2499998   0.0000000   2.0443814  )
        38           O   tau(  38) = (   0.7499995   0.0000000   2.0566511  )
        39           O   tau(  39) = (   0.5063781   0.2387265   2.0656562  )
        40           O   tau(  40) = (  -0.0063785   0.2387265   2.0656562  )
        41           Y   tau(  41) = (   0.7499995   0.2387265   2.2435498  )
        42           Ca  tau(  42) = (   0.2499998   0.2387265   2.2468194  )
        43           O   tau(  43) = (   0.7499995   0.0000000   2.6882568  )
        44           O   tau(  44) = (  -0.0083354   0.2387265   2.6886587  )
        45           O   tau(  45) = (   0.5083351   0.2387265   2.6886587  )
        46           O   tau(  46) = (   0.2499998   0.0000000   2.7114567  )
        47           Cu  tau(  47) = (   0.0019059   0.0000000   2.7247903  )
        48           Cu  tau(  48) = (   0.4980938   0.0000000   2.7247903  )
        49           Ba  tau(  49) = (   0.2499998   0.2387265   2.9701300  )
        50           Ba  tau(  50) = (   0.7499995   0.2387265   2.9706722  )
        51           O   tau(  51) = (  -0.0028895   0.0000000   2.9949793  )
        52           O   tau(  52) = (   0.5028891   0.0000000   2.9949793  )
        53           Cu  tau(  53) = (   0.5017844   0.0000000   3.2346638  )
        54           Cu  tau(  54) = (  -0.0017847   0.0000000   3.2346638  )
        55           O   tau(  55) = (   0.5008990   0.2387265   3.2678703  )
        56           O   tau(  56) = (  -0.0008994   0.2387265   3.2678703  )

     number of k points=    25  Gaussian smearing, width (Ry)=  0.0100
                       cart. coord. in units 2pi/alat
        k(    1) = (   0.0000000   0.0000000   0.0000000), wk =   0.0312500
        k(    2) = (   0.0000000   0.2618060   0.0000000), wk =   0.0625000
        k(    3) = (   0.0000000   0.5236121   0.0000000), wk =   0.0625000
        k(    4) = (   0.0000000   0.7854181   0.0000000), wk =   0.0625000
        k(    5) = (   0.0000000  -1.0472241   0.0000000), wk =   0.0312500
        k(    6) = (   0.1250000   0.0000000   0.0000000), wk =   0.0625000
        k(    7) = (   0.1250000   0.2618060   0.0000000), wk =   0.1250000
        k(    8) = (   0.1250000   0.5236121   0.0000000), wk =   0.1250000
        k(    9) = (   0.1250000   0.7854181   0.0000000), wk =   0.1250000
        k(   10) = (   0.1250000  -1.0472241   0.0000000), wk =   0.0625000
        k(   11) = (   0.2500000   0.0000000   0.0000000), wk =   0.0625000
        k(   12) = (   0.2500000   0.2618060   0.0000000), wk =   0.1250000
        k(   13) = (   0.2500000   0.5236121   0.0000000), wk =   0.1250000
        k(   14) = (   0.2500000   0.7854181   0.0000000), wk =   0.1250000
        k(   15) = (   0.2500000  -1.0472241   0.0000000), wk =   0.0625000
        k(   16) = (   0.3750000   0.0000000   0.0000000), wk =   0.0625000
        k(   17) = (   0.3750000   0.2618060   0.0000000), wk =   0.1250000
        k(   18) = (   0.3750000   0.5236121   0.0000000), wk =   0.1250000
        k(   19) = (   0.3750000   0.7854181   0.0000000), wk =   0.1250000
        k(   20) = (   0.3750000  -1.0472241   0.0000000), wk =   0.0625000
        k(   21) = (  -0.5000000   0.0000000   0.0000000), wk =   0.0312500
        k(   22) = (  -0.5000000   0.2618060   0.0000000), wk =   0.0625000
        k(   23) = (  -0.5000000   0.5236121   0.0000000), wk =   0.0625000
        k(   24) = (  -0.5000000   0.7854181   0.0000000), wk =   0.0625000
        k(   25) = (  -0.5000000  -1.0472241   0.0000000), wk =   0.0312500

     Initial potential from superposition of free atoms

     starting charge  455.69457, renormalised to  456.00000

     negative rho (up, down):  9.361E-02 0.000E+00
     Starting wfcs are  396 randomized atomic wfcs

     Self-consistent Calculation

     iteration #  1     ecut=    60.00 Ry     beta= 0.50
     Davidson diagonalization with overlap
     ethr =  1.00E-02,  avg # of iterations =  2.0

     negative rho (up, down):  8.586E-02 0.000E+00

     total energy              =   -3708.32442317 Ry
     Harris-Foulkes estimate   =   -3716.32984350 Ry
     estimated scf accuracy    <      30.94087947 Ry

[...]

     iteration # 10     ecut=    60.00 Ry     beta= 0.50
     Davidson diagonalization with overlap
     c_bands:  1 eigenvalues not converged
     c_bands:  3 eigenvalues not converged
     c_bands:  1 eigenvalues not converged
     ethr =  2.59E-05,  avg # of iterations =  9.2

[...]

     iteration # 23     ecut=    60.00 Ry     beta= 0.50
     Davidson diagonalization with overlap
     c_bands:  1 eigenvalues not converged
     ethr =  1.54E-07,  avg # of iterations =  4.6

[...]

     total energy              =   -3711.20770651 Ry
     Harris-Foulkes estimate   =   -3711.20770651 Ry
     estimated scf accuracy    <       0.00000001 Ry

     iteration # 36     ecut=    60.00 Ry     beta= 0.50
     Davidson diagonalization with overlap
     ethr =  2.79E-12,  avg # of iterations =  1.0

[...]

     End of self-consistent calculation

          k = 0.0000 0.0000 0.0000 ( 71619 PWs)   bands (ev):

   -41.3758 -38.8617 -38.0700 -35.6973 -23.0707 -22.9353 -22.8573 -22.7290
   -22.6299 -22.6256 -22.4981 -22.4764 -21.4285 -21.4080 -21.2857 -19.9181
   -19.9085 -19.8340 -18.5451 -18.4410 -18.0732 -17.0452 -16.9100 -16.7270
   -16.2388 -15.7320 -15.5273 -15.4555 -15.0337 -14.9937 -14.9652 -14.9063
   -14.8342 -14.7618 -14.7027 -14.6005 -14.5237 -14.4949 -14.4728 -14.3620
   -14.2520 -14.1446 -14.1144 -14.0350 -14.0297 -14.0223 -13.9967 -13.9930
   -13.9324 -13.7816 -13.7787 -13.7693 -13.6208 -13.4284  -8.4045  -8.3127
    -8.0953  -8.0458  -7.9870  -7.9403  -7.9067  -7.8931  -7.8624  -7.8036
    -7.7686  -7.7652  -7.7307  -7.7024  -7.7006  -7.6722  -7.6224  -7.5556
    -7.5306  -7.5051  -7.4701  -7.4370  -7.3135  -7.2820  -3.5714  -3.0258
    -2.9423  -2.8590  -2.7636  -2.6412  -2.5553  -2.3531  -2.2314  -2.2143
    -2.1912  -2.1338  -2.1264  -2.0928  -2.0842  -1.9979  -1.9280  -1.8804
    -1.8431  -1.7186  -1.7070  -1.6743  -1.6331  -1.5735  -1.5613  -1.4992
    -1.4951  -1.3723  -1.3036  -1.2521  -1.2356  -1.2105  -1.1470  -1.0769
    -1.0345  -1.0081  -1.0051  -0.9785  -0.9616  -0.9601  -0.9457  -0.9438
    -0.9201  -0.9145  -0.8277  -0.8101  -0.7347  -0.6921  -0.6841  -0.6576
    -0.6417  -0.5815  -0.5050  -0.3669  -0.3654  -0.3599  -0.2953  -0.2620
    -0.2548  -0.2303  -0.2040  -0.1762  -0.1752  -0.1718  -0.1181  -0.0713
    -0.0698  -0.0427  -0.0220  -0.0182  -0.0174   0.0100   0.0170   0.0297
     0.0401   0.0656   0.1365   0.1365   0.2200   0.2326   0.2331   0.2409
     0.2587   0.2723   0.2798   0.3123   0.3242   0.3522   0.3705   0.3736
     0.4061   0.4110   0.4823   0.5022   0.5128   0.5187   0.5438   0.5438
     0.5663   0.5838   0.6407   0.6999   0.7205   0.7652   0.8378   0.9342
     0.9968   1.0049   1.0193   1.0527   1.0748   1.0799   1.1610   1.1862
     1.2136   1.2190   1.2280   1.2290   1.2486   1.2709   1.2890   1.3525
     1.3569   1.4147   1.4233   1.4385   1.5601   1.5776   1.6001   1.6372
     1.6479   1.7089   1.7281   1.7299   1.7735   1.7931   1.8027   1.8437
     1.8443   1.9363   2.0107   2.0299   2.0546   2.0638   2.0752   2.1095
     2.1617   2.2321   2.2706   2.2800   2.3407   2.3552   2.4083   2.4720
     2.4976   2.5429   2.5952   2.6442   2.8341   2.8849   2.9445   3.9091
     4.4048   4.6770   5.2372   5.2448   5.3539   5.4224   5.6379   5.9401
     6.0693   6.4722   6.5618   6.6509   6.6972   6.8625   6.8884   6.8989
     7.2746   7.2992   7.3773   7.3838   7.3907   7.4117   7.4752   7.5916
     7.7471   7.8573   8.0792   8.1342   8.1569   8.3164   8.3701   8.5131
     8.5258   8.6542

[...]

          k = 0.3750-1.0472 0.0000 ( 71526 PWs)   bands (ev):

[...]

          k =-0.5000 0.0000 0.0000 ( 71644 PWs)   bands (ev):

[...]

          k =-0.5000-1.0472 0.0000 ( 71492 PWs)   bands (ev):

   -41.3616 -38.8524 -38.0516 -35.6857 -22.8841 -22.8246 -22.6544 -22.6248
   -22.4477 -22.4099 -22.4041 -22.3609 -21.6148 -21.3783 -21.3282 -20.0165
   -19.9103 -19.8487 -18.7135 -18.3708 -18.2502 -17.1182 -16.9414 -16.8372
   -15.7888 -15.5274 -15.5001 -15.1576 -14.7684 -14.7026 -14.6203 -14.6191
   -14.5440 -14.4698 -14.4224 -14.3689 -14.3577 -14.3096 -14.2808 -14.2645
   -14.1910 -14.1776 -14.1022 -14.0639 -14.0123 -14.0020 -13.9098 -13.9091
   -13.8814 -13.8801 -13.8798 -13.8575 -13.8400 -13.7646  -8.6681  -8.5374
    -8.4396  -8.4223  -8.3889  -8.3163  -8.2407  -8.2210  -8.2146  -8.1935
    -8.1864  -8.1178  -8.1145  -8.0910  -8.0123  -8.0098  -7.9168  -7.8988
    -7.8875  -7.8721  -7.7195  -7.7099  -7.6953  -7.6861  -4.4096  -4.1009
    -3.8254  -3.6056  -3.4279  -3.4232  -3.3126  -3.2627  -3.1876  -3.1450
    -3.0367  -3.0361  -2.9980  -2.9863  -2.8492  -2.7485  -2.6458  -2.6105
    -2.3796  -2.2712  -2.2580  -2.2346  -2.2293  -2.1683  -2.1289  -2.0962
    -2.0558  -2.0107  -1.9730  -1.9391  -1.8982  -1.8582  -1.8130  -1.8014
    -1.7826  -1.6360  -1.5977  -1.5799  -1.5718  -1.4694  -1.4287  -1.4266
    -1.3729  -1.1722  -1.1685  -1.1555  -1.1503  -1.1403  -1.0958  -1.0765
    -0.9892  -0.9175  -0.9149  -0.9107  -0.8212  -0.8136  -0.8104  -0.7437
    -0.7417  -0.7139  -0.7010  -0.6778  -0.6704  -0.6411  -0.5470  -0.5408
    -0.5126  -0.4604  -0.3416  -0.3367  -0.3190  -0.2220  -0.1928   0.0323
     0.0426   0.1887   0.2095   0.2898   0.3124   0.3417   0.4612   0.4688
     0.5050   0.5503   0.5694   0.7055   0.7162   0.7960   0.8228   0.8838
     0.9128   0.9359   0.9471   1.0546   1.0893   1.1273   1.1437   1.1855
     1.1882   1.2240   1.2381   1.3070   1.3087   1.3126   1.3264   1.3419
     1.3633   1.3818   1.3895   1.3954   1.4067   1.4647   1.4675   1.5416
     1.5760   1.5993   1.6457   1.6641   1.7057   1.7230   1.7732   1.7841
     1.7931   1.8201   1.8534   1.8582   1.9059   1.9383   1.9612   2.0073
     2.0207   2.0320   2.0359   2.0807   2.1348   2.2127   2.2162   2.2360
     2.2361   2.4093   2.5413   2.5606   2.5696   2.5861   2.6129   2.7308
     2.7457   2.7508   2.8330   2.8464   3.1407   3.1767   3.4573   3.5048
     3.5842   3.6516   3.6836   3.7792   3.9073   3.9663   4.0362   4.2481
     5.0679   5.1817   5.3264   5.4538   5.4908   5.9969   6.6033   6.6039
     6.7441   6.7904   6.8578   6.9436   6.9457   7.0067   7.0657   7.6258
     7.8615   7.9555   8.1105   8.1249   8.2638   8.3087   8.8032   8.9429
     8.9563   9.1259   9.2304   9.4152   9.4449   9.4819   9.5012   9.5468
     9.5665   9.6288

     the Fermi energy is     2.7410 ev

!    total energy              =   -3711.20770651 Ry
     Harris-Foulkes estimate   =   -3711.20770651 Ry
     estimated scf accuracy    <          3.9E-09 Ry

     The total energy is the sum of the following terms:

     one-electron contribution =  -61374.00807249 Ry
     hartree contribution      =   30990.23178704 Ry
     xc contribution           =   -1263.44683602 Ry
     ewald contribution        =   27936.02834994 Ry
     smearing contrib. (-TS)   =      -0.01293498 Ry

     convergence has been achieved in  36 iterations

     negative rho (up, down):  9.109E-02 0.000E+00

     Forces acting on atoms (cartesian axes, Ry/au):

     atom    1 type  4   force =    -0.00000781    0.00000000   -0.00013197
     atom    2 type  4   force =     0.00000781    0.00000000   -0.00013197
     atom    3 type  3   force =    -0.00001541    0.00000000   -0.00006798
     atom    4 type  3   force =     0.00001541    0.00000000   -0.00006798
     atom    5 type  4   force =    -0.00000239    0.00000000   -0.00005206
     atom    6 type  4   force =     0.00000239    0.00000000   -0.00005206
     atom    7 type  1   force =     0.00000000    0.00000000   -0.00012133
     atom    8 type  1   force =     0.00000000    0.00000000   -0.00011005
     atom    9 type  3   force =     0.00002757    0.00000000   -0.00003572
     atom   10 type  3   force =    -0.00002757    0.00000000   -0.00003572
     atom   11 type  4   force =     0.00000000    0.00000000    0.00014109
     atom   12 type  4   force =     0.00000042    0.00000000    0.00007715
     atom   13 type  4   force =    -0.00000042    0.00000000    0.00007715
     atom   14 type  4   force =     0.00000000    0.00000000    0.00020425
     atom   15 type  2   force =     0.00000000    0.00000000   -0.00054966
     atom   16 type  5   force =     0.00000000    0.00000000   -0.00085005
     atom   17 type  4   force =     0.00010686    0.00000000    0.00089003
     atom   18 type  4   force =    -0.00010686    0.00000000    0.00089003
     atom   19 type  4   force =     0.00000000    0.00000000    0.00099350
     atom   20 type  4   force =     0.00000000    0.00000000    0.00126679
     atom   21 type  3   force =    -0.00004290    0.00000000   -0.00130104
     atom   22 type  3   force =     0.00004290    0.00000000   -0.00130104
     atom   23 type  1   force =     0.00000000    0.00000000   -0.00237730
     atom   24 type  1   force =     0.00000000    0.00000000   -0.00251384
     atom   25 type  4   force =    -0.00022835    0.00000000    0.00414254
     atom   26 type  4   force =     0.00022835    0.00000000    0.00414254
     atom   27 type  4   force =    -0.00033371    0.00000000    0.00504524
     atom   28 type  4   force =     0.00033371    0.00000000    0.00504524
     atom   29 type  3   force =     0.00201185    0.00000000   -0.00994053
     atom   30 type  3   force =    -0.00201185    0.00000000   -0.00994053
     atom   31 type  4   force =    -0.00014652    0.00000000    0.01497927
     atom   32 type  4   force =     0.00014652    0.00000000    0.01497927
     atom   33 type  1   force =     0.00000000    0.00000000   -0.02564749
     atom   34 type  1   force =     0.00000000    0.00000000   -0.01876092
     atom   35 type  3   force =    -0.00241963    0.00000000    0.00705528
     atom   36 type  3   force =     0.00241963    0.00000000    0.00705528
     atom   37 type  4   force =     0.00000000    0.00000000    0.05867073
     atom   38 type  4   force =     0.00000000    0.00000000    0.08401909
     atom   39 type  4   force =     0.02217544    0.00000000    0.07325879
     atom   40 type  4   force =    -0.02217544    0.00000000    0.07325879
     atom   41 type  5   force =     0.00000000    0.00000000   -0.11682468
     atom   42 type  2   force =     0.00000000    0.00000000   -0.06101230
     atom   43 type  4   force =     0.00000000    0.00000000   -0.00349750
     atom   44 type  4   force =    -0.00105292    0.00000000   -0.00592893
     atom   45 type  4   force =     0.00105292    0.00000000   -0.00592893
     atom   46 type  4   force =     0.00000000    0.00000000    0.00650173
     atom   47 type  3   force =     0.00089850    0.00000000   -0.02082535
     atom   48 type  3   force =    -0.00089850    0.00000000   -0.02082535
     atom   49 type  1   force =     0.00000000    0.00000000   -0.02229358
     atom   50 type  1   force =     0.00000000    0.00000000   -0.02790188
     atom   51 type  4   force =     0.00077495    0.00000000   -0.00212056
     atom   52 type  4   force =    -0.00077495    0.00000000   -0.00212056
     atom   53 type  3   force =    -0.00017464    0.00000000    0.00052089
     atom   54 type  3   force =     0.00017464    0.00000000    0.00052089
     atom   55 type  4   force =     0.00007277    0.00000000   -0.00023335
     atom   56 type  4   force =    -0.00007277    0.00000000   -0.00023335

     Total force =     0.209173     Total SCF correction =     0.000323

     Computing stress (Cartesian axis) and pressure

     negative rho (up, down):  9.109E-02 0.000E+00
          total   stress  (Ry/bohr**3)                   (kbar)     P=       -8.46
  -0.00000843   0.00000000   0.00000000           -1.24        0.00        0.00
   0.00000000   0.00001410   0.00000000            0.00        2.07        0.00
   0.00000000   0.00000000  -0.00017817            0.00        0.00      -26.21

     General routines

     Parallel routines

   This run was terminated on:  10:38:23  28May2021

   JOB DONE.
[1622212703.964007] [holy7c04410:87367:0]          mpool.c:43   UCX  WARN  object 0x2d55600 was not returned to mpool ucp_requests
[1622212703.987781] [holy7c04503:221687:0]          mpool.c:43   UCX  WARN  object 0x38db340 was not returned to mpool ucp_requests
[1622212703.987809] [holy7c04503:221687:0]          mpool.c:43   UCX  WARN  object 0x38db500 was not returned to mpool ucp_requests
[1622212703.972212] [holy7c04410:87366:0]          mpool.c:43   UCX  WARN  object 0x42760c0 was not returned to mpool ucp_requests
[1622212703.973138] [holy7c04410:87368:0]          mpool.c:43   UCX  WARN  object 0x2b39700 was not returned to mpool ucp_requests
[1622212703.973160] [holy7c04410:87368:0]          mpool.c:43   UCX  WARN  object 0x2b398c0 was not returned to mpool ucp_requests
[1622212703.979121] [holy7c04501:52631:0]          mpool.c:43   UCX  WARN  object 0x2849580 was not returned to mpool ucp_requests
[1622212703.990763] [holy7c04503:221695:0]          mpool.c:43   UCX  WARN  object 0x355b440 was not returned to mpool ucp_requests
[1622212703.994446] [holy7c04503:221689:0]          mpool.c:43   UCX  WARN  object 0x33738c0 was not returned to mpool ucp_requests
[1622212704.000186] [holy7c04503:221690:0]          mpool.c:43   UCX  WARN  object 0x3397180 was not returned to mpool ucp_requests
[1622212704.003042] [holy7c04503:221692:0]          mpool.c:43   UCX  WARN  object 0x412f9c0 was not returned to mpool ucp_requests
[1622212704.003063] [holy7c04503:221692:0]          mpool.c:43   UCX  WARN  object 0x412fb80 was not returned to mpool ucp_requests
[1622212704.003547] [holy7c04503:221694:0]          mpool.c:43   UCX  WARN  object 0x3ac5c00 was not returned to mpool ucp_requests
[1622212703.980008] [holy7c04501:52626:0]          mpool.c:43   UCX  WARN  object 0x32fda40 was not returned to mpool ucp_requests
[1622212703.979660] [holy7c04501:52625:0]          mpool.c:43   UCX  WARN  object 0x324e640 was not returned to mpool ucp_requests
[1622212703.979677] [holy7c04501:52625:0]          mpool.c:43   UCX  WARN  object 0x324e800 was not returned to mpool ucp_requests
[1622212703.980842] [holy7c04501:52630:0]          mpool.c:43   UCX  WARN  object 0x3cf2500 was not returned to mpool ucp_requests
[1622212703.979636] [holy7c04501:52627:0]          mpool.c:43   UCX  WARN  object 0x382b440 was not returned to mpool ucp_requests
[1622212703.979655] [holy7c04501:52627:0]          mpool.c:43   UCX  WARN  object 0x382bb40 was not returned to mpool ucp_requests