     Program PWSCF v.6.5 starts on 25May2021 at 16:37:41

     R & G space division:  proc/nbgrp/npool/nimage =      32
     Reading input from YCBCO50_212_BaO_cleave_2.75_sep.pwi
Warning: card &IONS ignored
Warning: card     ION_DYNAMICS = 'BFGS' ignored
Warning: card / ignored
Warning: card &CELL ignored
Warning: card     CELL_DYNAMICS = 'BFGS' ignored
Warning: card     PRESS_CONV_THR = 5 ignored
Warning: card / ignored

     Current dimensions of program PWSCF are:
     Max number of different atomic species (ntypx) = 10
     Max number of k-points (npk) =  40000
     Max angular momentum in pseudopotentials (lmaxx) =  3

     Message from routine setup:
     using ibrav=0 with symmetry is DISCOURAGED, use correct ibrav instead

     bravais-lattice index     =            0
     lattice parameter (alat)  =      14.8133  a.u.
     unit-cell volume          =    9261.7184 (a.u.)^3
     number of atoms/cell      =           56
     number of atomic types    =            5
     number of electrons       =       456.00
     number of Kohn-Sham states=          274
     kinetic-energy cutoff     =      60.0000  Ry
     charge density cutoff     =     720.0000  Ry
     convergence threshold     =      1.0E-08
     mixing beta               =       0.5000
     number of iterations used =           10  local-TF  mixing
     Exchange-correlation= SLA PW PBE PBE
                           (   1   4   3   4   0   0   0)

     celldm(1)=  14.813271  celldm(2)=   0.000000  celldm(3)=   0.000000
     celldm(4)=   0.000000  celldm(5)=   0.000000  celldm(6)=   0.000000

     crystal axes: (cart. coord. in units of alat)
               a(1) = (   1.000000   0.000000   0.000000 )
               a(2) = (   0.000000   0.477453   0.000000 )
               a(3) = (   0.000000   0.000000   5.967718 )

     reciprocal axes: (cart. coord. in units 2 pi/alat)
               b(1) = (  1.000000  0.000000  0.000000 )
               b(2) = (  0.000000  2.094448  0.000000 )
               b(3) = (  0.000000  0.000000  0.167568 )

     PseudoPot. # 1 for Ba read from file:
     ./pseudo/Ba.pbe-nsp-van.UPF
     MD5 check sum: 2b9c31dd849566dd297d80989662b7a0
     Pseudo is Ultrasoft + core correction, Zval = 10.0
     Generated by new atomic code, or converted to UPF format
     Using radial grid of  907 points,  6 beta functions with:
                l(1) =   0
                l(2) =   0
                l(3) =   1
                l(4) =   1
                l(5) =   2
                l(6) =   2
     Q(r) pseudized with  6 coefficients,  rinner =    1.200   1.200   1.200
                                                       1.200   1.200

     PseudoPot. # 2 for Ca read from file:
     ./pseudo/Ca.pbe-nsp-van.UPF
     MD5 check sum: 6471098428ff4fa451746d08035ff179
     Pseudo is Ultrasoft + core correction, Zval = 10.0
     Generated by new atomic code, or converted to UPF format
     Using radial grid of  845 points,  6 beta functions with:
                l(1) =   0
                l(2) =   0
                l(3) =   1
                l(4) =   1
                l(5) =   2
                l(6) =   2
     Q(r) pseudized with  6 coefficients,  rinner =    1.200   1.200   1.200
                                                       1.200   1.200

     PseudoPot. # 3 for Cu read from file:
     ./pseudo/Cu.pbe-n-van_ak.UPF
     MD5 check sum: 34e3282627ffb533726feb647e090d62
     Pseudo is Ultrasoft + core correction, Zval = 11.0
     Generated by new atomic code, or converted to UPF format
     Using radial grid of  867 points,  6 beta functions with:
                l(1) =   0
                l(2) =   0
                l(3) =   1
                l(4) =   1
                l(5) =   2
                l(6) =   2
     Q(r) pseudized with  8 coefficients,  rinner =    1.400   1.400   1.400
                                                       1.400   1.400

     PseudoPot. # 4 for O  read from file:
     ./pseudo/O.pbe-van_ak.UPF
     MD5 check sum: 783ce7fe4c79b6a4916957118fed0856
     Pseudo is Ultrasoft, Zval =  6.0
     Generated by new atomic code, or converted to UPF format
     Using radial grid of  737 points,  4 beta functions with:
                l(1) =   0
                l(2) =   0
                l(3) =   1
                l(4) =   1
     Q(r) pseudized with  8 coefficients,  rinner =    0.800   0.800   0.800

     PseudoPot. # 5 for Y  read from file:
     ./pseudo/Y.pbe-nsp-van.UPF
     MD5 check sum: 4412fed3ab108fed87a1b7d6a69a4a38
     Pseudo is Ultrasoft + core correction, Zval = 11.0
     Generated by new atomic code, or converted to UPF format
     Using radial grid of  885 points,  6 beta functions with:
                l(1) =   0
                l(2) =   0
                l(3) =   1
                l(4) =   1
                l(5) =   2
                l(6) =   2
     Q(r) pseudized with  6 coefficients,  rinner =    1.200   1.200   1.200
                                                       1.200   1.200

     atomic species   valence    mass     pseudopotential
        Ba            10.00   137.32700     Ba( 1.00)
        Ca            10.00    40.07800     Ca( 1.00)
        Cu            11.00    63.54600     Cu( 1.00)
        O              6.00    15.99900     O ( 1.00)
        Y             11.00    88.90584     Y ( 1.00)

      4 Sym. Ops. (no inversion) found ( 2 have fractional translation)

   Cartesian axes

     site n.     atom                  positions (alat units)
         1           O   tau(   1) = (  -0.0008343   0.2387265  -0.0222443  )
         2           O   tau(   2) = (   0.5008340   0.2387265  -0.0222443  )
         3           Cu  tau(   3) = (   0.5017257   0.0000000   0.0109608  )
         4           Cu  tau(   4) = (  -0.0017260   0.0000000   0.0109608  )
         5           O   tau(   5) = (  -0.0028933   0.0000000   0.2506504  )
         6           O   tau(   6) = (   0.5028929   0.0000000   0.2506504  )
         7           Ba  tau(   7) = (   0.7499995   0.2387265   0.2749435  )
         8           Ba  tau(   8) = (   0.2499998   0.2387265   0.2755214  )
         9           Cu  tau(   9) = (   0.4980963   0.0000000   0.5208446  )
        10           Cu  tau(  10) = (   0.0019033   0.0000000   0.5208446  )
        11           O   tau(  11) = (   0.2499998   0.0000000   0.5341884  )
        12           O   tau(  12) = (   0.5083351   0.2387265   0.5569851  )
        13           O   tau(  13) = (  -0.0083354   0.2387265   0.5569851  )
        14           O   tau(  14) = (   0.7499995   0.0000000   0.5573831  )
        15           Ca  tau(  15) = (   0.2499998   0.2387265   0.7436937  )
        16           Y   tau(  16) = (   0.7499995   0.2387265   0.7469544  )
        17           O   tau(  17) = (  -0.0063798   0.2387265   0.9248530  )
        18           O   tau(  18) = (   0.5063794   0.2387265   0.9248530  )
        19           O   tau(  19) = (   0.7499995   0.0000000   0.9338544  )
        20           O   tau(  20) = (   0.2499998   0.0000000   0.9461329  )
        21           Cu  tau(  21) = (   0.0015717   0.0000000   0.9686860  )
        22           Cu  tau(  22) = (   0.4984280   0.0000000   0.9686860  )
        23           Ba  tau(  23) = (   0.2499998   0.2387265   1.2085224  )
        24           Ba  tau(  24) = (   0.7499995   0.2387265   1.2233294  )
        25           O   tau(  25) = (   0.0063772   0.0000000   1.2547537  )
        26           O   tau(  26) = (   0.4936224   0.0000000   1.2547537  )
        27           O   tau(  27) = (   0.5384045   0.2387265   1.4952521  )
        28           O   tau(  28) = (  -0.0384049   0.2387265   1.4952521  )
        29           Cu  tau(  29) = (   0.5006120   0.0000000   1.4952546  )
        30           Cu  tau(  30) = (  -0.0006123   0.0000000   1.4952546  )
        31           O   tau(  31) = (   0.4936212   0.0000000   1.7357531  )
        32           O   tau(  32) = (   0.0063785   0.0000000   1.7357531  )
        33           Ba  tau(  33) = (   0.7499995   0.2387265   1.7671824  )
        34           Ba  tau(  34) = (   0.2499998   0.2387265   1.7819920  )
        35           Cu  tau(  35) = (   0.4984280   0.0000000   2.3726402  )
        36           Cu  tau(  36) = (   0.0015717   0.0000000   2.3726402  )
        37           O   tau(  37) = (   0.2499998   0.0000000   2.3951984  )
        38           O   tau(  38) = (   0.7499995   0.0000000   2.4074680  )
        39           O   tau(  39) = (   0.5063781   0.2387265   2.4164732  )
        40           O   tau(  40) = (  -0.0063785   0.2387265   2.4164732  )
        41           Y   tau(  41) = (   0.7499995   0.2387265   2.5943667  )
        42           Ca  tau(  42) = (   0.2499998   0.2387265   2.5976364  )
        43           O   tau(  43) = (   0.7499995   0.0000000   2.7839342  )
        44           O   tau(  44) = (  -0.0083354   0.2387265   2.7843360  )
        45           O   tau(  45) = (   0.5083351   0.2387265   2.7843360  )
        46           O   tau(  46) = (   0.2499998   0.0000000   2.8071340  )
        47           Cu  tau(  47) = (   0.0019059   0.0000000   2.8204676  )
        48           Cu  tau(  48) = (   0.4980938   0.0000000   2.8204676  )
        49           Ba  tau(  49) = (   0.2499998   0.2387265   3.0658073  )
        50           Ba  tau(  50) = (   0.7499995   0.2387265   3.0663495  )
        51           O   tau(  51) = (  -0.0028895   0.0000000   3.0906567  )
        52           O   tau(  52) = (   0.5028891   0.0000000   3.0906567  )
        53           Cu  tau(  53) = (   0.5017844   0.0000000   3.3303412  )
        54           Cu  tau(  54) = (  -0.0017847   0.0000000   3.3303412  )
        55           O   tau(  55) = (   0.5008990   0.2387265   3.3635476  )
        56           O   tau(  56) = (  -0.0008994   0.2387265   3.3635476  )

     number of k points=    25  Gaussian smearing, width (Ry)=  0.0100
                       cart. coord. in units 2pi/alat
        k(    1) = (   0.0000000   0.0000000   0.0000000), wk =   0.0312500
        k(    2) = (   0.0000000   0.2618060   0.0000000), wk =   0.0625000
        k(    3) = (   0.0000000   0.5236121   0.0000000), wk =   0.0625000
        k(    4) = (   0.0000000   0.7854181   0.0000000), wk =   0.0625000
        k(    5) = (   0.0000000  -1.0472241   0.0000000), wk =   0.0312500
        k(    6) = (   0.1250000   0.0000000   0.0000000), wk =   0.0625000
        k(    7) = (   0.1250000   0.2618060   0.0000000), wk =   0.1250000
        k(    8) = (   0.1250000   0.5236121   0.0000000), wk =   0.1250000
        k(    9) = (   0.1250000   0.7854181   0.0000000), wk =   0.1250000
        k(   10) = (   0.1250000  -1.0472241   0.0000000), wk =   0.0625000
        k(   11) = (   0.2500000   0.0000000   0.0000000), wk =   0.0625000
        k(   12) = (   0.2500000   0.2618060   0.0000000), wk =   0.1250000
        k(   13) = (   0.2500000   0.5236121   0.0000000), wk =   0.1250000
        k(   14) = (   0.2500000   0.7854181   0.0000000), wk =   0.1250000
        k(   15) = (   0.2500000  -1.0472241   0.0000000), wk =   0.0625000
        k(   16) = (   0.3750000   0.0000000   0.0000000), wk =   0.0625000
        k(   17) = (   0.3750000   0.2618060   0.0000000), wk =   0.1250000
        k(   18) = (   0.3750000   0.5236121   0.0000000), wk =   0.1250000
        k(   19) = (   0.3750000   0.7854181   0.0000000), wk =   0.1250000
        k(   20) = (   0.3750000  -1.0472241   0.0000000), wk =   0.0625000
        k(   21) = (  -0.5000000   0.0000000   0.0000000), wk =   0.0312500
        k(   22) = (  -0.5000000   0.2618060   0.0000000), wk =   0.0625000
        k(   23) = (  -0.5000000   0.5236121   0.0000000), wk =   0.0625000
        k(   24) = (  -0.5000000   0.7854181   0.0000000), wk =   0.0625000
        k(   25) = (  -0.5000000  -1.0472241   0.0000000), wk =   0.0312500

     Initial potential from superposition of free atoms

     starting charge  455.69457, renormalised to  456.00000

     negative rho (up, down):  9.319E-02 0.000E+00
     Starting wfcs are  396 randomized atomic wfcs

     Self-consistent Calculation

     iteration #  1     ecut=    60.00 Ry     beta= 0.50
     Davidson diagonalization with overlap
     ethr =  1.00E-02,  avg # of iterations =  2.0

     negative rho (up, down):  8.623E-02 0.000E+00

     total energy              =   -3708.27477178 Ry
     Harris-Foulkes estimate   =   -3716.59432209 Ry
     estimated scf accuracy    <      33.71951215 Ry

[...]

     iteration # 10     ecut=    60.00 Ry     beta= 0.50
     Davidson diagonalization with overlap
     c_bands:  1 eigenvalues not converged
     ethr =  8.50E-05,  avg # of iterations =  8.3

[...]

     iteration # 20     ecut=    60.00 Ry     beta= 0.50
     Davidson diagonalization with overlap
     c_bands:  1 eigenvalues not converged
     ethr =  4.17E-06,  avg # of iterations =  9.5

[...]

     total energy              =   -3711.60954623 Ry
     Harris-Foulkes estimate   =   -3711.60954623 Ry
     estimated scf accuracy    <       0.00000001 Ry

     iteration # 36     ecut=    60.00 Ry     beta= 0.50
     Davidson diagonalization with overlap
     ethr =  2.29E-12,  avg # of iterations =  1.9

[...]

     End of self-consistent calculation

          k = 0.0000 0.0000 0.0000 ( 72781 PWs)   bands (ev):

   -38.2671 -37.9468 -35.8959 -35.5375 -24.5997 -24.1831 -23.0443 -23.0195
   -22.9160 -22.9083 -22.8917 -22.7608 -18.7422 -18.6377 -18.3934 -18.3396
   -18.2703 -17.9582 -17.2437 -17.1081 -16.9257 -16.8577 -16.7740 -16.5782
   -15.6517 -15.4146 -15.4045 -15.2447 -15.2064 -15.1625 -14.9030 -14.7969
   -14.7451 -14.7210 -14.6936 -14.6821 -14.5886 -14.5194 -14.4522 -14.3543
   -14.3383 -14.2377 -14.2308 -14.2263 -14.2217 -14.2095 -14.1837 -14.1376
   -14.1312 -14.1145 -14.0945 -13.9185 -13.7581 -13.5246  -9.9704  -9.4724
    -9.3488  -9.3199  -8.9811  -8.9500  -8.2828  -8.2526  -8.1923  -8.1690
    -8.1481  -8.0961  -8.0936  -8.0712  -7.9555  -7.9314  -7.9047  -7.8591
    -7.8366  -7.7832  -7.7221  -7.7176  -7.6934  -7.5618  -3.2147  -3.1691
    -3.0593  -2.6376  -2.4001  -2.3873  -2.3216  -2.3105  -2.3058  -2.2855
    -2.2779  -2.1515  -2.1202  -2.0759  -2.0436  -1.9752  -1.9198  -1.8992
    -1.8702  -1.8594  -1.8535  -1.7758  -1.7695  -1.7380  -1.6442  -1.5645
    -1.4961  -1.4319  -1.3694  -1.3596  -1.3393  -1.3157  -1.3117  -1.2379
    -1.1476  -1.1471  -1.1471  -1.1456  -1.1344  -1.1018  -1.1011  -1.0050
    -0.9877  -0.9745  -0.9362  -0.9206  -0.9144  -0.8982  -0.8855  -0.7475
    -0.7116  -0.7099  -0.5835  -0.4812  -0.4757  -0.4679  -0.4236  -0.4190
    -0.3622  -0.3581  -0.3553  -0.3523  -0.3331  -0.2857  -0.2592  -0.2312
    -0.2212  -0.1846  -0.1688  -0.1605  -0.1526  -0.1430  -0.0814  -0.0534
    -0.0525  -0.0498  -0.0435  -0.0391  -0.0067   0.0121   0.0463   0.0476
     0.0851   0.0869   0.1253   0.1308   0.1347   0.1706   0.1883   0.2225
     0.2361   0.2972   0.3574   0.3655   0.3792   0.3801   0.3924   0.4267
     0.4714   0.5421   0.5562   0.5919   0.6266   0.8135   0.8287   0.8382
     0.8561   0.8580   0.8733   0.8993   0.9056   0.9450   0.9624   0.9868
     1.0007   1.0144   1.0477   1.0529   1.0628   1.0743   1.1210   1.1415
     1.1704   1.2029   1.2239   1.2310   1.2523   1.2758   1.3598   1.3915
     1.4322   1.4709   1.5286   1.5428   1.5478   1.5654   1.6022   1.6162
     1.6312   1.6458   1.7390   1.7391   1.8014   1.8089   1.8862   1.9013
     1.9521   2.0165   2.0706   2.0791   2.1162   2.1494   2.2128   2.2994
     2.3935   2.4065   2.4101   2.4873   2.6892   2.7063   4.2390   4.9654
     5.0549   5.1008   5.5271   5.7692   5.9899   6.0828   6.2977   6.4554
     6.5043   6.6531   7.0959   7.1184   7.1379   7.1979   7.1997   7.3519
     7.4093   7.5750   7.7733   7.8921   7.9390   7.9606   8.1171   8.2226
     8.2352   8.2564   8.3167   8.3244   8.4010   8.4062   8.5051   8.6152
     8.6915   8.8002

[...]

          k = 0.3750-1.0472 0.0000 ( 72674 PWs)   bands (ev):

[...]

          k =-0.5000 0.0000 0.0000 ( 72796 PWs)   bands (ev):

[...]

          k =-0.5000-1.0472 0.0000 ( 72660 PWs)   bands (ev):

   -38.2486 -37.9283 -35.8843 -35.5258 -24.4659 -24.0612 -22.8414 -22.8150
   -22.8118 -22.7890 -22.7243 -22.6476 -18.9104 -18.6008 -18.5676 -18.4473
   -18.2690 -18.0952 -17.3169 -17.1395 -17.0357 -16.9717 -16.8065 -16.6454
   -14.9602 -14.8903 -14.8739 -14.8599 -14.7757 -14.7377 -14.7206 -14.6595
   -14.6265 -14.6131 -14.5481 -14.5458 -14.5377 -14.5348 -14.5308 -14.4806
   -14.4644 -14.3563 -14.3434 -14.2987 -14.1404 -14.1117 -14.0954 -14.0950
   -14.0946 -14.0942 -14.0035 -13.9889 -13.7744 -13.5924  -9.9706  -9.8402
    -9.7738  -9.6784  -9.3185  -9.2608  -8.6266  -8.6008  -8.5759  -8.5531
    -8.4973  -8.3917  -8.3015  -8.2780  -8.2773  -8.2560  -8.2140  -8.1996
    -8.1951  -8.1714  -8.1708  -8.1603  -8.0088  -8.0013  -4.0180  -3.9052
    -3.8077  -3.7256  -3.7163  -3.6786  -3.5836  -3.4742  -3.2451  -3.2235
    -3.2223  -3.2216  -3.2125  -3.0854  -2.5667  -2.5449  -2.4575  -2.4397
    -2.4302  -2.3698  -2.3377  -2.2649  -2.2295  -2.2082  -2.2047  -2.1813
    -2.1628  -2.1531  -2.1436  -2.0994  -2.0878  -2.0719  -1.9192  -1.8957
    -1.8889  -1.8586  -1.6912  -1.6430  -1.6293  -1.5955  -1.5407  -1.4767
    -1.4625  -1.4405  -1.3371  -1.3125  -1.3077  -1.2914  -1.2193  -1.1065
    -1.0344  -1.0155  -1.0058  -0.9325  -0.9288  -0.9264  -0.9147  -0.9012
    -0.8907  -0.8877  -0.7555  -0.7375  -0.7295  -0.7243  -0.6823  -0.6368
    -0.5541  -0.5480  -0.5269  -0.4980  -0.2784  -0.2505  -0.2410  -0.2211
     0.0315   0.0803   0.0949   0.0987   0.2976   0.3000   0.3150   0.3280
     0.3708   0.3900   0.3998   0.5549   0.5749   0.6117   0.6391   0.6511
     0.7123   0.7406   0.8658   0.9292   0.9479   0.9856   0.9857   1.0047
     1.0374   1.0519   1.0712   1.1321   1.1877   1.1882   1.1883   1.2117
     1.2571   1.2639   1.2753   1.3001   1.3040   1.3307   1.3361   1.3515
     1.3660   1.3884   1.4211   1.4291   1.4435   1.4453   1.4700   1.4725
     1.5937   1.6518   1.6820   1.6868   1.6896   1.7191   1.7246   1.7426
     1.7588   1.8383   1.9044   1.9762   2.0004   2.0155   2.0271   2.0275
     2.0297   2.1164   2.1888   2.2303   2.3751   2.3757   2.3840   2.3855
     2.5445   2.5503   2.5591   2.5654   3.3068   3.3801   3.3936   3.4893
     3.4907   3.5646   3.7017   3.7185   3.7631   3.7764   5.2121   5.4714
     6.3158   6.4886   6.5578   6.5695   6.5946   6.6401   6.6492   6.7939
     6.8995   6.9014   7.2180   7.4251   7.4430   7.6309   8.1031   8.2273
     8.2329   8.5140   8.7622   8.9880   9.0226   9.0966   9.1856   9.2245
     9.2549   9.2596   9.2740   9.3109   9.3196   9.3793   9.5144   9.5199
     9.5422   9.5838

     the Fermi energy is     2.5559 ev

!    total energy              =   -3711.60954622 Ry
     Harris-Foulkes estimate   =   -3711.60954623 Ry
     estimated scf accuracy    <          2.0E-09 Ry

     The total energy is the sum of the following terms:

     one-electron contribution =  -55213.45869647 Ry
     hartree contribution      =   27909.11469683 Ry
     xc contribution           =   -1263.75471682 Ry
     ewald contribution        =   24856.50361181 Ry
     smearing contrib. (-TS)   =      -0.01444157 Ry

     convergence has been achieved in  36 iterations

     negative rho (up, down):  9.199E-02 0.000E+00

     Forces acting on atoms (cartesian axes, Ry/au):

     atom    1 type  4   force =    -0.00000453    0.00000000   -0.00011078
     atom    2 type  4   force =     0.00000453    0.00000000   -0.00011078
     atom    3 type  3   force =    -0.00001041    0.00000000   -0.00007766
     atom    4 type  3   force =     0.00001041    0.00000000   -0.00007766
     atom    5 type  4   force =     0.00000472    0.00000000   -0.00004835
     atom    6 type  4   force =    -0.00000472    0.00000000   -0.00004835
     atom    7 type  1   force =     0.00000000    0.00000000   -0.00019776
     atom    8 type  1   force =     0.00000000    0.00000000   -0.00018439
     atom    9 type  3   force =     0.00003911    0.00000000   -0.00002347
     atom   10 type  3   force =    -0.00003911    0.00000000   -0.00002347
     atom   11 type  4   force =     0.00000000    0.00000000    0.00027705
     atom   12 type  4   force =     0.00000410    0.00000000    0.00028198
     atom   13 type  4   force =    -0.00000410    0.00000000    0.00028198
     atom   14 type  4   force =     0.00000000    0.00000000    0.00042652
     atom   15 type  2   force =     0.00000000    0.00000000   -0.00109904
     atom   16 type  5   force =     0.00000000    0.00000000   -0.00167043
     atom   17 type  4   force =     0.00018890    0.00000000    0.00196403
     atom   18 type  4   force =    -0.00018890    0.00000000    0.00196403
     atom   19 type  4   force =     0.00000000    0.00000000    0.00222503
     atom   20 type  4   force =     0.00000000    0.00000000    0.00276272
     atom   21 type  3   force =    -0.00012179    0.00000000   -0.00222026
     atom   22 type  3   force =     0.00012179    0.00000000   -0.00222026
     atom   23 type  1   force =     0.00000000    0.00000000   -0.00660108
     atom   24 type  1   force =     0.00000000    0.00000000   -0.00754048
     atom   25 type  4   force =    -0.00097506    0.00000000    0.00655362
     atom   26 type  4   force =     0.00097506    0.00000000    0.00655362
     atom   27 type  4   force =    -0.00048608    0.00000000    0.01657392
     atom   28 type  4   force =     0.00048608    0.00000000    0.01657392
     atom   29 type  3   force =     0.00360777    0.00000000   -0.01710439
     atom   30 type  3   force =    -0.00360777    0.00000000   -0.01710439
     atom   31 type  4   force =    -0.01043527    0.00000000    0.03434896
     atom   32 type  4   force =     0.01043527    0.00000000    0.03434896
     atom   33 type  1   force =     0.00000000    0.00000000   -0.03380969
     atom   34 type  1   force =     0.00000000    0.00000000   -0.02099828
     atom   35 type  3   force =    -0.00946050    0.00000000   -0.00379627
     atom   36 type  3   force =     0.00946050    0.00000000   -0.00379627
     atom   37 type  4   force =     0.00000000    0.00000000    0.01157380
     atom   38 type  4   force =     0.00000000    0.00000000    0.01586814
     atom   39 type  4   force =     0.00213080    0.00000000    0.00806462
     atom   40 type  4   force =    -0.00213080    0.00000000    0.00806462
     atom   41 type  5   force =     0.00000000    0.00000000   -0.03814291
     atom   42 type  2   force =     0.00000000    0.00000000   -0.02943431
     atom   43 type  4   force =     0.00000000    0.00000000    0.00591458
     atom   44 type  4   force =     0.00047543    0.00000000    0.00294593
     atom   45 type  4   force =    -0.00047543    0.00000000    0.00294593
     atom   46 type  4   force =     0.00000000    0.00000000    0.00430958
     atom   47 type  3   force =     0.00056326    0.00000000    0.00111244
     atom   48 type  3   force =    -0.00056326    0.00000000    0.00111244
     atom   49 type  1   force =     0.00000000    0.00000000   -0.00091523
     atom   50 type  1   force =     0.00000000    0.00000000   -0.00108677
     atom   51 type  4   force =     0.00008413    0.00000000    0.00081327
     atom   52 type  4   force =    -0.00008413    0.00000000    0.00081327
     atom   53 type  3   force =    -0.00004470    0.00000000   -0.00036551
     atom   54 type  3   force =     0.00004470    0.00000000   -0.00036551
     atom   55 type  4   force =     0.00000049    0.00000000    0.00024937
     atom   56 type  4   force =    -0.00000049    0.00000000    0.00024937

     Total force =     0.093155     Total SCF correction =     0.000252

     Computing stress (Cartesian axis) and pressure

     negative rho (up, down):  9.199E-02 0.000E+00
          total   stress  (Ry/bohr**3)                   (kbar)     P=       -7.13
  -0.00008065   0.00000000   0.00000000          -11.86        0.00        0.00
   0.00000000  -0.00003723   0.00000000            0.00       -5.48        0.00
   0.00000000   0.00000000  -0.00002745            0.00        0.00       -4.04

     General routines

     Parallel routines

   This run was terminated on:  17:11:28  25May2021

   JOB DONE.
[1621977089.021633] [holy7c08511:159688:0]          mpool.c:43   UCX  WARN  object 0x33de600 was not returned to mpool ucp_requests
[1621977089.022163] [holy7c08511:159687:0]          mpool.c:43   UCX  WARN  object 0x32bda00 was not returned to mpool ucp_requests
[1621977089.022873] [holy7c08511:159685:0]          mpool.c:43   UCX  WARN  object 0x3163180 was not returned to mpool ucp_requests
[1621977089.022892] [holy7c08511:159685:0]          mpool.c:43   UCX  WARN  object 0x31636c0 was not returned to mpool ucp_requests
[1621977089.029995] [holy7c08504:91429:0]          mpool.c:43   UCX  WARN  object 0x347ad00 was not returned to mpool ucp_requests
[1621977089.029553] [holy7c08507:249057:0]          mpool.c:43   UCX  WARN  object 0x409bf00 was not returned to mpool ucp_requests
[1621977089.030485] [holy7c08504:91428:0]          mpool.c:43   UCX  WARN  object 0x3c17700 was not returned to mpool ucp_requests
[1621977089.030506] [holy7c08504:91428:0]          mpool.c:43   UCX  WARN  object 0x3c17a80 was not returned to mpool ucp_requests
[1621977089.028908] [holy7c08501:222216:0]          mpool.c:43   UCX  WARN  object 0x3b96a00 was not returned to mpool ucp_requests
[1621977089.028059] [holy7c08509:36944:0]          mpool.c:43   UCX  WARN  object 0x429e600 was not returned to mpool ucp_requests
[1621977089.031033] [holy7c08501:222218:0]          mpool.c:43   UCX  WARN  object 0x43e8b40 was not returned to mpool ucp_requests
[1621977089.031057] [holy7c08501:222218:0]          mpool.c:43   UCX  WARN  object 0x43e9240 was not returned to mpool ucp_requests
[1621977089.035790] [holy7c08507:249054:0]          mpool.c:43   UCX  WARN  object 0x292e5c0 was not returned to mpool ucp_requests
[1621977089.035809] [holy7c08507:249054:0]          mpool.c:43   UCX  WARN  object 0x292ecc0 was not returned to mpool ucp_requests
[1621977089.035129] [holy7c08509:36943:0]          mpool.c:43   UCX  WARN  object 0x43f8d40 was not returned to mpool ucp_requests
[1621977089.038998] [holy7c08509:36941:0]          mpool.c:43   UCX  WARN  object 0x3212a00 was not returned to mpool ucp_requests
[1621977089.039016] [holy7c08509:36941:0]          mpool.c:43   UCX  WARN  object 0x3213100 was not returned to mpool ucp_requests
[1621977089.044000] [holy7c08501:222217:0]          mpool.c:43   UCX  WARN  object 0x28390c0 was not returned to mpool ucp_requests