     Program PWSCF v.6.5 starts on 25May2021 at 16:37:39

     R & G space division:  proc/nbgrp/npool/nimage =      32
     Reading input from YCBCO50_212_BaO_cleave_2.25_sep.pwi
Warning: card &IONS ignored
Warning: card     ION_DYNAMICS = 'BFGS' ignored
Warning: card / ignored
Warning: card &CELL ignored
Warning: card     CELL_DYNAMICS = 'BFGS' ignored
Warning: card     PRESS_CONV_THR = 5 ignored
Warning: card / ignored

     Current dimensions of program PWSCF are:
     Max number of different atomic species (ntypx) = 10
     Max number of k-points (npk) =  40000
     Max angular momentum in pseudopotentials (lmaxx) =  3

     Message from routine setup:
     using ibrav=0 with symmetry is DISCOURAGED, use correct ibrav instead

     bravais-lattice index     =            0
     lattice parameter (alat)  =      14.8133  a.u.
     unit-cell volume          =    9162.7262 (a.u.)^3
     number of atoms/cell      =           56
     number of atomic types    =            5
     number of electrons       =       456.00
     number of Kohn-Sham states=          274
     kinetic-energy cutoff     =      60.0000  Ry
     charge density cutoff     =     720.0000  Ry
     convergence threshold     =      1.0E-08
     mixing beta               =       0.5000
     number of iterations used =           10  local-TF  mixing
     Exchange-correlation= SLA PW PBE PBE
                           (   1   4   3   4   0   0   0)

     celldm(1)=  14.813271  celldm(2)=   0.000000  celldm(3)=   0.000000
     celldm(4)=   0.000000  celldm(5)=   0.000000  celldm(6)=   0.000000

     crystal axes: (cart. coord. in units of alat)
               a(1) = (   1.000000   0.000000   0.000000 )
               a(2) = (   0.000000   0.477453   0.000000 )
               a(3) = (   0.000000   0.000000   5.903933 )

     reciprocal axes: (cart. coord. in units 2 pi/alat)
               b(1) = (  1.000000  0.000000  0.000000 )
               b(2) = (  0.000000  2.094448  0.000000 )
               b(3) = (  0.000000  0.000000  0.169379 )

     PseudoPot. # 1 for Ba read from file:
     ./pseudo/Ba.pbe-nsp-van.UPF
     MD5 check sum: 2b9c31dd849566dd297d80989662b7a0
     Pseudo is Ultrasoft + core correction, Zval = 10.0
     Generated by new atomic code, or converted to UPF format
     Using radial grid of  907 points,  6 beta functions with:
                l(1) =   0
                l(2) =   0
                l(3) =   1
                l(4) =   1
                l(5) =   2
                l(6) =   2
     Q(r) pseudized with  6 coefficients,  rinner =    1.200   1.200   1.200
                                                       1.200   1.200

     PseudoPot. # 2 for Ca read from file:
     ./pseudo/Ca.pbe-nsp-van.UPF
     MD5 check sum: 6471098428ff4fa451746d08035ff179
     Pseudo is Ultrasoft + core correction, Zval = 10.0
     Generated by new atomic code, or converted to UPF format
     Using radial grid of  845 points,  6 beta functions with:
                l(1) =   0
                l(2) =   0
                l(3) =   1
                l(4) =   1
                l(5) =   2
                l(6) =   2
     Q(r) pseudized with  6 coefficients,  rinner =    1.200   1.200   1.200
                                                       1.200   1.200

     PseudoPot. # 3 for Cu read from file:
     ./pseudo/Cu.pbe-n-van_ak.UPF
     MD5 check sum: 34e3282627ffb533726feb647e090d62
     Pseudo is Ultrasoft + core correction, Zval = 11.0
     Generated by new atomic code, or converted to UPF format
     Using radial grid of  867 points,  6 beta functions with:
                l(1) =   0
                l(2) =   0
                l(3) =   1
                l(4) =   1
                l(5) =   2
                l(6) =   2
     Q(r) pseudized with  8 coefficients,  rinner =    1.400   1.400   1.400
                                                       1.400   1.400

     PseudoPot. # 4 for O  read from file:
     ./pseudo/O.pbe-van_ak.UPF
     MD5 check sum: 783ce7fe4c79b6a4916957118fed0856
     Pseudo is Ultrasoft, Zval =  6.0
     Generated by new atomic code, or converted to UPF format
     Using radial grid of  737 points,  4 beta functions with:
                l(1) =   0
                l(2) =   0
                l(3) =   1
                l(4) =   1
     Q(r) pseudized with  8 coefficients,  rinner =    0.800   0.800   0.800

     PseudoPot. # 5 for Y  read from file:
     ./pseudo/Y.pbe-nsp-van.UPF
     MD5 check sum: 4412fed3ab108fed87a1b7d6a69a4a38
     Pseudo is Ultrasoft + core correction, Zval = 11.0
     Generated by new atomic code, or converted to UPF format
     Using radial grid of  885 points,  6 beta functions with:
                l(1) =   0
                l(2) =   0
                l(3) =   1
                l(4) =   1
                l(5) =   2
                l(6) =   2
     Q(r) pseudized with  6 coefficients,  rinner =    1.200   1.200   1.200
                                                       1.200   1.200

     atomic species   valence    mass     pseudopotential
        Ba            10.00   137.32700     Ba( 1.00)
        Ca            10.00    40.07800     Ca( 1.00)
        Cu            11.00    63.54600     Cu( 1.00)
        O              6.00    15.99900     O ( 1.00)
        Y             11.00    88.90584     Y ( 1.00)

      4 Sym. Ops. (no inversion) found ( 2 have fractional translation)

   Cartesian axes

     site n.     atom                  positions (alat units)
         1           O   tau(   1) = (  -0.0008343   0.2387265  -0.0222443  )
         2           O   tau(   2) = (   0.5008340   0.2387265  -0.0222443  )
         3           Cu  tau(   3) = (   0.5017257   0.0000000   0.0109608  )
         4           Cu  tau(   4) = (  -0.0017260   0.0000000   0.0109608  )
         5           O   tau(   5) = (  -0.0028933   0.0000000   0.2506504  )
         6           O   tau(   6) = (   0.5028929   0.0000000   0.2506504  )
         7           Ba  tau(   7) = (   0.7499995   0.2387265   0.2749435  )
         8           Ba  tau(   8) = (   0.2499998   0.2387265   0.2755214  )
         9           Cu  tau(   9) = (   0.4980963   0.0000000   0.5208446  )
        10           Cu  tau(  10) = (   0.0019033   0.0000000   0.5208446  )
        11           O   tau(  11) = (   0.2499998   0.0000000   0.5341884  )
        12           O   tau(  12) = (   0.5083351   0.2387265   0.5569851  )
        13           O   tau(  13) = (  -0.0083354   0.2387265   0.5569851  )
        14           O   tau(  14) = (   0.7499995   0.0000000   0.5573831  )
        15           Ca  tau(  15) = (   0.2499998   0.2387265   0.7436937  )
        16           Y   tau(  16) = (   0.7499995   0.2387265   0.7469544  )
        17           O   tau(  17) = (  -0.0063798   0.2387265   0.9248530  )
        18           O   tau(  18) = (   0.5063794   0.2387265   0.9248530  )
        19           O   tau(  19) = (   0.7499995   0.0000000   0.9338544  )
        20           O   tau(  20) = (   0.2499998   0.0000000   0.9461329  )
        21           Cu  tau(  21) = (   0.0015717   0.0000000   0.9686860  )
        22           Cu  tau(  22) = (   0.4984280   0.0000000   0.9686860  )
        23           Ba  tau(  23) = (   0.2499998   0.2387265   1.2085224  )
        24           Ba  tau(  24) = (   0.7499995   0.2387265   1.2233294  )
        25           O   tau(  25) = (   0.0063772   0.0000000   1.2547537  )
        26           O   tau(  26) = (   0.4936224   0.0000000   1.2547537  )
        27           O   tau(  27) = (   0.5384045   0.2387265   1.4952521  )
        28           O   tau(  28) = (  -0.0384049   0.2387265   1.4952521  )
        29           Cu  tau(  29) = (   0.5006120   0.0000000   1.4952546  )
        30           Cu  tau(  30) = (  -0.0006123   0.0000000   1.4952546  )
        31           O   tau(  31) = (   0.4936212   0.0000000   1.7357531  )
        32           O   tau(  32) = (   0.0063785   0.0000000   1.7357531  )
        33           Ba  tau(  33) = (   0.7499995   0.2387265   1.7671824  )
        34           Ba  tau(  34) = (   0.2499998   0.2387265   1.7819920  )
        35           Cu  tau(  35) = (   0.4984280   0.0000000   2.3088553  )
        36           Cu  tau(  36) = (   0.0015717   0.0000000   2.3088553  )
        37           O   tau(  37) = (   0.2499998   0.0000000   2.3314135  )
        38           O   tau(  38) = (   0.7499995   0.0000000   2.3436831  )
        39           O   tau(  39) = (   0.5063781   0.2387265   2.3526883  )
        40           O   tau(  40) = (  -0.0063785   0.2387265   2.3526883  )
        41           Y   tau(  41) = (   0.7499995   0.2387265   2.5305818  )
        42           Ca  tau(  42) = (   0.2499998   0.2387265   2.5338515  )
        43           O   tau(  43) = (   0.7499995   0.0000000   2.7201493  )
        44           O   tau(  44) = (  -0.0083354   0.2387265   2.7205511  )
        45           O   tau(  45) = (   0.5083351   0.2387265   2.7205511  )
        46           O   tau(  46) = (   0.2499998   0.0000000   2.7433491  )
        47           Cu  tau(  47) = (   0.0019059   0.0000000   2.7566827  )
        48           Cu  tau(  48) = (   0.4980938   0.0000000   2.7566827  )
        49           Ba  tau(  49) = (   0.2499998   0.2387265   3.0020224  )
        50           Ba  tau(  50) = (   0.7499995   0.2387265   3.0025646  )
        51           O   tau(  51) = (  -0.0028895   0.0000000   3.0268718  )
        52           O   tau(  52) = (   0.5028891   0.0000000   3.0268718  )
        53           Cu  tau(  53) = (   0.5017844   0.0000000   3.2665563  )
        54           Cu  tau(  54) = (  -0.0017847   0.0000000   3.2665563  )
        55           O   tau(  55) = (   0.5008990   0.2387265   3.2997627  )
        56           O   tau(  56) = (  -0.0008994   0.2387265   3.2997627  )

     number of k points=    25  Gaussian smearing, width (Ry)=  0.0100
                       cart. coord. in units 2pi/alat
        k(    1) = (   0.0000000   0.0000000   0.0000000), wk =   0.0312500
        k(    2) = (   0.0000000   0.2618060   0.0000000), wk =   0.0625000
        k(    3) = (   0.0000000   0.5236121   0.0000000), wk =   0.0625000
        k(    4) = (   0.0000000   0.7854181   0.0000000), wk =   0.0625000
        k(    5) = (   0.0000000  -1.0472241   0.0000000), wk =   0.0312500
        k(    6) = (   0.1250000   0.0000000   0.0000000), wk =   0.0625000
        k(    7) = (   0.1250000   0.2618060   0.0000000), wk =   0.1250000
        k(    8) = (   0.1250000   0.5236121   0.0000000), wk =   0.1250000
        k(    9) = (   0.1250000   0.7854181   0.0000000), wk =   0.1250000
        k(   10) = (   0.1250000  -1.0472241   0.0000000), wk =   0.0625000
        k(   11) = (   0.2500000   0.0000000   0.0000000), wk =   0.0625000
        k(   12) = (   0.2500000   0.2618060   0.0000000), wk =   0.1250000
        k(   13) = (   0.2500000   0.5236121   0.0000000), wk =   0.1250000
        k(   14) = (   0.2500000   0.7854181   0.0000000), wk =   0.1250000
        k(   15) = (   0.2500000  -1.0472241   0.0000000), wk =   0.0625000
        k(   16) = (   0.3750000   0.0000000   0.0000000), wk =   0.0625000
        k(   17) = (   0.3750000   0.2618060   0.0000000), wk =   0.1250000
        k(   18) = (   0.3750000   0.5236121   0.0000000), wk =   0.1250000
        k(   19) = (   0.3750000   0.7854181   0.0000000), wk =   0.1250000
        k(   20) = (   0.3750000  -1.0472241   0.0000000), wk =   0.0625000
        k(   21) = (  -0.5000000   0.0000000   0.0000000), wk =   0.0312500
        k(   22) = (  -0.5000000   0.2618060   0.0000000), wk =   0.0625000
        k(   23) = (  -0.5000000   0.5236121   0.0000000), wk =   0.0625000
        k(   24) = (  -0.5000000   0.7854181   0.0000000), wk =   0.0625000
        k(   25) = (  -0.5000000  -1.0472241   0.0000000), wk =   0.0312500

     Initial potential from superposition of free atoms

     starting charge  455.69457, renormalised to  456.00000

     negative rho (up, down):  9.322E-02 0.000E+00
     Starting wfcs are  396 randomized atomic wfcs

     Self-consistent Calculation

     iteration #  1     ecut=    60.00 Ry     beta= 0.50
     Davidson diagonalization with overlap
     ethr =  1.00E-02,  avg # of iterations =  2.0

     negative rho (up, down):  8.631E-02 0.000E+00

     total energy              =   -3708.27716013 Ry
     Harris-Foulkes estimate   =   -3716.57212390 Ry
     estimated scf accuracy    <      33.07603214 Ry

[...]

     iteration # 20     ecut=    60.00 Ry     beta= 0.50
     Davidson diagonalization with overlap
     c_bands:  1 eigenvalues not converged
     c_bands:  1 eigenvalues not converged
     ethr =  1.76E-06,  avg # of iterations = 11.5

[...]

     iteration # 23     ecut=    60.00 Ry     beta= 0.50
     Davidson diagonalization with overlap
     c_bands:  1 eigenvalues not converged
     ethr =  2.27E-07,  avg # of iterations =  5.1

[...]

     total energy              =   -3711.62501805 Ry
     Harris-Foulkes estimate   =   -3711.62501804 Ry
     estimated scf accuracy    <       0.00000002 Ry

     iteration # 36     ecut=    60.00 Ry     beta= 0.50
     Davidson diagonalization with overlap
     ethr =  3.32E-12,  avg # of iterations =  1.8

[...]

     End of self-consistent calculation

          k = 0.0000 0.0000 0.0000 ( 72027 PWs)   bands (ev):

   -38.2108 -37.9083 -35.8392 -35.4998 -24.3740 -23.9817 -22.9896 -22.9662
   -22.8613 -22.8406 -22.8384 -22.6924 -18.6859 -18.5815 -18.3547 -18.3001
   -18.2139 -17.9199 -17.1871 -17.0516 -16.8690 -16.8193 -16.7352 -16.5408
   -15.5956 -15.3590 -15.3176 -15.1556 -15.1509 -15.1093 -14.8457 -14.7408
   -14.6947 -14.6646 -14.6398 -14.6274 -14.5169 -14.4726 -14.3418 -14.3170
   -14.2825 -14.1858 -14.1785 -14.1698 -14.1670 -14.1548 -14.1316 -14.0773
   -14.0755 -14.0124 -13.9927 -13.8459 -13.7285 -13.4988  -9.7315  -9.2650
    -9.1337  -9.0992  -8.7859  -8.7493  -8.2281  -8.1996  -8.1282  -8.1100
    -8.0948  -8.0390  -8.0273  -8.0178  -7.9009  -7.8780  -7.8366  -7.8044
    -7.7832  -7.7154  -7.6629  -7.6534  -7.6401  -7.4938  -3.1596  -3.1167
    -3.0020  -2.6033  -2.3455  -2.3334  -2.2586  -2.2517  -2.2338  -2.2221
    -2.2042  -2.1005  -2.0633  -2.0200  -1.9867  -1.9248  -1.8441  -1.8403
    -1.8139  -1.8109  -1.7844  -1.7258  -1.7131  -1.7004  -1.5983  -1.5090
    -1.4200  -1.3992  -1.3177  -1.2930  -1.2837  -1.2188  -1.2092  -1.1861
    -1.0933  -1.0928  -1.0927  -1.0912  -1.0705  -1.0409  -1.0401  -0.9431
    -0.9059  -0.9021  -0.8903  -0.8662  -0.8603  -0.8497  -0.7954  -0.7083
    -0.6672  -0.6370  -0.5229  -0.4267  -0.4237  -0.4216  -0.3674  -0.3545
    -0.3077  -0.3035  -0.3012  -0.2981  -0.2633  -0.2158  -0.2078  -0.1876
    -0.1643  -0.1294  -0.1143  -0.1094  -0.1016  -0.0864  -0.0350   0.0025
     0.0048   0.0147   0.0193   0.0202   0.0463   0.0591   0.1007   0.1020
     0.1395   0.1413   0.1774   0.1931   0.2262   0.2273   0.2435   0.2714
     0.3187   0.3544   0.4120   0.4196   0.4333   0.4345   0.4427   0.4619
     0.5315   0.5909   0.5978   0.6460   0.6671   0.8688   0.8788   0.8809
     0.9130   0.9139   0.9204   0.9472   0.9851   1.0024   1.0215   1.0489
     1.0807   1.0855   1.1053   1.1067   1.1368   1.1391   1.1727   1.1933
     1.2268   1.2645   1.2882   1.2893   1.3027   1.3244   1.4358   1.4550
     1.5218   1.5626   1.5922   1.5983   1.6020   1.6456   1.6708   1.6841
     1.6937   1.7036   1.7744   1.7961   1.8444   1.8860   1.9411   1.9541
     1.9851   2.0818   2.1344   2.1357   2.1437   2.2000   2.2767   2.3308
     2.4526   2.4612   2.4635   2.5327   2.7447   2.7563   4.4909   5.0976
     5.1151   5.2496   5.6435   5.8633   6.2187   6.2804   6.4237   6.5205
     6.5710   6.9045   7.1572   7.1739   7.2524   7.2540   7.3024   7.5109
     7.6206   7.7429   7.8478   7.9504   8.0073   8.0169   8.1737   8.2751
     8.3264   8.3688   8.3967   8.4956   8.5065   8.5738   8.6352   8.8174
     8.8671   9.0217

[...]

          k = 0.3750-1.0472 0.0000 ( 71902 PWs)   bands (ev):

[...]

          k =-0.5000 0.0000 0.0000 ( 72020 PWs)   bands (ev):

[...]

          k =-0.5000-1.0472 0.0000 ( 71908 PWs)   bands (ev):

   -38.1923 -37.8898 -35.8276 -35.4881 -24.2394 -23.8601 -22.7867 -22.7617
   -22.7571 -22.7356 -22.6568 -22.5789 -18.8541 -18.5623 -18.5114 -18.3910
   -18.2296 -18.0566 -17.2602 -17.0830 -16.9791 -16.9339 -16.7676 -16.6074
   -14.9046 -14.8355 -14.8214 -14.8065 -14.6933 -14.6817 -14.6387 -14.6035
   -14.5578 -14.5340 -14.4949 -14.4877 -14.4794 -14.4329 -14.4244 -14.4084
   -14.3968 -14.3057 -14.2775 -14.2278 -14.0719 -14.0451 -14.0409 -14.0408
   -14.0402 -14.0400 -13.9697 -13.9555 -13.7445 -13.5679  -9.7531  -9.6009
    -9.5771  -9.4602  -9.1118  -9.0674  -8.5719  -8.5476  -8.5212  -8.4998
    -8.4289  -8.3243  -8.2468  -8.2239  -8.2233  -8.2025  -8.1483  -8.1449
    -8.1379  -8.1181  -8.1176  -8.0920  -7.9395  -7.9311  -3.9623  -3.8544
    -3.7489  -3.6642  -3.6563  -3.6107  -3.5239  -3.4173  -3.2048  -3.1695
    -3.1679  -3.1672  -3.1618  -3.0484  -2.5119  -2.4916  -2.4025  -2.3768
    -2.3696  -2.2993  -2.2791  -2.1996  -2.1708  -2.1563  -2.1513  -2.1138
    -2.1129  -2.0930  -2.0833  -2.0371  -2.0195  -2.0172  -1.8810  -1.8539
    -1.8257  -1.7954  -1.6330  -1.6048  -1.5847  -1.5351  -1.5003  -1.4160
    -1.4062  -1.3744  -1.2814  -1.2599  -1.2521  -1.2390  -1.1270  -1.0191
    -0.9771  -0.9590  -0.9500  -0.8773  -0.8765  -0.8750  -0.8616  -0.8466
    -0.8357  -0.8353  -0.6959  -0.6940  -0.6929  -0.6383  -0.6140  -0.5548
    -0.5018  -0.4962  -0.4707  -0.4355  -0.2488  -0.1957  -0.1793  -0.1628
     0.0765   0.1262   0.1579   0.1600   0.3630   0.3674   0.3794   0.3837
     0.4279   0.4685   0.4905   0.6003   0.6231   0.6585   0.7216   0.7781
     0.8054   0.8280   0.9243   0.9954   1.0036   1.0366   1.0383   1.0618
     1.0924   1.1057   1.1225   1.1878   1.2407   1.2433   1.2449   1.2592
     1.2876   1.3199   1.3308   1.3811   1.3815   1.3890   1.3915   1.3935
     1.4173   1.4534   1.4855   1.4894   1.4956   1.4981   1.5405   1.5536
     1.6667   1.6998   1.7077   1.7203   1.7697   1.7830   1.7921   1.7985
     1.8099   1.8946   1.9610   2.0187   2.0679   2.0815   2.0816   2.0842
     2.0924   2.1527   2.2272   2.2653   2.4295   2.4299   2.4385   2.4396
     2.5991   2.6040   2.6138   2.6190   3.3630   3.4320   3.4493   3.5404
     3.5465   3.6229   3.7587   3.7837   3.8059   3.8597   5.3747   5.6562
     6.4167   6.6124   6.6231   6.6501   6.7082   6.7732   6.8531   6.9474
     6.9766   7.0372   7.4479   7.4826   7.5632   7.8762   8.1833   8.3692
     8.3695   8.5575   8.8939   9.0556   9.1419   9.1756   9.2531   9.2797
     9.3137   9.3145   9.3397   9.3853   9.5894   9.6275   9.6457   9.6568
     9.6909   9.7005

     the Fermi energy is     2.6103 ev

!    total energy              =   -3711.62501805 Ry
     Harris-Foulkes estimate   =   -3711.62501805 Ry
     estimated scf accuracy    <          3.6E-09 Ry

     The total energy is the sum of the following terms:

     one-electron contribution =  -56721.26564969 Ry
     hartree contribution      =   28664.06820144 Ry
     xc contribution           =   -1263.75651996 Ry
     ewald contribution        =   25609.34298308 Ry
     smearing contrib. (-TS)   =      -0.01403292 Ry

     convergence has been achieved in  36 iterations

     negative rho (up, down):  9.215E-02 0.000E+00

     Forces acting on atoms (cartesian axes, Ry/au):

     atom    1 type  4   force =    -0.00000550    0.00000000   -0.00010779
     atom    2 type  4   force =     0.00000550    0.00000000   -0.00010779
     atom    3 type  3   force =    -0.00001381    0.00000000   -0.00007265
     atom    4 type  3   force =     0.00001381    0.00000000   -0.00007265
     atom    5 type  4   force =     0.00000359    0.00000000   -0.00001655
     atom    6 type  4   force =    -0.00000359    0.00000000   -0.00001655
     atom    7 type  1   force =     0.00000000    0.00000000   -0.00019409
     atom    8 type  1   force =     0.00000000    0.00000000   -0.00018128
     atom    9 type  3   force =     0.00003970    0.00000000    0.00003988
     atom   10 type  3   force =    -0.00003970    0.00000000    0.00003988
     atom   11 type  4   force =     0.00000000    0.00000000    0.00025207
     atom   12 type  4   force =     0.00000592    0.00000000    0.00025381
     atom   13 type  4   force =    -0.00000592    0.00000000    0.00025381
     atom   14 type  4   force =     0.00000000    0.00000000    0.00038441
     atom   15 type  2   force =     0.00000000    0.00000000   -0.00102069
     atom   16 type  5   force =     0.00000000    0.00000000   -0.00155048
     atom   17 type  4   force =     0.00017303    0.00000000    0.00173368
     atom   18 type  4   force =    -0.00017303    0.00000000    0.00173368
     atom   19 type  4   force =     0.00000000    0.00000000    0.00200077
     atom   20 type  4   force =     0.00000000    0.00000000    0.00249319
     atom   21 type  3   force =    -0.00011840    0.00000000   -0.00196949
     atom   22 type  3   force =     0.00011840    0.00000000   -0.00196949
     atom   23 type  1   force =     0.00000000    0.00000000   -0.00607043
     atom   24 type  1   force =     0.00000000    0.00000000   -0.00692732
     atom   25 type  4   force =    -0.00091622    0.00000000    0.00623236
     atom   26 type  4   force =     0.00091622    0.00000000    0.00623236
     atom   27 type  4   force =    -0.00012198    0.00000000    0.01495683
     atom   28 type  4   force =     0.00012198    0.00000000    0.01495683
     atom   29 type  3   force =     0.00293468    0.00000000   -0.01465078
     atom   30 type  3   force =    -0.00293468    0.00000000   -0.01465078
     atom   31 type  4   force =    -0.00971234    0.00000000    0.02773288
     atom   32 type  4   force =     0.00971234    0.00000000    0.02773288
     atom   33 type  1   force =     0.00000000    0.00000000   -0.02581843
     atom   34 type  1   force =     0.00000000    0.00000000   -0.01226602
     atom   35 type  3   force =    -0.00901291    0.00000000   -0.00216599
     atom   36 type  3   force =     0.00901291    0.00000000   -0.00216599
     atom   37 type  4   force =     0.00000000    0.00000000    0.00805257
     atom   38 type  4   force =     0.00000000    0.00000000    0.01349397
     atom   39 type  4   force =     0.00204514    0.00000000    0.00620831
     atom   40 type  4   force =    -0.00204514    0.00000000    0.00620831
     atom   41 type  5   force =     0.00000000    0.00000000   -0.03692937
     atom   42 type  2   force =     0.00000000    0.00000000   -0.02882174
     atom   43 type  4   force =     0.00000000    0.00000000    0.00552262
     atom   44 type  4   force =     0.00043005    0.00000000    0.00276791
     atom   45 type  4   force =    -0.00043005    0.00000000    0.00276791
     atom   46 type  4   force =     0.00000000    0.00000000    0.00406949
     atom   47 type  3   force =     0.00055966    0.00000000    0.00106155
     atom   48 type  3   force =    -0.00055966    0.00000000    0.00106155
     atom   49 type  1   force =     0.00000000    0.00000000   -0.00088288
     atom   50 type  1   force =     0.00000000    0.00000000   -0.00104203
     atom   51 type  4   force =     0.00007447    0.00000000    0.00078393
     atom   52 type  4   force =    -0.00007447    0.00000000    0.00078393
     atom   53 type  3   force =    -0.00004429    0.00000000   -0.00032277
     atom   54 type  3   force =     0.00004429    0.00000000   -0.00032277
     atom   55 type  4   force =    -0.00000184    0.00000000    0.00025268
     atom   56 type  4   force =     0.00000184    0.00000000    0.00025268

     Total force =     0.079987     Total SCF correction =     0.000312

     Computing stress (Cartesian axis) and pressure

     negative rho (up, down):  9.215E-02 0.000E+00
          total   stress  (Ry/bohr**3)                   (kbar)     P=       -7.30
  -0.00007787   0.00000000   0.00000000          -11.46        0.00        0.00
   0.00000000  -0.00003848   0.00000000            0.00       -5.66        0.00
   0.00000000   0.00000000  -0.00003245            0.00        0.00       -4.77

     General routines

     Parallel routines

   This run was terminated on:  17: 9:47  25May2021

   JOB DONE.
[1621976987.641494] [holy7c06303:218426:0]          mpool.c:43   UCX  WARN  object 0x3027840 was not returned to mpool ucp_requests
[1621976987.644623] [holy7c06204:182164:0]          mpool.c:43   UCX  WARN  object 0x3feaf80 was not returned to mpool ucp_requests
[1621976987.643492] [holy7c06304:146865:0]          mpool.c:43   UCX  WARN  object 0x3892300 was not returned to mpool ucp_requests
[1621976987.643556] [holy7c06401:171699:0]          mpool.c:43   UCX  WARN  object 0x421aec0 was not returned to mpool ucp_requests
[1621976987.644057] [holy7c06108:151739:0]          mpool.c:43   UCX  WARN  object 0x43f57c0 was not returned to mpool ucp_requests
[1621976987.650170] [holy7c06111:150814:0]          mpool.c:43   UCX  WARN  object 0x4739000 was not returned to mpool ucp_requests
[1621976987.650183] [holy7c06111:150814:0]          mpool.c:43   UCX  WARN  object 0x47391c0 was not returned to mpool ucp_requests
[1621976987.648420] [holy7c06402:160474:0]          mpool.c:43   UCX  WARN  object 0x3469f80 was not returned to mpool ucp_requests
[1621976987.644052] [holy7c06110:195650:0]          mpool.c:43   UCX  WARN  object 0x2980740 was not returned to mpool ucp_requests
[1621976987.654283] [holy7c06306:202284:0]          mpool.c:43   UCX  WARN  object 0x3c7e140 was not returned to mpool ucp_requests
[1621976987.654305] [holy7c06306:202284:0]          mpool.c:43   UCX  WARN  object 0x3c7ea00 was not returned to mpool ucp_requests
[1621976987.655228] [holy7c06209:66068:0]          mpool.c:43   UCX  WARN  object 0x34ca540 was not returned to mpool ucp_requests
[1621976987.655494] [holy7c06206:26615:0]          mpool.c:43   UCX  WARN  object 0x3200280 was not returned to mpool ucp_requests
[1621976987.655510] [holy7c06206:26615:0]          mpool.c:43   UCX  WARN  object 0x3200440 was not returned to mpool ucp_requests
[1621976987.646384] [holy7c06204:182163:0]          mpool.c:43   UCX  WARN  object 0x4035ac0 was not returned to mpool ucp_requests
[1621976987.654381] [holy7c06212:38334:0]          mpool.c:43   UCX  WARN  object 0x31aed40 was not returned to mpool ucp_requests
[1621976987.654401] [holy7c06212:38334:0]          mpool.c:43   UCX  WARN  object 0x31af280 was not returned to mpool ucp_requests