     Program PWSCF v.6.5 starts on 28May2021 at 10: 0:21

     R & G space division:  proc/nbgrp/npool/nimage =      32
     Reading input from YCBCO50_212_CuO_cleave_2.25_sep.pwi
Warning: card &IONS ignored
Warning: card     ION_DYNAMICS = 'BFGS' ignored
Warning: card / ignored
Warning: card &CELL ignored
Warning: card     CELL_DYNAMICS = 'BFGS' ignored
Warning: card     PRESS_CONV_THR = 5 ignored
Warning: card / ignored

     Current dimensions of program PWSCF are:
     Max number of different atomic species (ntypx) = 10
     Max number of k-points (npk) =  40000
     Max angular momentum in pseudopotentials (lmaxx) =  3

     Message from routine setup:
     using ibrav=0 with symmetry is DISCOURAGED, use correct ibrav instead

     bravais-lattice index     =            0
     lattice parameter (alat)  =      14.8133  a.u.
     unit-cell volume          =    9162.7262 (a.u.)^3
     number of atoms/cell      =           56
     number of atomic types    =            5
     number of electrons       =       456.00
     number of Kohn-Sham states=          274
     kinetic-energy cutoff     =      60.0000  Ry
     charge density cutoff     =     720.0000  Ry
     convergence threshold     =      1.0E-08
     mixing beta               =       0.5000
     number of iterations used =           10  local-TF  mixing
     Exchange-correlation= SLA PW PBE PBE
                           (   1   4   3   4   0   0   0)

     celldm(1)=  14.813271  celldm(2)=   0.000000  celldm(3)=   0.000000
     celldm(4)=   0.000000  celldm(5)=   0.000000  celldm(6)=   0.000000

     crystal axes: (cart. coord. in units of alat)
               a(1) = (   1.000000   0.000000   0.000000 )
               a(2) = (   0.000000   0.477453   0.000000 )
               a(3) = (   0.000000   0.000000   5.903933 )

     reciprocal axes: (cart. coord. in units 2 pi/alat)
               b(1) = (  1.000000  0.000000  0.000000 )
               b(2) = (  0.000000  2.094448  0.000000 )
               b(3) = (  0.000000  0.000000  0.169379 )

     PseudoPot. # 1 for Ba read from file:
     ./pseudo/Ba.pbe-nsp-van.UPF
     MD5 check sum: 2b9c31dd849566dd297d80989662b7a0
     Pseudo is Ultrasoft + core correction, Zval = 10.0
     Generated by new atomic code, or converted to UPF format
     Using radial grid of  907 points,  6 beta functions with:
                l(1) =   0
                l(2) =   0
                l(3) =   1
                l(4) =   1
                l(5) =   2
                l(6) =   2
     Q(r) pseudized with  6 coefficients,  rinner =    1.200   1.200   1.200
                                                       1.200   1.200

     PseudoPot. # 2 for Ca read from file:
     ./pseudo/Ca.pbe-nsp-van.UPF
     MD5 check sum: 6471098428ff4fa451746d08035ff179
     Pseudo is Ultrasoft + core correction, Zval = 10.0
     Generated by new atomic code, or converted to UPF format
     Using radial grid of  845 points,  6 beta functions with:
                l(1) =   0
                l(2) =   0
                l(3) =   1
                l(4) =   1
                l(5) =   2
                l(6) =   2
     Q(r) pseudized with  6 coefficients,  rinner =    1.200   1.200   1.200
                                                       1.200   1.200

     PseudoPot. # 3 for Cu read from file:
     ./pseudo/Cu.pbe-n-van_ak.UPF
     MD5 check sum: 34e3282627ffb533726feb647e090d62
     Pseudo is Ultrasoft + core correction, Zval = 11.0
     Generated by new atomic code, or converted to UPF format
     Using radial grid of  867 points,  6 beta functions with:
                l(1) =   0
                l(2) =   0
                l(3) =   1
                l(4) =   1
                l(5) =   2
                l(6) =   2
     Q(r) pseudized with  8 coefficients,  rinner =    1.400   1.400   1.400
                                                       1.400   1.400

     PseudoPot. # 4 for O  read from file:
     ./pseudo/O.pbe-van_ak.UPF
     MD5 check sum: 783ce7fe4c79b6a4916957118fed0856
     Pseudo is Ultrasoft, Zval =  6.0
     Generated by new atomic code, or converted to UPF format
     Using radial grid of  737 points,  4 beta functions with:
                l(1) =   0
                l(2) =   0
                l(3) =   1
                l(4) =   1
     Q(r) pseudized with  8 coefficients,  rinner =    0.800   0.800   0.800

     PseudoPot. # 5 for Y  read from file:
     ./pseudo/Y.pbe-nsp-van.UPF
     MD5 check sum: 4412fed3ab108fed87a1b7d6a69a4a38
     Pseudo is Ultrasoft + core correction, Zval = 11.0
     Generated by new atomic code, or converted to UPF format
     Using radial grid of  885 points,  6 beta functions with:
                l(1) =   0
                l(2) =   0
                l(3) =   1
                l(4) =   1
                l(5) =   2
                l(6) =   2
     Q(r) pseudized with  6 coefficients,  rinner =    1.200   1.200   1.200
                                                       1.200   1.200

     atomic species   valence    mass     pseudopotential
        Ba            10.00   137.32700     Ba( 1.00)
        Ca            10.00    40.07800     Ca( 1.00)
        Cu            11.00    63.54600     Cu( 1.00)
        O              6.00    15.99900     O ( 1.00)
        Y             11.00    88.90584     Y ( 1.00)

      4 Sym. Ops. (no inversion) found ( 2 have fractional translation)

   Cartesian axes

     site n.     atom                  positions (alat units)
         1           O   tau(   1) = (  -0.0008343   0.2387265  -0.0222443  )
         2           O   tau(   2) = (   0.5008340   0.2387265  -0.0222443  )
         3           Cu  tau(   3) = (   0.5017257   0.0000000   0.0109608  )
         4           Cu  tau(   4) = (  -0.0017260   0.0000000   0.0109608  )
         5           O   tau(   5) = (  -0.0028933   0.0000000   0.2506504  )
         6           O   tau(   6) = (   0.5028929   0.0000000   0.2506504  )
         7           Ba  tau(   7) = (   0.7499995   0.2387265   0.2749435  )
         8           Ba  tau(   8) = (   0.2499998   0.2387265   0.2755214  )
         9           Cu  tau(   9) = (   0.4980963   0.0000000   0.5208446  )
        10           Cu  tau(  10) = (   0.0019033   0.0000000   0.5208446  )
        11           O   tau(  11) = (   0.2499998   0.0000000   0.5341884  )
        12           O   tau(  12) = (   0.5083351   0.2387265   0.5569851  )
        13           O   tau(  13) = (  -0.0083354   0.2387265   0.5569851  )
        14           O   tau(  14) = (   0.7499995   0.0000000   0.5573831  )
        15           Ca  tau(  15) = (   0.2499998   0.2387265   0.7436937  )
        16           Y   tau(  16) = (   0.7499995   0.2387265   0.7469544  )
        17           O   tau(  17) = (  -0.0063798   0.2387265   0.9248530  )
        18           O   tau(  18) = (   0.5063794   0.2387265   0.9248530  )
        19           O   tau(  19) = (   0.7499995   0.0000000   0.9338544  )
        20           O   tau(  20) = (   0.2499998   0.0000000   0.9461329  )
        21           Cu  tau(  21) = (   0.0015717   0.0000000   0.9686860  )
        22           Cu  tau(  22) = (   0.4984280   0.0000000   0.9686860  )
        23           Ba  tau(  23) = (   0.2499998   0.2387265   1.2085224  )
        24           Ba  tau(  24) = (   0.7499995   0.2387265   1.2233294  )
        25           O   tau(  25) = (   0.0063772   0.0000000   1.2547537  )
        26           O   tau(  26) = (   0.4936224   0.0000000   1.2547537  )
        27           O   tau(  27) = (   0.5384045   0.2387265   1.4952521  )
        28           O   tau(  28) = (  -0.0384049   0.2387265   1.4952521  )
        29           Cu  tau(  29) = (   0.5006120   0.0000000   1.4952546  )
        30           Cu  tau(  30) = (  -0.0006123   0.0000000   1.4952546  )
        31           O   tau(  31) = (   0.4936212   0.0000000   2.0227851  )
        32           O   tau(  32) = (   0.0063785   0.0000000   2.0227851  )
        33           Ba  tau(  33) = (   0.7499995   0.2387265   2.0542145  )
        34           Ba  tau(  34) = (   0.2499998   0.2387265   2.0690241  )
        35           Cu  tau(  35) = (   0.4984280   0.0000000   2.3088553  )
        36           Cu  tau(  36) = (   0.0015717   0.0000000   2.3088553  )
        37           O   tau(  37) = (   0.2499998   0.0000000   2.3314135  )
        38           O   tau(  38) = (   0.7499995   0.0000000   2.3436831  )
        39           O   tau(  39) = (   0.5063781   0.2387265   2.3526883  )
        40           O   tau(  40) = (  -0.0063785   0.2387265   2.3526883  )
        41           Y   tau(  41) = (   0.7499995   0.2387265   2.5305818  )
        42           Ca  tau(  42) = (   0.2499998   0.2387265   2.5338515  )
        43           O   tau(  43) = (   0.7499995   0.0000000   2.7201493  )
        44           O   tau(  44) = (  -0.0083354   0.2387265   2.7205511  )
        45           O   tau(  45) = (   0.5083351   0.2387265   2.7205511  )
        46           O   tau(  46) = (   0.2499998   0.0000000   2.7433491  )
        47           Cu  tau(  47) = (   0.0019059   0.0000000   2.7566827  )
        48           Cu  tau(  48) = (   0.4980938   0.0000000   2.7566827  )
        49           Ba  tau(  49) = (   0.2499998   0.2387265   3.0020224  )
        50           Ba  tau(  50) = (   0.7499995   0.2387265   3.0025646  )
        51           O   tau(  51) = (  -0.0028895   0.0000000   3.0268718  )
        52           O   tau(  52) = (   0.5028891   0.0000000   3.0268718  )
        53           Cu  tau(  53) = (   0.5017844   0.0000000   3.2665563  )
        54           Cu  tau(  54) = (  -0.0017847   0.0000000   3.2665563  )
        55           O   tau(  55) = (   0.5008990   0.2387265   3.2997627  )
        56           O   tau(  56) = (  -0.0008994   0.2387265   3.2997627  )

     number of k points=    25  Gaussian smearing, width (Ry)=  0.0100
                       cart. coord. in units 2pi/alat
        k(    1) = (   0.0000000   0.0000000   0.0000000), wk =   0.0312500
        k(    2) = (   0.0000000   0.2618060   0.0000000), wk =   0.0625000
        k(    3) = (   0.0000000   0.5236121   0.0000000), wk =   0.0625000
        k(    4) = (   0.0000000   0.7854181   0.0000000), wk =   0.0625000
        k(    5) = (   0.0000000  -1.0472241   0.0000000), wk =   0.0312500
        k(    6) = (   0.1250000   0.0000000   0.0000000), wk =   0.0625000
        k(    7) = (   0.1250000   0.2618060   0.0000000), wk =   0.1250000
        k(    8) = (   0.1250000   0.5236121   0.0000000), wk =   0.1250000
        k(    9) = (   0.1250000   0.7854181   0.0000000), wk =   0.1250000
        k(   10) = (   0.1250000  -1.0472241   0.0000000), wk =   0.0625000
        k(   11) = (   0.2500000   0.0000000   0.0000000), wk =   0.0625000
        k(   12) = (   0.2500000   0.2618060   0.0000000), wk =   0.1250000
        k(   13) = (   0.2500000   0.5236121   0.0000000), wk =   0.1250000
        k(   14) = (   0.2500000   0.7854181   0.0000000), wk =   0.1250000
        k(   15) = (   0.2500000  -1.0472241   0.0000000), wk =   0.0625000
        k(   16) = (   0.3750000   0.0000000   0.0000000), wk =   0.0625000
        k(   17) = (   0.3750000   0.2618060   0.0000000), wk =   0.1250000
        k(   18) = (   0.3750000   0.5236121   0.0000000), wk =   0.1250000
        k(   19) = (   0.3750000   0.7854181   0.0000000), wk =   0.1250000
        k(   20) = (   0.3750000  -1.0472241   0.0000000), wk =   0.0625000
        k(   21) = (  -0.5000000   0.0000000   0.0000000), wk =   0.0312500
        k(   22) = (  -0.5000000   0.2618060   0.0000000), wk =   0.0625000
        k(   23) = (  -0.5000000   0.5236121   0.0000000), wk =   0.0625000
        k(   24) = (  -0.5000000   0.7854181   0.0000000), wk =   0.0625000
        k(   25) = (  -0.5000000  -1.0472241   0.0000000), wk =   0.0312500

     Initial potential from superposition of free atoms

     starting charge  455.69457, renormalised to  456.00000

     negative rho (up, down):  9.316E-02 0.000E+00
     Starting wfcs are  396 randomized atomic wfcs

     Self-consistent Calculation

     iteration #  1     ecut=    60.00 Ry     beta= 0.50
     Davidson diagonalization with overlap
     ethr =  1.00E-02,  avg # of iterations =  2.0

     negative rho (up, down):  8.614E-02 0.000E+00

     total energy              =   -3708.23067380 Ry
     Harris-Foulkes estimate   =   -3716.42673550 Ry
     estimated scf accuracy    <      31.36100025 Ry

[...]

     iteration #  7     ecut=    60.00 Ry     beta= 0.50
     Davidson diagonalization with overlap
     c_bands:  1 eigenvalues not converged
     ethr =  2.60E-04,  avg # of iterations =  7.2

[...]

     iteration # 27     ecut=    60.00 Ry     beta= 0.50
     Davidson diagonalization with overlap
     c_bands:  1 eigenvalues not converged
     ethr =  5.19E-09,  avg # of iterations =  2.0

[...]

     total energy              =   -3711.52897528 Ry
     Harris-Foulkes estimate   =   -3711.52897529 Ry
     estimated scf accuracy    <       0.00000002 Ry

     iteration # 36     ecut=    60.00 Ry     beta= 0.50
     Davidson diagonalization with overlap
     ethr =  3.29E-12,  avg # of iterations =  1.0

[...]

     End of self-consistent calculation

          k = 0.0000 0.0000 0.0000 ( 72027 PWs)   bands (ev):

   -38.3566 -38.2939 -35.9914 -35.9204 -23.1011 -23.0905 -23.0840 -22.9728
   -22.9621 -22.9497 -22.7844 -22.5464 -18.8298 -18.7760 -18.7295 -18.6684
   -18.3606 -18.2966 -17.3375 -17.2692 -17.2039 -17.1370 -17.0227 -16.9484
   -15.7340 -15.6928 -15.2752 -15.2563 -15.0657 -14.9470 -14.8933 -14.8822
   -14.8384 -14.8083 -14.7491 -14.7391 -14.7275 -14.7215 -14.5977 -14.5852
   -14.4202 -14.3774 -14.3079 -14.2765 -14.2684 -14.2656 -14.2608 -14.2513
   -14.2234 -14.1503 -14.0865 -14.0305 -13.1386 -12.6704  -8.4113  -8.3400
    -8.3255  -8.2325  -8.2192  -8.1868  -8.1502  -8.1401  -8.0549  -8.0122
    -8.0018  -7.9605  -7.9383  -7.9156  -7.9056  -7.8447  -7.8349  -7.8096
    -7.7844  -7.7743  -7.7638  -7.6025  -7.3883  -7.2855  -3.2800  -3.2568
    -3.1669  -3.0707  -2.4542  -2.4482  -2.3666  -2.3654  -2.3610  -2.3303
    -2.2204  -2.1700  -2.1600  -2.1345  -2.1294  -2.1071  -2.0687  -2.0624
    -2.0021  -1.9657  -1.9586  -1.9055  -1.8526  -1.7972  -1.6596  -1.6312
    -1.4739  -1.4241  -1.4132  -1.3852  -1.3235  -1.2502  -1.2214  -1.2065
    -1.1996  -1.1982  -1.1911  -1.1889  -1.1672  -1.1657  -1.1029  -1.0296
    -0.9746  -0.9675  -0.7262  -0.6857  -0.6120  -0.5490  -0.5382  -0.5285
    -0.5281  -0.5150  -0.5025  -0.4842  -0.4717  -0.4528  -0.4161  -0.4113
    -0.4095  -0.4092  -0.3973  -0.3591  -0.3295  -0.2587  -0.2348  -0.2240
    -0.2233  -0.2148  -0.2011  -0.1618  -0.1534  -0.1388  -0.1318  -0.1059
    -0.1035  -0.1029  -0.0999  -0.0293  -0.0046   0.0029   0.0156   0.0350
     0.0422   0.0431   0.0842   0.1176   0.1292   0.1459   0.1972   0.2407
     0.2726   0.2806   0.3046   0.3058   0.3134   0.3292   0.3332   0.3356
     0.4933   0.5222   0.5909   0.6436   0.6689   0.7065   0.7582   0.7702
     0.7819   0.8036   0.8087   0.8429   0.9169   0.9519   0.9644   0.9866
     0.9913   0.9956   0.9964   0.9980   1.0774   1.1013   1.1130   1.1475
     1.1504   1.1575   1.1732   1.2015   1.2325   1.2584   1.3230   1.3759
     1.3857   1.4183   1.4876   1.4924   1.4953   1.5597   1.5609   1.5682
     1.5894   1.6202   1.6316   1.6809   1.7207   1.8293   1.8425   1.8971
     2.0008   2.0079   2.1262   2.1739   2.1751   2.2523   2.2671   2.3551
     2.3627   2.3862   2.3905   2.4361   2.6329   2.6859   4.7207   5.0080
     5.0233   5.6685   5.7627   6.3664   6.4000   6.4824   6.6511   6.6978
     6.7444   7.0484   7.0590   7.1456   7.1527   7.2761   7.3335   7.6211
     7.8102   7.8654   7.8889   7.9254   7.9570   8.1464   8.2178   8.2251
     8.2564   8.3330   8.3584   8.4380   8.7161   8.8586   8.8693   8.8776
     8.9184   9.0495

[...]

          k = 0.3750-1.0472 0.0000 ( 71902 PWs)   bands (ev):

[...]

          k =-0.5000 0.0000 0.0000 ( 72020 PWs)   bands (ev):

[...]

          k =-0.5000-1.0472 0.0000 ( 71908 PWs)   bands (ev):

   -38.3381 -38.2755 -35.9798 -35.9088 -22.9498 -22.8983 -22.8873 -22.8685
   -22.8581 -22.7677 -22.6659 -22.4048 -19.0004 -18.9384 -18.6592 -18.5976
   -18.5354 -18.4803 -17.4140 -17.3399 -17.2353 -17.1696 -17.1296 -17.0620
   -15.0306 -14.9993 -14.9492 -14.9345 -14.8093 -14.7720 -14.7431 -14.7243
   -14.7117 -14.6860 -14.6631 -14.5823 -14.5594 -14.5424 -14.5335 -14.5201
   -14.5189 -14.4842 -14.2792 -14.2748 -14.2731 -14.2689 -14.2063 -14.1625
   -14.1505 -14.1498 -14.1383 -14.1375 -12.9490 -12.9380  -8.6831  -8.6727
    -8.6324  -8.6221  -8.5422  -8.5016  -8.4646  -8.3582  -8.3510  -8.3477
    -8.3347  -8.3240  -8.2569  -8.2545  -8.2444  -8.2429  -8.2263  -8.2224
    -8.2150  -8.0432  -7.9676  -7.9022  -7.8842  -7.8178  -4.0988  -4.0588
    -3.8703  -3.8341  -3.7103  -3.6437  -3.6080  -3.5188  -3.2760  -3.2751
    -3.2664  -3.2655  -3.2347  -3.1814  -2.6230  -2.6134  -2.5195  -2.5052
    -2.4680  -2.4100  -2.3922  -2.3564  -2.3545  -2.3436  -2.2701  -2.2566
    -2.2523  -2.2190  -2.1927  -2.1714  -2.1215  -2.0393  -2.0356  -2.0271
    -2.0055  -1.9794  -1.7644  -1.7203  -1.6444  -1.5960  -1.4329  -1.4067
    -1.3960  -1.3882  -1.3609  -1.3540  -1.1921  -1.1541  -1.1062  -1.0817
    -1.0760  -1.0490  -1.0018  -0.9763  -0.9590  -0.9586  -0.9477  -0.9394
    -0.8593  -0.8273  -0.8090  -0.7798  -0.7796  -0.6783  -0.5977  -0.5950
    -0.5779  -0.5553  -0.5115  -0.4894  -0.3163  -0.2852  -0.0552  -0.0185
     0.1697   0.1756   0.2367   0.2439   0.2797   0.2898   0.3031   0.3224
     0.3240   0.3711   0.4450   0.5567   0.5588   0.7722   0.7776   0.8237
     0.8332   0.8529   0.8729   0.9088   0.9111   0.9398   0.9411   0.9919
     0.9926   0.9962   1.0586   1.0886   1.1017   1.1214   1.1360   1.1609
     1.1721   1.2120   1.2183   1.2356   1.2441   1.2577   1.2835   1.2877
     1.3279   1.3673   1.3809   1.4852   1.5590   1.5742   1.6258   1.6412
     1.6442   1.6750   1.7424   1.7728   1.7883   1.8019   1.8678   1.8709
     1.8983   1.9329   1.9396   1.9727   1.9735   1.9854   1.9869   2.0947
     2.1813   2.2074   2.2310   2.2563   2.3212   2.3301   2.3301   2.3394
     2.4674   2.4755   2.5232   2.5445   2.6688   2.7384   3.2367   3.2696
     3.3004   3.3350   3.3968   3.4303   3.5089   3.5308   6.0215   6.5029
     6.5116   6.5212   6.5536   6.7084   6.7693   7.1445   7.3112   7.3743
     7.6576   7.9080   7.9920   7.9994   8.2041   8.5445   8.6483   8.6587
     8.9106   8.9375   8.9603   9.0331   9.0621   9.1421   9.1668   9.1851
     9.2304   9.2634   9.3399   9.3445   9.5210   9.5501   9.5569   9.5674
     9.5700   9.5807

     the Fermi energy is     2.5015 ev

!    total energy              =   -3711.52897527 Ry
     Harris-Foulkes estimate   =   -3711.52897528 Ry
     estimated scf accuracy    <          3.5E-09 Ry

     The total energy is the sum of the following terms:

     one-electron contribution =  -55992.70351389 Ry
     hartree contribution      =   28299.19078177 Ry
     xc contribution           =   -1263.80318672 Ry
     ewald contribution        =   25245.80692869 Ry
     smearing contrib. (-TS)   =      -0.01998512 Ry

     convergence has been achieved in  36 iterations

     negative rho (up, down):  9.212E-02 0.000E+00

     Forces acting on atoms (cartesian axes, Ry/au):

     atom    1 type  4   force =    -0.00000527    0.00000000   -0.00049503
     atom    2 type  4   force =     0.00000527    0.00000000   -0.00049503
     atom    3 type  3   force =    -0.00000423    0.00000000    0.00010414
     atom    4 type  3   force =     0.00000423    0.00000000    0.00010414
     atom    5 type  4   force =     0.00000284    0.00000000    0.00013700
     atom    6 type  4   force =    -0.00000284    0.00000000    0.00013700
     atom    7 type  1   force =     0.00000000    0.00000000   -0.00037364
     atom    8 type  1   force =     0.00000000    0.00000000   -0.00034046
     atom    9 type  3   force =     0.00010880    0.00000000   -0.00034008
     atom   10 type  3   force =    -0.00010880    0.00000000   -0.00034008
     atom   11 type  4   force =     0.00000000    0.00000000    0.00107149
     atom   12 type  4   force =     0.00004988    0.00000000    0.00133051
     atom   13 type  4   force =    -0.00004988    0.00000000    0.00133051
     atom   14 type  4   force =     0.00000000    0.00000000    0.00140227
     atom   15 type  2   force =     0.00000000    0.00000000   -0.00318609
     atom   16 type  5   force =     0.00000000    0.00000000   -0.00471211
     atom   17 type  4   force =     0.00092040    0.00000000    0.00609001
     atom   18 type  4   force =    -0.00092040    0.00000000    0.00609001
     atom   19 type  4   force =     0.00000000    0.00000000    0.00392358
     atom   20 type  4   force =     0.00000000    0.00000000    0.00510732
     atom   21 type  3   force =     0.00053912    0.00000000   -0.00174326
     atom   22 type  3   force =    -0.00053912    0.00000000   -0.00174326
     atom   23 type  1   force =     0.00000000    0.00000000    0.00729633
     atom   24 type  1   force =     0.00000000    0.00000000    0.01364575
     atom   25 type  4   force =     0.00242875    0.00000000   -0.01798507
     atom   26 type  4   force =    -0.00242875    0.00000000   -0.01798507
     atom   27 type  4   force =    -0.01262209    0.00000000    0.02842174
     atom   28 type  4   force =     0.01262209    0.00000000    0.02842174
     atom   29 type  3   force =     0.01225044    0.00000000   -0.02312781
     atom   30 type  3   force =    -0.01225044    0.00000000   -0.02312781
     atom   31 type  4   force =     0.01450127    0.00000000    0.02566384
     atom   32 type  4   force =    -0.01450127    0.00000000    0.02566384
     atom   33 type  1   force =     0.00000000    0.00000000   -0.00730197
     atom   34 type  1   force =     0.00000000    0.00000000   -0.01641468
     atom   35 type  3   force =    -0.00343266    0.00000000   -0.02094011
     atom   36 type  3   force =     0.00343266    0.00000000   -0.02094011
     atom   37 type  4   force =     0.00000000    0.00000000    0.00327107
     atom   38 type  4   force =     0.00000000    0.00000000    0.00087341
     atom   39 type  4   force =     0.00278087    0.00000000    0.00051654
     atom   40 type  4   force =    -0.00278087    0.00000000    0.00051654
     atom   41 type  5   force =     0.00000000    0.00000000    0.00203541
     atom   42 type  2   force =     0.00000000    0.00000000    0.00038486
     atom   43 type  4   force =     0.00000000    0.00000000    0.00022335
     atom   44 type  4   force =     0.00003099    0.00000000   -0.00133813
     atom   45 type  4   force =    -0.00003099    0.00000000   -0.00133813
     atom   46 type  4   force =     0.00000000    0.00000000   -0.00007040
     atom   47 type  3   force =    -0.00004079    0.00000000    0.00033866
     atom   48 type  3   force =     0.00004079    0.00000000    0.00033866
     atom   49 type  1   force =     0.00000000    0.00000000    0.00017384
     atom   50 type  1   force =     0.00000000    0.00000000    0.00022692
     atom   51 type  4   force =    -0.00004602    0.00000000   -0.00076065
     atom   52 type  4   force =     0.00004602    0.00000000   -0.00076065
     atom   53 type  3   force =    -0.00003619    0.00000000    0.00087817
     atom   54 type  3   force =     0.00003619    0.00000000    0.00087817
     atom   55 type  4   force =     0.00001833    0.00000000   -0.00036859
     atom   56 type  4   force =    -0.00001833    0.00000000   -0.00036859

     Total force =     0.085827     Total SCF correction =     0.000290

     Computing stress (Cartesian axis) and pressure

     negative rho (up, down):  9.212E-02 0.000E+00
          total   stress  (Ry/bohr**3)                   (kbar)     P=       -5.98
  -0.00000159   0.00000000   0.00000000           -0.23        0.00        0.00
   0.00000000  -0.00008730   0.00000000            0.00      -12.84        0.00
   0.00000000   0.00000000  -0.00003304            0.00        0.00       -4.86

     General routines

     Parallel routines

   This run was terminated on:  10:33:43  28May2021

   JOB DONE.
[1622212423.395894] [holy7c04206:226223:0]          mpool.c:43   UCX  WARN  object 0x3508500 was not returned to mpool ucp_requests
[1622212423.395917] [holy7c04206:226223:0]          mpool.c:43   UCX  WARN  object 0x3508880 was not returned to mpool ucp_requests
[1622212423.402413] [holy7c04207:24079:0]          mpool.c:43   UCX  WARN  object 0x3e8e500 was not returned to mpool ucp_requests
[1622212423.402597] [holy7c04203:262158:0]          mpool.c:43   UCX  WARN  object 0x34c43c0 was not returned to mpool ucp_requests
[1622212423.405657] [holy7c04205:68669:0]          mpool.c:43   UCX  WARN  object 0x3a0de00 was not returned to mpool ucp_requests
[1622212423.412444] [holy7c04207:24078:0]          mpool.c:43   UCX  WARN  object 0x3310280 was not returned to mpool ucp_requests
[1622212423.401323] [holy7c04203:262157:0]          mpool.c:43   UCX  WARN  object 0x4372900 was not returned to mpool ucp_requests
[1622212423.402877] [holy7c04203:262162:0]          mpool.c:43   UCX  WARN  object 0x3666cc0 was not returned to mpool ucp_requests
[1622212423.402901] [holy7c04203:262162:0]          mpool.c:43   UCX  WARN  object 0x3667200 was not returned to mpool ucp_requests
[1622212423.401951] [holy7c04203:262159:0]          mpool.c:43   UCX  WARN  object 0x3117280 was not returned to mpool ucp_requests
[1622212423.401972] [holy7c04203:262159:0]          mpool.c:43   UCX  WARN  object 0x3117600 was not returned to mpool ucp_requests
[1622212423.407521] [holy7c04205:68661:0]          mpool.c:43   UCX  WARN  object 0x47b45c0 was not returned to mpool ucp_requests
[1622212423.410127] [holy7c04205:68665:0]          mpool.c:43   UCX  WARN  object 0x37d6340 was not returned to mpool ucp_requests
[1622212423.412188] [holy7c04205:68667:0]          mpool.c:43   UCX  WARN  object 0x3b90a40 was not returned to mpool ucp_requests
[1622212423.412215] [holy7c04205:68667:0]          mpool.c:43   UCX  WARN  object 0x3b90c00 was not returned to mpool ucp_requests
[1622212423.420365] [holy7c04205:68671:0]          mpool.c:43   UCX  WARN  object 0x28f5980 was not returned to mpool ucp_requests
[1622212423.420442] [holy7c04205:68662:0]          mpool.c:43   UCX  WARN  object 0x372ea40 was not returned to mpool ucp_requests
[1622212423.420466] [holy7c04205:68662:0]          mpool.c:43   UCX  WARN  object 0x372ec00 was not returned to mpool ucp_requests