     Program PWSCF v.6.5 starts on 28May2021 at  0: 0:38

     R & G space division:  proc/nbgrp/npool/nimage =      32
     Reading input from YCBCO50_212_Y_cleave_1.25_sep.pwi
Warning: card &IONS ignored
Warning: card     ION_DYNAMICS = 'BFGS' ignored
Warning: card / ignored
Warning: card &CELL ignored
Warning: card     CELL_DYNAMICS = 'BFGS' ignored
Warning: card     PRESS_CONV_THR = 5 ignored
Warning: card / ignored

     Current dimensions of program PWSCF are:
     Max number of different atomic species (ntypx) = 10
     Max number of k-points (npk) =  40000
     Max angular momentum in pseudopotentials (lmaxx) =  3

     Message from routine setup:
     using ibrav=0 with symmetry is DISCOURAGED, use correct ibrav instead

     bravais-lattice index     =            0
     lattice parameter (alat)  =      14.8133  a.u.
     unit-cell volume          =    8964.7417 (a.u.)^3
     number of atoms/cell      =           56
     number of atomic types    =            5
     number of electrons       =       456.00
     number of Kohn-Sham states=          274
     kinetic-energy cutoff     =      60.0000  Ry
     charge density cutoff     =     720.0000  Ry
     convergence threshold     =      1.0E-08
     mixing beta               =       0.5000
     number of iterations used =           10  local-TF  mixing
     Exchange-correlation= SLA PW PBE PBE
                           (   1   4   3   4   0   0   0)

     celldm(1)=  14.813271  celldm(2)=   0.000000  celldm(3)=   0.000000
     celldm(4)=   0.000000  celldm(5)=   0.000000  celldm(6)=   0.000000

     crystal axes: (cart. coord. in units of alat)
               a(1) = (   1.000000   0.000000   0.000000 )
               a(2) = (   0.000000   0.477453   0.000000 )
               a(3) = (   0.000000   0.000000   5.776363 )

     reciprocal axes: (cart. coord. in units 2 pi/alat)
               b(1) = (  1.000000  0.000000  0.000000 )
               b(2) = (  0.000000  2.094448  0.000000 )
               b(3) = (  0.000000  0.000000  0.173119 )

     PseudoPot. # 1 for Ba read from file:
     ./pseudo/Ba.pbe-nsp-van.UPF
     MD5 check sum: 2b9c31dd849566dd297d80989662b7a0
     Pseudo is Ultrasoft + core correction, Zval = 10.0
     Generated by new atomic code, or converted to UPF format
     Using radial grid of  907 points,  6 beta functions with:
                l(1) =   0
                l(2) =   0
                l(3) =   1
                l(4) =   1
                l(5) =   2
                l(6) =   2
     Q(r) pseudized with  6 coefficients,  rinner =    1.200   1.200   1.200
                                                       1.200   1.200

     PseudoPot. # 2 for Ca read from file:
     ./pseudo/Ca.pbe-nsp-van.UPF
     MD5 check sum: 6471098428ff4fa451746d08035ff179
     Pseudo is Ultrasoft + core correction, Zval = 10.0
     Generated by new atomic code, or converted to UPF format
     Using radial grid of  845 points,  6 beta functions with:
                l(1) =   0
                l(2) =   0
                l(3) =   1
                l(4) =   1
                l(5) =   2
                l(6) =   2
     Q(r) pseudized with  6 coefficients,  rinner =    1.200   1.200   1.200
                                                       1.200   1.200

     PseudoPot. # 3 for Cu read from file:
     ./pseudo/Cu.pbe-n-van_ak.UPF
     MD5 check sum: 34e3282627ffb533726feb647e090d62
     Pseudo is Ultrasoft + core correction, Zval = 11.0
     Generated by new atomic code, or converted to UPF format
     Using radial grid of  867 points,  6 beta functions with:
                l(1) =   0
                l(2) =   0
                l(3) =   1
                l(4) =   1
                l(5) =   2
                l(6) =   2
     Q(r) pseudized with  8 coefficients,  rinner =    1.400   1.400   1.400
                                                       1.400   1.400

     PseudoPot. # 4 for O  read from file:
     ./pseudo/O.pbe-van_ak.UPF
     MD5 check sum: 783ce7fe4c79b6a4916957118fed0856
     Pseudo is Ultrasoft, Zval =  6.0
     Generated by new atomic code, or converted to UPF format
     Using radial grid of  737 points,  4 beta functions with:
                l(1) =   0
                l(2) =   0
                l(3) =   1
                l(4) =   1
     Q(r) pseudized with  8 coefficients,  rinner =    0.800   0.800   0.800

     PseudoPot. # 5 for Y  read from file:
     ./pseudo/Y.pbe-nsp-van.UPF
     MD5 check sum: 4412fed3ab108fed87a1b7d6a69a4a38
     Pseudo is Ultrasoft + core correction, Zval = 11.0
     Generated by new atomic code, or converted to UPF format
     Using radial grid of  885 points,  6 beta functions with:
                l(1) =   0
                l(2) =   0
                l(3) =   1
                l(4) =   1
                l(5) =   2
                l(6) =   2
     Q(r) pseudized with  6 coefficients,  rinner =    1.200   1.200   1.200
                                                       1.200   1.200

     atomic species   valence    mass     pseudopotential
        Ba            10.00   137.32700     Ba( 1.00)
        Ca            10.00    40.07800     Ca( 1.00)
        Cu            11.00    63.54600     Cu( 1.00)
        O              6.00    15.99900     O ( 1.00)
        Y             11.00    88.90584     Y ( 1.00)

      4 Sym. Ops. (no inversion) found ( 2 have fractional translation)

   Cartesian axes

     site n.     atom                  positions (alat units)
         1           O   tau(   1) = (  -0.0008343   0.2387265  -0.0222443  )
         2           O   tau(   2) = (   0.5008340   0.2387265  -0.0222443  )
         3           Cu  tau(   3) = (   0.5017257   0.0000000   0.0109608  )
         4           Cu  tau(   4) = (  -0.0017260   0.0000000   0.0109608  )
         5           O   tau(   5) = (  -0.0028933   0.0000000   0.2506504  )
         6           O   tau(   6) = (   0.5028929   0.0000000   0.2506504  )
         7           Ba  tau(   7) = (   0.7499995   0.2387265   0.2749435  )
         8           Ba  tau(   8) = (   0.2499998   0.2387265   0.2755214  )
         9           Cu  tau(   9) = (   0.4980963   0.0000000   0.5208446  )
        10           Cu  tau(  10) = (   0.0019033   0.0000000   0.5208446  )
        11           O   tau(  11) = (   0.2499998   0.0000000   0.5341884  )
        12           O   tau(  12) = (   0.5083351   0.2387265   0.5569851  )
        13           O   tau(  13) = (  -0.0083354   0.2387265   0.5569851  )
        14           O   tau(  14) = (   0.7499995   0.0000000   0.5573831  )
        15           Ca  tau(  15) = (   0.2499998   0.2387265   0.7436937  )
        16           Y   tau(  16) = (   0.7499995   0.2387265   0.7469544  )
        17           O   tau(  17) = (  -0.0063798   0.2387265   0.9248530  )
        18           O   tau(  18) = (   0.5063794   0.2387265   0.9248530  )
        19           O   tau(  19) = (   0.7499995   0.0000000   0.9338544  )
        20           O   tau(  20) = (   0.2499998   0.0000000   0.9461329  )
        21           Cu  tau(  21) = (   0.0015717   0.0000000   0.9686860  )
        22           Cu  tau(  22) = (   0.4984280   0.0000000   0.9686860  )
        23           Ba  tau(  23) = (   0.2499998   0.2387265   1.2085224  )
        24           Ba  tau(  24) = (   0.7499995   0.2387265   1.2233294  )
        25           O   tau(  25) = (   0.0063772   0.0000000   1.2547537  )
        26           O   tau(  26) = (   0.4936224   0.0000000   1.2547537  )
        27           O   tau(  27) = (   0.5384045   0.2387265   1.4952521  )
        28           O   tau(  28) = (  -0.0384049   0.2387265   1.4952521  )
        29           Cu  tau(  29) = (   0.5006120   0.0000000   1.4952546  )
        30           Cu  tau(  30) = (  -0.0006123   0.0000000   1.4952546  )
        31           O   tau(  31) = (   0.4936212   0.0000000   1.7357531  )
        32           O   tau(  32) = (   0.0063785   0.0000000   1.7357531  )
        33           Ba  tau(  33) = (   0.7499995   0.2387265   1.7671824  )
        34           Ba  tau(  34) = (   0.2499998   0.2387265   1.7819920  )
        35           Cu  tau(  35) = (   0.4984280   0.0000000   2.0218232  )
        36           Cu  tau(  36) = (   0.0015717   0.0000000   2.0218232  )
        37           O   tau(  37) = (   0.2499998   0.0000000   2.0443814  )
        38           O   tau(  38) = (   0.7499995   0.0000000   2.0566511  )
        39           O   tau(  39) = (   0.5063781   0.2387265   2.0656562  )
        40           O   tau(  40) = (  -0.0063785   0.2387265   2.0656562  )
        41           Y   tau(  41) = (   0.7499995   0.2387265   2.2435498  )
        42           Ca  tau(  42) = (   0.2499998   0.2387265   2.2468194  )
        43           O   tau(  43) = (   0.7499995   0.0000000   2.5925795  )
        44           O   tau(  44) = (  -0.0083354   0.2387265   2.5929813  )
        45           O   tau(  45) = (   0.5083351   0.2387265   2.5929813  )
        46           O   tau(  46) = (   0.2499998   0.0000000   2.6157793  )
        47           Cu  tau(  47) = (   0.0019059   0.0000000   2.6291129  )
        48           Cu  tau(  48) = (   0.4980938   0.0000000   2.6291129  )
        49           Ba  tau(  49) = (   0.2499998   0.2387265   2.8744526  )
        50           Ba  tau(  50) = (   0.7499995   0.2387265   2.8749948  )
        51           O   tau(  51) = (  -0.0028895   0.0000000   2.8993020  )
        52           O   tau(  52) = (   0.5028891   0.0000000   2.8993020  )
        53           Cu  tau(  53) = (   0.5017844   0.0000000   3.1389865  )
        54           Cu  tau(  54) = (  -0.0017847   0.0000000   3.1389865  )
        55           O   tau(  55) = (   0.5008990   0.2387265   3.1721929  )
        56           O   tau(  56) = (  -0.0008994   0.2387265   3.1721929  )

     number of k points=    25  Gaussian smearing, width (Ry)=  0.0100
                       cart. coord. in units 2pi/alat
        k(    1) = (   0.0000000   0.0000000   0.0000000), wk =   0.0312500
        k(    2) = (   0.0000000   0.2618060   0.0000000), wk =   0.0625000
        k(    3) = (   0.0000000   0.5236121   0.0000000), wk =   0.0625000
        k(    4) = (   0.0000000   0.7854181   0.0000000), wk =   0.0625000
        k(    5) = (   0.0000000  -1.0472241   0.0000000), wk =   0.0312500
        k(    6) = (   0.1250000   0.0000000   0.0000000), wk =   0.0625000
        k(    7) = (   0.1250000   0.2618060   0.0000000), wk =   0.1250000
        k(    8) = (   0.1250000   0.5236121   0.0000000), wk =   0.1250000
        k(    9) = (   0.1250000   0.7854181   0.0000000), wk =   0.1250000
        k(   10) = (   0.1250000  -1.0472241   0.0000000), wk =   0.0625000
        k(   11) = (   0.2500000   0.0000000   0.0000000), wk =   0.0625000
        k(   12) = (   0.2500000   0.2618060   0.0000000), wk =   0.1250000
        k(   13) = (   0.2500000   0.5236121   0.0000000), wk =   0.1250000
        k(   14) = (   0.2500000   0.7854181   0.0000000), wk =   0.1250000
        k(   15) = (   0.2500000  -1.0472241   0.0000000), wk =   0.0625000
        k(   16) = (   0.3750000   0.0000000   0.0000000), wk =   0.0625000
        k(   17) = (   0.3750000   0.2618060   0.0000000), wk =   0.1250000
        k(   18) = (   0.3750000   0.5236121   0.0000000), wk =   0.1250000
        k(   19) = (   0.3750000   0.7854181   0.0000000), wk =   0.1250000
        k(   20) = (   0.3750000  -1.0472241   0.0000000), wk =   0.0625000
        k(   21) = (  -0.5000000   0.0000000   0.0000000), wk =   0.0312500
        k(   22) = (  -0.5000000   0.2618060   0.0000000), wk =   0.0625000
        k(   23) = (  -0.5000000   0.5236121   0.0000000), wk =   0.0625000
        k(   24) = (  -0.5000000   0.7854181   0.0000000), wk =   0.0625000
        k(   25) = (  -0.5000000  -1.0472241   0.0000000), wk =   0.0312500

     Initial potential from superposition of free atoms

     starting charge  455.69457, renormalised to  456.00000

     negative rho (up, down):  9.352E-02 0.000E+00
     Starting wfcs are  396 randomized atomic wfcs

     Self-consistent Calculation

     iteration #  1     ecut=    60.00 Ry     beta= 0.50
     Davidson diagonalization with overlap
     ethr =  1.00E-02,  avg # of iterations =  2.0

     negative rho (up, down):  8.583E-02 0.000E+00

     total energy              =   -3708.37617990 Ry
     Harris-Foulkes estimate   =   -3716.31840081 Ry
     estimated scf accuracy    <      30.56501535 Ry

[...]

     iteration # 15     ecut=    60.00 Ry     beta= 0.50
     Davidson diagonalization with overlap
     c_bands:  1 eigenvalues not converged
     ethr =  2.64E-05,  avg # of iterations =  3.5

[...]

     iteration # 20     ecut=    60.00 Ry     beta= 0.50
     Davidson diagonalization with overlap
     c_bands:  1 eigenvalues not converged
     c_bands:  1 eigenvalues not converged
     ethr =  1.50E-06,  avg # of iterations = 10.4

[...]

     total energy              =   -3711.40427119 Ry
     Harris-Foulkes estimate   =   -3711.40427119 Ry
     estimated scf accuracy    <       0.00000002 Ry

     iteration # 36     ecut=    60.00 Ry     beta= 0.50
     Davidson diagonalization with overlap
     ethr =  4.55E-12,  avg # of iterations =  1.0

[...]

     End of self-consistent calculation

          k = 0.0000 0.0000 0.0000 ( 70419 PWs)   bands (ev):

   -40.6931 -38.0824 -38.0042 -35.6311 -22.8669 -22.7960 -22.7338 -22.6677
   -22.6189 -22.5390 -22.4917 -22.3850 -20.7500 -20.6967 -20.6197 -19.1582
   -19.1047 -19.0717 -18.4794 -18.3753 -18.0074 -16.9792 -16.8440 -16.6608
   -15.8765 -15.3906 -15.3850 -15.1770 -14.9625 -14.8841 -14.8666 -14.8135
   -14.7231 -14.6501 -14.6361 -14.5351 -14.4582 -14.4333 -14.4272 -14.2911
   -14.2771 -14.0806 -13.9879 -13.9700 -13.9652 -13.9603 -13.9540 -13.9529
   -13.8656 -13.8391 -13.6570 -13.6324 -13.5163 -13.4784  -8.1994  -8.1074
    -8.0338  -7.9253  -7.8479  -7.8455  -7.7970  -7.7691  -7.7398  -7.7113
    -7.7073  -7.6980  -7.6915  -7.6692  -7.6109  -7.5469  -7.5293  -7.5290
    -7.4693  -7.4600  -7.4139  -7.3436  -7.3059  -7.1908  -3.3305  -2.9635
    -2.7910  -2.6472  -2.6300  -2.4620  -2.2061  -2.1527  -2.0945  -2.0927
    -2.0769  -2.0669  -2.0652  -2.0442  -2.0200  -1.8627  -1.8151  -1.7768
    -1.6885  -1.6428  -1.6084  -1.5082  -1.4558  -1.4538  -1.3917  -1.3547
    -1.3537  -1.3080  -1.2715  -1.1851  -1.1083  -1.0947  -1.0833  -1.0755
    -1.0644  -0.9705  -0.9008  -0.8994  -0.8975  -0.8961  -0.8597  -0.8543
    -0.8482  -0.8053  -0.7252  -0.7152  -0.6738  -0.6408  -0.6345  -0.6323
    -0.5509  -0.5487  -0.3690  -0.3099  -0.2948  -0.2631  -0.2559  -0.2343
    -0.2066  -0.1634  -0.1347  -0.1153  -0.1106  -0.0914  -0.0748  -0.0236
     0.0125   0.0270   0.0533   0.0716   0.0778   0.0802   0.0837   0.0867
     0.1384   0.1977   0.1989   0.2174   0.2743   0.2917   0.2937   0.3075
     0.3175   0.3308   0.3330   0.3651   0.4099   0.4353   0.4367   0.4386
     0.4399   0.5179   0.5266   0.5510   0.6045   0.6257   0.6320   0.6348
     0.6642   0.6767   0.6782   0.8045   0.8407   0.8752   0.9459   1.0266
     1.0628   1.1173   1.1248   1.1252   1.1425   1.1433   1.1915   1.2447
     1.2743   1.2866   1.2872   1.3113   1.3263   1.3539   1.4165   1.4189
     1.4305   1.4822   1.5067   1.5331   1.5513   1.6664   1.6726   1.6991
     1.7200   1.7368   1.7768   1.7890   1.8187   1.8550   1.8638   1.8847
     1.9120   1.9670   2.0038   2.1190   2.1346   2.1351   2.1800   2.1979
     2.2612   2.2803   2.3340   2.3603   2.3744   2.3948   2.4533   2.4793
     2.5751   2.6466   2.6571   2.7368   2.9507   2.9644   3.8124   5.2831
     5.2832   5.3000   5.4499   5.7308   5.9307   6.0022   6.1535   6.2154
     6.6551   6.7232   6.8875   7.0732   7.1534   7.3511   7.4008   7.4327
     7.4444   7.4469   7.4616   7.5540   7.7257   7.7378   8.1054   8.1838
     8.1994   8.2225   8.2468   8.3504   8.4149   8.5347   8.5684   8.5787
     8.6603   8.7674

[...]

          k = 0.3750-1.0472 0.0000 ( 70342 PWs)   bands (ev):

[...]

          k =-0.5000 0.0000 0.0000 ( 70432 PWs)   bands (ev):

[...]

          k =-0.5000-1.0472 0.0000 ( 70316 PWs)   bands (ev):

   -40.6789 -38.0731 -37.9857 -35.6195 -22.6787 -22.6248 -22.5930 -22.5635
   -22.4061 -22.3955 -22.3571 -22.2693 -20.9610 -20.7196 -20.5840 -19.2645
   -19.1500 -19.0340 -18.6477 -18.3051 -18.1845 -17.0521 -16.8755 -16.7712
   -15.4215 -15.1726 -15.1456 -14.8528 -14.7053 -14.6411 -14.5766 -14.5729
   -14.4803 -14.4055 -14.3596 -14.2966 -14.2516 -14.2147 -14.1999 -14.1954
   -14.0836 -14.0571 -14.0508 -14.0463 -13.9845 -13.9712 -13.8780 -13.8490
   -13.8482 -13.8370 -13.8354 -13.8348 -13.7797 -13.7616  -8.4709  -8.3783
    -8.3354  -8.3276  -8.2156  -8.2115  -8.1779  -8.1224  -8.1175  -8.0532
    -8.0425  -8.0296  -8.0264  -8.0144  -7.9509  -7.9483  -7.8911  -7.8763
    -7.8159  -7.7739  -7.7156  -7.6873  -7.6158  -7.5960  -4.1279  -3.8422
    -3.7616  -3.5411  -3.3569  -3.3238  -3.2130  -3.2060  -3.1877  -3.1494
    -2.9759  -2.9753  -2.9575  -2.9510  -2.5442  -2.5300  -2.4457  -2.3283
    -2.3181  -2.2083  -2.1949  -2.1554  -2.1267  -2.1230  -2.0625  -2.0248
    -1.9817  -1.9347  -1.9063  -1.8759  -1.8063  -1.7810  -1.7268  -1.6161
    -1.6074  -1.5097  -1.4860  -1.4676  -1.4619  -1.4392  -1.3893  -1.3131
    -1.3038  -1.1664  -1.1273  -1.1039  -1.0799  -0.9958  -0.9818  -0.9643
    -0.9239  -0.9128  -0.7964  -0.7955  -0.7478  -0.7453  -0.7434  -0.6812
    -0.6520  -0.6422  -0.6378  -0.6365  -0.6316  -0.5324  -0.5230  -0.5225
    -0.4790  -0.3935  -0.2793  -0.2536  -0.2179  -0.2091   0.0014   0.1350
     0.1450   0.3079   0.3132   0.4032   0.4419   0.4945   0.5171   0.5694
     0.6184   0.6337   0.6348   0.7320   0.7782   0.7925   0.8607   0.9622
     1.0516   1.1060   1.1082   1.1530   1.1676   1.2099   1.2531   1.2651
     1.2857   1.3145   1.3184   1.3446   1.3704   1.3874   1.4054   1.4164
     1.4408   1.4516   1.4769   1.4824   1.5305   1.5314   1.5316   1.5793
     1.6092   1.6628   1.6664   1.7457   1.7514   1.7647   1.8256   1.8367
     1.8781   1.8803   1.9271   1.9353   1.9372   1.9543   1.9759   2.0041
     2.0618   2.1019   2.1130   2.1622   2.2374   2.2735   2.2771   2.2783
     2.2786   2.5073   2.5262   2.6214   2.6300   2.6304   2.6500   2.7060
     2.7922   2.8073   2.8530   2.8644   3.3491   3.3639   3.5643   3.6494
     3.7378   3.7483   3.8252   3.9179   4.0759   4.1187   4.6906   5.0562
     6.0522   6.1279   6.2696   6.2789   6.4478   6.7440   6.7565   6.8052
     6.8537   6.9224   7.0486   7.0742   7.6770   7.6927   7.8097   7.8278
     8.1799   8.3323   8.4215   8.5520   8.8549   9.1614   9.1828   9.2292
     9.2462   9.2608   9.3206   9.4779   9.5466   9.5580   9.6320   9.7136
     9.7393   9.7409

     the Fermi energy is     2.8016 ev

!    total energy              =   -3711.40427118 Ry
     Harris-Foulkes estimate   =   -3711.40427119 Ry
     estimated scf accuracy    <          4.9E-09 Ry

     The total energy is the sum of the following terms:

     one-electron contribution =  -62550.73879160 Ry
     hartree contribution      =   31580.45508989 Ry
     xc contribution           =   -1263.57288020 Ry
     ewald contribution        =   28522.46594786 Ry
     smearing contrib. (-TS)   =      -0.01363713 Ry

     convergence has been achieved in  36 iterations

     negative rho (up, down):  9.135E-02 0.000E+00

     Forces acting on atoms (cartesian axes, Ry/au):

     atom    1 type  4   force =    -0.00000927    0.00000000   -0.00011513
     atom    2 type  4   force =     0.00000927    0.00000000   -0.00011513
     atom    3 type  3   force =    -0.00001606    0.00000000   -0.00007345
     atom    4 type  3   force =     0.00001606    0.00000000   -0.00007345
     atom    5 type  4   force =    -0.00000212    0.00000000   -0.00003293
     atom    6 type  4   force =     0.00000212    0.00000000   -0.00003293
     atom    7 type  1   force =     0.00000000    0.00000000   -0.00009388
     atom    8 type  1   force =     0.00000000    0.00000000   -0.00008462
     atom    9 type  3   force =     0.00000990    0.00000000    0.00005800
     atom   10 type  3   force =    -0.00000990    0.00000000    0.00005800
     atom   11 type  4   force =     0.00000000    0.00000000    0.00007964
     atom   12 type  4   force =    -0.00000524    0.00000000    0.00000789
     atom   13 type  4   force =     0.00000524    0.00000000    0.00000789
     atom   14 type  4   force =     0.00000000    0.00000000    0.00011080
     atom   15 type  2   force =     0.00000000    0.00000000   -0.00035155
     atom   16 type  5   force =     0.00000000    0.00000000   -0.00051973
     atom   17 type  4   force =     0.00007005    0.00000000    0.00052515
     atom   18 type  4   force =    -0.00007005    0.00000000    0.00052515
     atom   19 type  4   force =     0.00000000    0.00000000    0.00057216
     atom   20 type  4   force =     0.00000000    0.00000000    0.00075859
     atom   21 type  3   force =    -0.00003364    0.00000000   -0.00082238
     atom   22 type  3   force =     0.00003364    0.00000000   -0.00082238
     atom   23 type  1   force =     0.00000000    0.00000000   -0.00148033
     atom   24 type  1   force =     0.00000000    0.00000000   -0.00156454
     atom   25 type  4   force =    -0.00015108    0.00000000    0.00311853
     atom   26 type  4   force =     0.00015108    0.00000000    0.00311853
     atom   27 type  4   force =     0.00002818    0.00000000    0.00387379
     atom   28 type  4   force =    -0.00002818    0.00000000    0.00387379
     atom   29 type  3   force =     0.00125182    0.00000000   -0.00713039
     atom   30 type  3   force =    -0.00125182    0.00000000   -0.00713039
     atom   31 type  4   force =     0.00028277    0.00000000    0.00985441
     atom   32 type  4   force =    -0.00028277    0.00000000    0.00985441
     atom   33 type  1   force =     0.00000000    0.00000000   -0.02058224
     atom   34 type  1   force =     0.00000000    0.00000000   -0.01448661
     atom   35 type  3   force =    -0.00307021    0.00000000    0.00386891
     atom   36 type  3   force =     0.00307021    0.00000000    0.00386891
     atom   37 type  4   force =     0.00000000    0.00000000    0.04692750
     atom   38 type  4   force =     0.00000000    0.00000000    0.07447281
     atom   39 type  4   force =     0.01839951    0.00000000    0.06160437
     atom   40 type  4   force =    -0.01839951    0.00000000    0.06160437
     atom   41 type  5   force =     0.00000000    0.00000000   -0.04548718
     atom   42 type  2   force =     0.00000000    0.00000000   -0.01575202
     atom   43 type  4   force =     0.00000000    0.00000000   -0.02905448
     atom   44 type  4   force =    -0.00116927    0.00000000   -0.02316265
     atom   45 type  4   force =     0.00116927    0.00000000   -0.02316265
     atom   46 type  4   force =     0.00000000    0.00000000   -0.00762341
     atom   47 type  3   force =     0.00097301    0.00000000   -0.02040458
     atom   48 type  3   force =    -0.00097301    0.00000000   -0.02040458
     atom   49 type  1   force =     0.00000000    0.00000000   -0.02054103
     atom   50 type  1   force =     0.00000000    0.00000000   -0.02596376
     atom   51 type  4   force =     0.00056562    0.00000000   -0.00081455
     atom   52 type  4   force =    -0.00056562    0.00000000   -0.00081455
     atom   53 type  3   force =    -0.00013083    0.00000000   -0.00035124
     atom   54 type  3   force =     0.00013083    0.00000000   -0.00035124
     atom   55 type  4   force =     0.00002961    0.00000000    0.00032819
     atom   56 type  4   force =    -0.00002961    0.00000000    0.00032819

     Total force =     0.152587     Total SCF correction =     0.000369

     Computing stress (Cartesian axis) and pressure

     negative rho (up, down):  9.135E-02 0.000E+00
          total   stress  (Ry/bohr**3)                   (kbar)     P=       -9.38
  -0.00001147   0.00000000   0.00000000           -1.69        0.00        0.00
   0.00000000   0.00000744   0.00000000            0.00        1.09        0.00
   0.00000000   0.00000000  -0.00018726            0.00        0.00      -27.55

     General routines

     Parallel routines

   This run was terminated on:   0:33:10  28May2021

   JOB DONE.
[1622176390.532580] [holy7c04206:177331:0]          mpool.c:43   UCX  WARN  object 0x4690e80 was not returned to mpool ucp_requests
[1622176390.535891] [holy7c04211:128397:0]          mpool.c:43   UCX  WARN  object 0x302e880 was not returned to mpool ucp_requests
[1622176390.537405] [holy7c04107:184893:0]          mpool.c:43   UCX  WARN  object 0x2866500 was not returned to mpool ucp_requests
[1622176390.537427] [holy7c04107:184893:0]          mpool.c:43   UCX  WARN  object 0x28666c0 was not returned to mpool ucp_requests
[1622176390.571314] [holy7c04102:275025:0]          mpool.c:43   UCX  WARN  object 0x3ec7840 was not returned to mpool ucp_requests
[1622176390.571340] [holy7c04102:275025:0]          mpool.c:43   UCX  WARN  object 0x3ec7d80 was not returned to mpool ucp_requests
[1622176390.587816] [holy7c04102:275033:0]          mpool.c:43   UCX  WARN  object 0x2a8b4c0 was not returned to mpool ucp_requests
[1622176390.589933] [holy7c04102:275023:0]          mpool.c:43   UCX  WARN  object 0x45b5a40 was not returned to mpool ucp_requests
[1622176390.573843] [holy7c04102:275038:0]          mpool.c:43   UCX  WARN  object 0x35989c0 was not returned to mpool ucp_requests
[1622176390.583298] [holy7c04102:275029:0]          mpool.c:43   UCX  WARN  object 0x3768040 was not returned to mpool ucp_requests
[1622176390.577010] [holy7c04102:275024:0]          mpool.c:43   UCX  WARN  object 0x4359d40 was not returned to mpool ucp_requests
[1622176390.577650] [holy7c04102:275037:0]          mpool.c:43   UCX  WARN  object 0x3b69d40 was not returned to mpool ucp_requests
[1622176390.584435] [holy7c04102:275035:0]          mpool.c:43   UCX  WARN  object 0x425f8c0 was not returned to mpool ucp_requests
[1622176390.584456] [holy7c04102:275035:0]          mpool.c:43   UCX  WARN  object 0x425fa80 was not returned to mpool ucp_requests
[1622176390.584459] [holy7c04102:275035:0]          mpool.c:43   UCX  WARN  object 0x425fe00 was not returned to mpool ucp_requests
[1622176390.586045] [holy7c04102:275030:0]          mpool.c:43   UCX  WARN  object 0x3cceb80 was not returned to mpool ucp_requests
[1622176390.586068] [holy7c04102:275030:0]          mpool.c:43   UCX  WARN  object 0x3ccef00 was not returned to mpool ucp_requests
[1622176390.586070] [holy7c04102:275030:0]          mpool.c:43   UCX  WARN  object 0x3ccf0c0 was not returned to mpool ucp_requests
[1622176390.577130] [holy7c04102:275028:0]          mpool.c:43   UCX  WARN  object 0x2f649c0 was not returned to mpool ucp_requests
[1622176390.577150] [holy7c04102:275028:0]          mpool.c:43   UCX  WARN  object 0x2f64f00 was not returned to mpool ucp_requests
[1622176390.579893] [holy7c04102:275034:0]          mpool.c:43   UCX  WARN  object 0x3aeaa40 was not returned to mpool ucp_requests