     Program PWSCF v.6.5 starts on 27May2021 at 23:35:46

     R & G space division:  proc/nbgrp/npool/nimage =      32
     Reading input from YCBCO50_212_CuO_cleave_0.75_sep.pwi
Warning: card &IONS ignored
Warning: card     ION_DYNAMICS = 'BFGS' ignored
Warning: card / ignored
Warning: card &CELL ignored
Warning: card     CELL_DYNAMICS = 'BFGS' ignored
Warning: card     PRESS_CONV_THR = 5 ignored
Warning: card / ignored

     Current dimensions of program PWSCF are:
     Max number of different atomic species (ntypx) = 10
     Max number of k-points (npk) =  40000
     Max angular momentum in pseudopotentials (lmaxx) =  3

     Message from routine setup:
     using ibrav=0 with symmetry is DISCOURAGED, use correct ibrav instead

     bravais-lattice index     =            0
     lattice parameter (alat)  =      14.8133  a.u.
     unit-cell volume          =    8865.7494 (a.u.)^3
     number of atoms/cell      =           56
     number of atomic types    =            5
     number of electrons       =       456.00
     number of Kohn-Sham states=          274
     kinetic-energy cutoff     =      60.0000  Ry
     charge density cutoff     =     720.0000  Ry
     convergence threshold     =      1.0E-08
     mixing beta               =       0.5000
     number of iterations used =           10  local-TF  mixing
     Exchange-correlation= SLA PW PBE PBE
                           (   1   4   3   4   0   0   0)

     celldm(1)=  14.813271  celldm(2)=   0.000000  celldm(3)=   0.000000
     celldm(4)=   0.000000  celldm(5)=   0.000000  celldm(6)=   0.000000

     crystal axes: (cart. coord. in units of alat)
               a(1) = (   1.000000   0.000000   0.000000 )
               a(2) = (   0.000000   0.477453   0.000000 )
               a(3) = (   0.000000   0.000000   5.712578 )

     reciprocal axes: (cart. coord. in units 2 pi/alat)
               b(1) = (  1.000000  0.000000  0.000000 )
               b(2) = (  0.000000  2.094448  0.000000 )
               b(3) = (  0.000000  0.000000  0.175052 )

     PseudoPot. # 1 for Ba read from file:
     ./pseudo/Ba.pbe-nsp-van.UPF
     MD5 check sum: 2b9c31dd849566dd297d80989662b7a0
     Pseudo is Ultrasoft + core correction, Zval = 10.0
     Generated by new atomic code, or converted to UPF format
     Using radial grid of  907 points,  6 beta functions with:
                l(1) =   0
                l(2) =   0
                l(3) =   1
                l(4) =   1
                l(5) =   2
                l(6) =   2
     Q(r) pseudized with  6 coefficients,  rinner =    1.200   1.200   1.200
                                                       1.200   1.200

     PseudoPot. # 2 for Ca read from file:
     ./pseudo/Ca.pbe-nsp-van.UPF
     MD5 check sum: 6471098428ff4fa451746d08035ff179
     Pseudo is Ultrasoft + core correction, Zval = 10.0
     Generated by new atomic code, or converted to UPF format
     Using radial grid of  845 points,  6 beta functions with:
                l(1) =   0
                l(2) =   0
                l(3) =   1
                l(4) =   1
                l(5) =   2
                l(6) =   2
     Q(r) pseudized with  6 coefficients,  rinner =    1.200   1.200   1.200
                                                       1.200   1.200

     PseudoPot. # 3 for Cu read from file:
     ./pseudo/Cu.pbe-n-van_ak.UPF
     MD5 check sum: 34e3282627ffb533726feb647e090d62
     Pseudo is Ultrasoft + core correction, Zval = 11.0
     Generated by new atomic code, or converted to UPF format
     Using radial grid of  867 points,  6 beta functions with:
                l(1) =   0
                l(2) =   0
                l(3) =   1
                l(4) =   1
                l(5) =   2
                l(6) =   2
     Q(r) pseudized with  8 coefficients,  rinner =    1.400   1.400   1.400
                                                       1.400   1.400

     PseudoPot. # 4 for O  read from file:
     ./pseudo/O.pbe-van_ak.UPF
     MD5 check sum: 783ce7fe4c79b6a4916957118fed0856
     Pseudo is Ultrasoft, Zval =  6.0
     Generated by new atomic code, or converted to UPF format
     Using radial grid of  737 points,  4 beta functions with:
                l(1) =   0
                l(2) =   0
                l(3) =   1
                l(4) =   1
     Q(r) pseudized with  8 coefficients,  rinner =    0.800   0.800   0.800

     PseudoPot. # 5 for Y  read from file:
     ./pseudo/Y.pbe-nsp-van.UPF
     MD5 check sum: 4412fed3ab108fed87a1b7d6a69a4a38
     Pseudo is Ultrasoft + core correction, Zval = 11.0
     Generated by new atomic code, or converted to UPF format
     Using radial grid of  885 points,  6 beta functions with:
                l(1) =   0
                l(2) =   0
                l(3) =   1
                l(4) =   1
                l(5) =   2
                l(6) =   2
     Q(r) pseudized with  6 coefficients,  rinner =    1.200   1.200   1.200
                                                       1.200   1.200

     atomic species   valence    mass     pseudopotential
        Ba            10.00   137.32700     Ba( 1.00)
        Ca            10.00    40.07800     Ca( 1.00)
        Cu            11.00    63.54600     Cu( 1.00)
        O              6.00    15.99900     O ( 1.00)
        Y             11.00    88.90584     Y ( 1.00)

      4 Sym. Ops. (no inversion) found ( 2 have fractional translation)

   Cartesian axes

     site n.     atom                  positions (alat units)
         1           O   tau(   1) = (  -0.0008343   0.2387265  -0.0222443  )
         2           O   tau(   2) = (   0.5008340   0.2387265  -0.0222443  )
         3           Cu  tau(   3) = (   0.5017257   0.0000000   0.0109608  )
         4           Cu  tau(   4) = (  -0.0017260   0.0000000   0.0109608  )
         5           O   tau(   5) = (  -0.0028933   0.0000000   0.2506504  )
         6           O   tau(   6) = (   0.5028929   0.0000000   0.2506504  )
         7           Ba  tau(   7) = (   0.7499995   0.2387265   0.2749435  )
         8           Ba  tau(   8) = (   0.2499998   0.2387265   0.2755214  )
         9           Cu  tau(   9) = (   0.4980963   0.0000000   0.5208446  )
        10           Cu  tau(  10) = (   0.0019033   0.0000000   0.5208446  )
        11           O   tau(  11) = (   0.2499998   0.0000000   0.5341884  )
        12           O   tau(  12) = (   0.5083351   0.2387265   0.5569851  )
        13           O   tau(  13) = (  -0.0083354   0.2387265   0.5569851  )
        14           O   tau(  14) = (   0.7499995   0.0000000   0.5573831  )
        15           Ca  tau(  15) = (   0.2499998   0.2387265   0.7436937  )
        16           Y   tau(  16) = (   0.7499995   0.2387265   0.7469544  )
        17           O   tau(  17) = (  -0.0063798   0.2387265   0.9248530  )
        18           O   tau(  18) = (   0.5063794   0.2387265   0.9248530  )
        19           O   tau(  19) = (   0.7499995   0.0000000   0.9338544  )
        20           O   tau(  20) = (   0.2499998   0.0000000   0.9461329  )
        21           Cu  tau(  21) = (   0.0015717   0.0000000   0.9686860  )
        22           Cu  tau(  22) = (   0.4984280   0.0000000   0.9686860  )
        23           Ba  tau(  23) = (   0.2499998   0.2387265   1.2085224  )
        24           Ba  tau(  24) = (   0.7499995   0.2387265   1.2233294  )
        25           O   tau(  25) = (   0.0063772   0.0000000   1.2547537  )
        26           O   tau(  26) = (   0.4936224   0.0000000   1.2547537  )
        27           O   tau(  27) = (   0.5384045   0.2387265   1.4952521  )
        28           O   tau(  28) = (  -0.0384049   0.2387265   1.4952521  )
        29           Cu  tau(  29) = (   0.5006120   0.0000000   1.4952546  )
        30           Cu  tau(  30) = (  -0.0006123   0.0000000   1.4952546  )
        31           O   tau(  31) = (   0.4936212   0.0000000   1.8314304  )
        32           O   tau(  32) = (   0.0063785   0.0000000   1.8314304  )
        33           Ba  tau(  33) = (   0.7499995   0.2387265   1.8628598  )
        34           Ba  tau(  34) = (   0.2499998   0.2387265   1.8776694  )
        35           Cu  tau(  35) = (   0.4984280   0.0000000   2.1175006  )
        36           Cu  tau(  36) = (   0.0015717   0.0000000   2.1175006  )
        37           O   tau(  37) = (   0.2499998   0.0000000   2.1400588  )
        38           O   tau(  38) = (   0.7499995   0.0000000   2.1523284  )
        39           O   tau(  39) = (   0.5063781   0.2387265   2.1613336  )
        40           O   tau(  40) = (  -0.0063785   0.2387265   2.1613336  )
        41           Y   tau(  41) = (   0.7499995   0.2387265   2.3392271  )
        42           Ca  tau(  42) = (   0.2499998   0.2387265   2.3424967  )
        43           O   tau(  43) = (   0.7499995   0.0000000   2.5287946  )
        44           O   tau(  44) = (  -0.0083354   0.2387265   2.5291964  )
        45           O   tau(  45) = (   0.5083351   0.2387265   2.5291964  )
        46           O   tau(  46) = (   0.2499998   0.0000000   2.5519944  )
        47           Cu  tau(  47) = (   0.0019059   0.0000000   2.5653280  )
        48           Cu  tau(  48) = (   0.4980938   0.0000000   2.5653280  )
        49           Ba  tau(  49) = (   0.2499998   0.2387265   2.8106677  )
        50           Ba  tau(  50) = (   0.7499995   0.2387265   2.8112099  )
        51           O   tau(  51) = (  -0.0028895   0.0000000   2.8355170  )
        52           O   tau(  52) = (   0.5028891   0.0000000   2.8355170  )
        53           Cu  tau(  53) = (   0.5017844   0.0000000   3.0752016  )
        54           Cu  tau(  54) = (  -0.0017847   0.0000000   3.0752016  )
        55           O   tau(  55) = (   0.5008990   0.2387265   3.1084080  )
        56           O   tau(  56) = (  -0.0008994   0.2387265   3.1084080  )

     number of k points=    25  Gaussian smearing, width (Ry)=  0.0100
                       cart. coord. in units 2pi/alat
        k(    1) = (   0.0000000   0.0000000   0.0000000), wk =   0.0312500
        k(    2) = (   0.0000000   0.2618060   0.0000000), wk =   0.0625000
        k(    3) = (   0.0000000   0.5236121   0.0000000), wk =   0.0625000
        k(    4) = (   0.0000000   0.7854181   0.0000000), wk =   0.0625000
        k(    5) = (   0.0000000  -1.0472241   0.0000000), wk =   0.0312500
        k(    6) = (   0.1250000   0.0000000   0.0000000), wk =   0.0625000
        k(    7) = (   0.1250000   0.2618060   0.0000000), wk =   0.1250000
        k(    8) = (   0.1250000   0.5236121   0.0000000), wk =   0.1250000
        k(    9) = (   0.1250000   0.7854181   0.0000000), wk =   0.1250000
        k(   10) = (   0.1250000  -1.0472241   0.0000000), wk =   0.0625000
        k(   11) = (   0.2500000   0.0000000   0.0000000), wk =   0.0625000
        k(   12) = (   0.2500000   0.2618060   0.0000000), wk =   0.1250000
        k(   13) = (   0.2500000   0.5236121   0.0000000), wk =   0.1250000
        k(   14) = (   0.2500000   0.7854181   0.0000000), wk =   0.1250000
        k(   15) = (   0.2500000  -1.0472241   0.0000000), wk =   0.0625000
        k(   16) = (   0.3750000   0.0000000   0.0000000), wk =   0.0625000
        k(   17) = (   0.3750000   0.2618060   0.0000000), wk =   0.1250000
        k(   18) = (   0.3750000   0.5236121   0.0000000), wk =   0.1250000
        k(   19) = (   0.3750000   0.7854181   0.0000000), wk =   0.1250000
        k(   20) = (   0.3750000  -1.0472241   0.0000000), wk =   0.0625000
        k(   21) = (  -0.5000000   0.0000000   0.0000000), wk =   0.0312500
        k(   22) = (  -0.5000000   0.2618060   0.0000000), wk =   0.0625000
        k(   23) = (  -0.5000000   0.5236121   0.0000000), wk =   0.0625000
        k(   24) = (  -0.5000000   0.7854181   0.0000000), wk =   0.0625000
        k(   25) = (  -0.5000000  -1.0472241   0.0000000), wk =   0.0312500

     Initial potential from superposition of free atoms

     starting charge  455.69457, renormalised to  456.00000

     negative rho (up, down):  9.324E-02 0.000E+00
     Starting wfcs are  396 randomized atomic wfcs

     Self-consistent Calculation

     iteration #  1     ecut=    60.00 Ry     beta= 0.50
     Davidson diagonalization with overlap
     ethr =  1.00E-02,  avg # of iterations =  2.0

     negative rho (up, down):  8.620E-02 0.000E+00

     total energy              =   -3708.33254210 Ry
     Harris-Foulkes estimate   =   -3716.37288760 Ry
     estimated scf accuracy    <      30.32249261 Ry

[...]

     iteration # 11     ecut=    60.00 Ry     beta= 0.50
     Davidson diagonalization with overlap
     c_bands:  1 eigenvalues not converged
     ethr =  4.90E-05,  avg # of iterations =  6.9

[...]

     iteration # 24     ecut=    60.00 Ry     beta= 0.50
     Davidson diagonalization with overlap
     c_bands:  1 eigenvalues not converged
     ethr =  9.48E-09,  avg # of iterations =  3.0

[...]

     total energy              =   -3711.63809079 Ry
     Harris-Foulkes estimate   =   -3711.63809078 Ry
     estimated scf accuracy    <       0.00000003 Ry

     iteration # 33     ecut=    60.00 Ry     beta= 0.50
     Davidson diagonalization with overlap
     ethr =  5.68E-12,  avg # of iterations =  1.0

[...]

     End of self-consistent calculation

          k = 0.0000 0.0000 0.0000 ( 69653 PWs)   bands (ev):

   -38.0975 -38.0629 -35.7273 -35.6834 -22.8641 -22.8578 -22.7357 -22.7295
   -22.6283 -22.6182 -22.4634 -22.2703 -18.5713 -18.5415 -18.4699 -18.4358
   -18.1009 -18.0661 -17.0741 -17.0310 -16.9404 -16.8996 -16.7577 -16.7118
   -15.4782 -15.4529 -15.0320 -15.0209 -14.7734 -14.7070 -14.6268 -14.5999
   -14.5998 -14.5482 -14.5120 -14.5021 -14.4947 -14.4123 -14.3459 -14.3365
   -14.1646 -14.1411 -14.0510 -14.0407 -14.0350 -14.0295 -14.0264 -14.0184
   -13.9621 -13.9091 -13.7686 -13.6772 -13.0785 -12.6475  -8.1025  -8.0960
    -7.9938  -7.9868  -7.9182  -7.9133  -7.9074  -7.8753  -7.7752  -7.7691
    -7.7500  -7.6788  -7.6728  -7.6327  -7.5690  -7.5373  -7.5311  -7.5282
    -7.5111  -7.4504  -7.3953  -7.2805  -7.1344  -7.0240  -3.0363  -3.0242
    -2.8951  -2.8317  -2.2186  -2.2150  -2.1307  -2.1280  -2.1084  -2.0890
    -1.9572  -1.9221  -1.9118  -1.8892  -1.8672  -1.8299  -1.7752  -1.7396
    -1.7297  -1.7201  -1.6993  -1.6658  -1.5941  -1.5609  -1.4037  -1.3864
    -1.1930  -1.1681  -1.1573  -1.1458  -1.0901  -1.0222  -0.9658  -0.9644
    -0.9609  -0.9591  -0.9562  -0.9479  -0.9227  -0.9205  -0.8412  -0.7917
    -0.7394  -0.7354  -0.4743  -0.4486  -0.4027  -0.3689  -0.3387  -0.2998
    -0.2962  -0.2833  -0.2782  -0.2607  -0.2404  -0.2393  -0.2084  -0.1810
    -0.1770  -0.1761  -0.1753  -0.1360  -0.0863  -0.0837  -0.0723  -0.0115
    -0.0013   0.0118   0.0180   0.0203   0.0525   0.0959   0.1009   0.1166
     0.1200   0.1318   0.1331   0.1337   0.2290   0.2334   0.2683   0.2726
     0.2960   0.3189   0.3347   0.3654   0.3666   0.3743   0.4323   0.4711
     0.4890   0.5388   0.5408   0.5608   0.5653   0.5669   0.5898   0.6792
     0.7535   0.7726   0.7860   0.8912   0.9300   0.9547   0.9955   1.0020
     1.0340   1.0475   1.0594   1.0923   1.1953   1.1998   1.2221   1.2247
     1.2317   1.2335   1.2499   1.2502   1.3330   1.3467   1.3507   1.3799
     1.3910   1.4195   1.4258   1.4393   1.4563   1.4756   1.5833   1.6111
     1.6413   1.6694   1.7237   1.7275   1.7970   1.7999   1.8013   1.8213
     1.8598   1.8599   1.8994   1.9060   1.9541   2.0684   2.0752   2.2221
     2.2417   2.2508   2.3847   2.3943   2.4070   2.4448   2.4637   2.5090
     2.5922   2.6118   2.6349   2.6725   2.8816   2.9041   5.2059   5.2438
     5.4117   5.9478   6.0927   6.6235   6.6423   6.7725   6.9671   7.2144
     7.2856   7.2993   7.3792   7.3835   7.5705   7.6453   8.0217   8.0419
     8.0742   8.1265   8.1592   8.1775   8.2861   8.4882   8.5186   8.5504
     8.6091   8.6664   8.8690   9.0195   9.0751   9.1124   9.2226   9.2728
     9.4096   9.4179

[...]

          k = 0.3750-1.0472 0.0000 ( 69570 PWs)   bands (ev):

[...]

          k =-0.5000 0.0000 0.0000 ( 69680 PWs)   bands (ev):

[...]

          k =-0.5000-1.0472 0.0000 ( 69548 PWs)   bands (ev):

   -38.0790 -38.0444 -35.7157 -35.6717 -22.6613 -22.6547 -22.6314 -22.6254
   -22.4770 -22.4467 -22.3448 -22.1295 -18.7408 -18.7074 -18.3997 -18.3654
   -18.2768 -18.2462 -17.1489 -17.1029 -16.9719 -16.9316 -16.8663 -16.8239
   -14.7823 -14.7659 -14.7097 -14.7013 -14.5591 -14.5381 -14.4902 -14.4712
   -14.4386 -14.4251 -14.4136 -14.3183 -14.3078 -14.3006 -14.2849 -14.2723
   -14.1897 -14.1650 -14.0390 -14.0361 -13.9945 -13.9678 -13.9300 -13.9149
   -13.9141 -13.9086 -13.9078 -13.8815 -12.9174 -12.9020  -8.4463  -8.4401
    -8.3954  -8.3894  -8.2174  -8.1378  -8.1213  -8.1190  -8.1149  -8.0976
    -8.0917  -8.0195  -8.0167  -8.0129  -8.0101  -7.9083  -7.9074  -7.8377
    -7.7990  -7.7066  -7.6746  -7.6629  -7.5988  -7.5488  -3.8460  -3.8220
    -3.6200  -3.5979  -3.4473  -3.4013  -3.3415  -3.2748  -3.0415  -3.0406
    -3.0361  -3.0352  -3.0015  -2.9467  -2.3859  -2.3806  -2.2784  -2.2714
    -2.1873  -2.1475  -2.1388  -2.1161  -2.1152  -2.1005  -2.0332  -2.0227
    -2.0069  -1.9837  -1.9481  -1.9366  -1.8540  -1.7919  -1.7722  -1.7346
    -1.7151  -1.6889  -1.5108  -1.4821  -1.3922  -1.3597  -1.1785  -1.1658
    -1.1536  -1.1516  -1.1294  -1.1111  -0.9298  -0.9004  -0.8600  -0.8324
    -0.8295  -0.8139  -0.7554  -0.7419  -0.7259  -0.7242  -0.7158  -0.7055
    -0.6324  -0.6122  -0.5862  -0.5385  -0.5008  -0.4408  -0.3563  -0.3505
    -0.3493  -0.3456  -0.2713  -0.2339  -0.2052  -0.1870   0.2074   0.2399
     0.3601   0.3659   0.4511   0.4644   0.4994   0.5217   0.5392   0.5481
     0.5664   0.5805   0.7016   0.7812   0.8178   0.9769   1.0321   1.0628
     1.0889   1.1032   1.1137   1.1396   1.1662   1.1823   1.1961   1.2231
     1.2415   1.2589   1.3091   1.3257   1.3609   1.3635   1.3720   1.4007
     1.4350   1.4557   1.4734   1.4840   1.4879   1.5286   1.5476   1.5853
     1.6065   1.6121   1.6366   1.7872   1.8118   1.8198   1.8728   1.8842
     1.9039   1.9198   1.9764   1.9785   1.9967   2.0042   2.0125   2.0284
     2.0483   2.0521   2.0832   2.1323   2.2078   2.2091   2.2144   2.2164
     2.2241   2.3509   2.5016   2.5513   2.5561   2.5607   2.5649   2.5700
     2.7204   2.7297   2.7377   2.7560   3.3283   3.4420   3.4983   3.5338
     3.5637   3.5789   3.6527   3.6754   3.7611   3.7823   6.2389   6.7385
     6.7434   6.7664   6.7958   6.9616   7.0243   7.1718   7.5858   7.6308
     8.2338   8.2841   8.3205   8.3241   8.7357   9.0603   9.1324   9.1523
     9.2149   9.3002   9.4054   9.4143   9.4651   9.4659   9.4787   9.5122
     9.5777   9.7040   9.7307   9.7727   9.7969   9.8256   9.8291   9.8749
     9.8837   9.9721

     the Fermi energy is     2.7365 ev

!    total energy              =   -3711.63809081 Ry
     Harris-Foulkes estimate   =   -3711.63809079 Ry
     estimated scf accuracy    <          5.3E-09 Ry

     The total energy is the sum of the following terms:

     one-electron contribution =  -61715.66670523 Ry
     hartree contribution      =   31164.83868494 Ry
     xc contribution           =   -1263.86823792 Ry
     ewald contribution        =   28103.07411155 Ry
     smearing contrib. (-TS)   =      -0.01594416 Ry

     convergence has been achieved in  33 iterations

     negative rho (up, down):  9.216E-02 0.000E+00

     Forces acting on atoms (cartesian axes, Ry/au):

     atom    1 type  4   force =     0.00000089    0.00000000   -0.00022370
     atom    2 type  4   force =    -0.00000089    0.00000000   -0.00022370
     atom    3 type  3   force =    -0.00002290    0.00000000   -0.00002388
     atom    4 type  3   force =     0.00002290    0.00000000   -0.00002388
     atom    5 type  4   force =    -0.00000607    0.00000000   -0.00003924
     atom    6 type  4   force =     0.00000607    0.00000000   -0.00003924
     atom    7 type  1   force =     0.00000000    0.00000000   -0.00026407
     atom    8 type  1   force =     0.00000000    0.00000000   -0.00023376
     atom    9 type  3   force =     0.00008684    0.00000000   -0.00019556
     atom   10 type  3   force =    -0.00008684    0.00000000   -0.00019556
     atom   11 type  4   force =     0.00000000    0.00000000    0.00063598
     atom   12 type  4   force =     0.00000104    0.00000000    0.00065417
     atom   13 type  4   force =    -0.00000104    0.00000000    0.00065417
     atom   14 type  4   force =     0.00000000    0.00000000    0.00081434
     atom   15 type  2   force =     0.00000000    0.00000000   -0.00172969
     atom   16 type  5   force =     0.00000000    0.00000000   -0.00264235
     atom   17 type  4   force =     0.00050613    0.00000000    0.00281500
     atom   18 type  4   force =    -0.00050613    0.00000000    0.00281500
     atom   19 type  4   force =     0.00000000    0.00000000    0.00218174
     atom   20 type  4   force =     0.00000000    0.00000000    0.00261593
     atom   21 type  3   force =     0.00036633    0.00000000   -0.00066774
     atom   22 type  3   force =    -0.00036633    0.00000000   -0.00066774
     atom   23 type  1   force =     0.00000000    0.00000000    0.00672569
     atom   24 type  1   force =     0.00000000    0.00000000    0.01213748
     atom   25 type  4   force =     0.00184154    0.00000000   -0.00889622
     atom   26 type  4   force =    -0.00184154    0.00000000   -0.00889622
     atom   27 type  4   force =    -0.00329637    0.00000000    0.02094787
     atom   28 type  4   force =     0.00329637    0.00000000    0.02094787
     atom   29 type  3   force =     0.00477685    0.00000000    0.02272011
     atom   30 type  3   force =    -0.00477685    0.00000000    0.02272011
     atom   31 type  4   force =     0.00944333    0.00000000   -0.01510199
     atom   32 type  4   force =    -0.00944333    0.00000000   -0.01510199
     atom   33 type  1   force =     0.00000000    0.00000000   -0.02462482
     atom   34 type  1   force =     0.00000000    0.00000000   -0.01913581
     atom   35 type  3   force =    -0.00261381    0.00000000   -0.01433353
     atom   36 type  3   force =     0.00261381    0.00000000   -0.01433353
     atom   37 type  4   force =     0.00000000    0.00000000    0.00451180
     atom   38 type  4   force =     0.00000000    0.00000000    0.00125999
     atom   39 type  4   force =     0.00220891    0.00000000    0.00077905
     atom   40 type  4   force =    -0.00220891    0.00000000    0.00077905
     atom   41 type  5   force =     0.00000000    0.00000000    0.00140973
     atom   42 type  2   force =     0.00000000    0.00000000   -0.00009369
     atom   43 type  4   force =     0.00000000    0.00000000    0.00001475
     atom   44 type  4   force =     0.00000868    0.00000000   -0.00056002
     atom   45 type  4   force =    -0.00000868    0.00000000   -0.00056002
     atom   46 type  4   force =     0.00000000    0.00000000    0.00002835
     atom   47 type  3   force =     0.00004092    0.00000000    0.00017815
     atom   48 type  3   force =    -0.00004092    0.00000000    0.00017815
     atom   49 type  1   force =     0.00000000    0.00000000    0.00011744
     atom   50 type  1   force =     0.00000000    0.00000000    0.00016233
     atom   51 type  4   force =    -0.00003414    0.00000000   -0.00034543
     atom   52 type  4   force =     0.00003414    0.00000000   -0.00034543
     atom   53 type  3   force =    -0.00004735    0.00000000    0.00052415
     atom   54 type  3   force =     0.00004735    0.00000000    0.00052415
     atom   55 type  4   force =     0.00000971    0.00000000   -0.00017688
     atom   56 type  4   force =    -0.00000971    0.00000000   -0.00017688

     Total force =     0.066667     Total SCF correction =     0.000283

     Computing stress (Cartesian axis) and pressure

     negative rho (up, down):  9.216E-02 0.000E+00
          total   stress  (Ry/bohr**3)                   (kbar)     P=       -6.50
  -0.00000219   0.00000000   0.00000000           -0.32        0.00        0.00
   0.00000000  -0.00005832   0.00000000            0.00       -8.58        0.00
   0.00000000   0.00000000  -0.00007196            0.00        0.00      -10.59

     General routines

     Parallel routines

   This run was terminated on:   0: 7:24  28May2021

   JOB DONE.
[1622174845.092563] [holy7c10509:160704:0]          mpool.c:43   UCX  WARN  object 0x3ca6380 was not returned to mpool ucp_requests
[1622174845.118801] [holy7c06108:119006:0]          mpool.c:43   UCX  WARN  object 0x41efc00 was not returned to mpool ucp_requests
[1622174845.119833] [holy7c06108:119007:0]          mpool.c:43   UCX  WARN  object 0x351f040 was not returned to mpool ucp_requests
[1622174845.118362] [holy7c06108:119013:0]          mpool.c:43   UCX  WARN  object 0x3377cc0 was not returned to mpool ucp_requests
[1622174845.118392] [holy7c06108:119013:0]          mpool.c:43   UCX  WARN  object 0x3378040 was not returned to mpool ucp_requests
[1622174845.118395] [holy7c06108:119013:0]          mpool.c:43   UCX  WARN  object 0x33783c0 was not returned to mpool ucp_requests
[1622174845.119900] [holy7c06108:119018:0]          mpool.c:43   UCX  WARN  object 0x426e580 was not returned to mpool ucp_requests
[1622174845.119926] [holy7c06108:119018:0]          mpool.c:43   UCX  WARN  object 0x426e900 was not returned to mpool ucp_requests
[1622174845.119930] [holy7c06108:119018:0]          mpool.c:43   UCX  WARN  object 0x426f000 was not returned to mpool ucp_requests
[1622174845.092771] [holy7c10509:160705:0]          mpool.c:43   UCX  WARN  object 0x4434200 was not returned to mpool ucp_requests
[1622174845.126227] [holy7c06108:119008:0]          mpool.c:43   UCX  WARN  object 0x42485c0 was not returned to mpool ucp_requests
[1622174845.126254] [holy7c06108:119008:0]          mpool.c:43   UCX  WARN  object 0x4248b00 was not returned to mpool ucp_requests
[1622174845.127473] [holy7c06108:119011:0]          mpool.c:43   UCX  WARN  object 0x474b080 was not returned to mpool ucp_requests
[1622174845.127500] [holy7c06108:119011:0]          mpool.c:43   UCX  WARN  object 0x474b5c0 was not returned to mpool ucp_requests
[1622174845.127747] [holy7c06108:119012:0]          mpool.c:43   UCX  WARN  object 0x3b4d800 was not returned to mpool ucp_requests
[1622174845.126729] [holy7c06108:119016:0]          mpool.c:43   UCX  WARN  object 0x3871d80 was not returned to mpool ucp_requests
[1622174845.110748] [holy7c08503:247814:0]          mpool.c:43   UCX  WARN  object 0x3348700 was not returned to mpool ucp_requests
[1622174845.111248] [holy7c08503:247817:0]          mpool.c:43   UCX  WARN  object 0x3e62240 was not returned to mpool ucp_requests
[1622174845.111267] [holy7c08503:247817:0]          mpool.c:43   UCX  WARN  object 0x3e62940 was not returned to mpool ucp_requests
[1622174845.110832] [holy7c08503:247815:0]          mpool.c:43   UCX  WARN  object 0x382da00 was not returned to mpool ucp_requests