     Program PWSCF v.6.5 starts on 27May2021 at 23:30:40

     R & G space division:  proc/nbgrp/npool/nimage =      32
     Reading input from YCBCO50_212_CuO_cleave_0.5_sep.pwi
Warning: card &IONS ignored
Warning: card     ION_DYNAMICS = 'BFGS' ignored
Warning: card / ignored
Warning: card &CELL ignored
Warning: card     CELL_DYNAMICS = 'BFGS' ignored
Warning: card     PRESS_CONV_THR = 5 ignored
Warning: card / ignored

     Current dimensions of program PWSCF are:
     Max number of different atomic species (ntypx) = 10
     Max number of k-points (npk) =  40000
     Max angular momentum in pseudopotentials (lmaxx) =  3

     Message from routine setup:
     using ibrav=0 with symmetry is DISCOURAGED, use correct ibrav instead

     bravais-lattice index     =            0
     lattice parameter (alat)  =      14.8133  a.u.
     unit-cell volume          =    8816.2533 (a.u.)^3
     number of atoms/cell      =           56
     number of atomic types    =            5
     number of electrons       =       456.00
     number of Kohn-Sham states=          274
     kinetic-energy cutoff     =      60.0000  Ry
     charge density cutoff     =     720.0000  Ry
     convergence threshold     =      1.0E-08
     mixing beta               =       0.5000
     number of iterations used =           10  local-TF  mixing
     Exchange-correlation= SLA PW PBE PBE
                           (   1   4   3   4   0   0   0)

     celldm(1)=  14.813271  celldm(2)=   0.000000  celldm(3)=   0.000000
     celldm(4)=   0.000000  celldm(5)=   0.000000  celldm(6)=   0.000000

     crystal axes: (cart. coord. in units of alat)
               a(1) = (   1.000000   0.000000   0.000000 )
               a(2) = (   0.000000   0.477453   0.000000 )
               a(3) = (   0.000000   0.000000   5.680686 )

     reciprocal axes: (cart. coord. in units 2 pi/alat)
               b(1) = (  1.000000  0.000000  0.000000 )
               b(2) = (  0.000000  2.094448  0.000000 )
               b(3) = (  0.000000  0.000000  0.176035 )

     PseudoPot. # 1 for Ba read from file:
     ./pseudo/Ba.pbe-nsp-van.UPF
     MD5 check sum: 2b9c31dd849566dd297d80989662b7a0
     Pseudo is Ultrasoft + core correction, Zval = 10.0
     Generated by new atomic code, or converted to UPF format
     Using radial grid of  907 points,  6 beta functions with:
                l(1) =   0
                l(2) =   0
                l(3) =   1
                l(4) =   1
                l(5) =   2
                l(6) =   2
     Q(r) pseudized with  6 coefficients,  rinner =    1.200   1.200   1.200
                                                       1.200   1.200

     PseudoPot. # 2 for Ca read from file:
     ./pseudo/Ca.pbe-nsp-van.UPF
     MD5 check sum: 6471098428ff4fa451746d08035ff179
     Pseudo is Ultrasoft + core correction, Zval = 10.0
     Generated by new atomic code, or converted to UPF format
     Using radial grid of  845 points,  6 beta functions with:
                l(1) =   0
                l(2) =   0
                l(3) =   1
                l(4) =   1
                l(5) =   2
                l(6) =   2
     Q(r) pseudized with  6 coefficients,  rinner =    1.200   1.200   1.200
                                                       1.200   1.200

     PseudoPot. # 3 for Cu read from file:
     ./pseudo/Cu.pbe-n-van_ak.UPF
     MD5 check sum: 34e3282627ffb533726feb647e090d62
     Pseudo is Ultrasoft + core correction, Zval = 11.0
     Generated by new atomic code, or converted to UPF format
     Using radial grid of  867 points,  6 beta functions with:
                l(1) =   0
                l(2) =   0
                l(3) =   1
                l(4) =   1
                l(5) =   2
                l(6) =   2
     Q(r) pseudized with  8 coefficients,  rinner =    1.400   1.400   1.400
                                                       1.400   1.400

     PseudoPot. # 4 for O  read from file:
     ./pseudo/O.pbe-van_ak.UPF
     MD5 check sum: 783ce7fe4c79b6a4916957118fed0856
     Pseudo is Ultrasoft, Zval =  6.0
     Generated by new atomic code, or converted to UPF format
     Using radial grid of  737 points,  4 beta functions with:
                l(1) =   0
                l(2) =   0
                l(3) =   1
                l(4) =   1
     Q(r) pseudized with  8 coefficients,  rinner =    0.800   0.800   0.800

     PseudoPot. # 5 for Y  read from file:
     ./pseudo/Y.pbe-nsp-van.UPF
     MD5 check sum: 4412fed3ab108fed87a1b7d6a69a4a38
     Pseudo is Ultrasoft + core correction, Zval = 11.0
     Generated by new atomic code, or converted to UPF format
     Using radial grid of  885 points,  6 beta functions with:
                l(1) =   0
                l(2) =   0
                l(3) =   1
                l(4) =   1
                l(5) =   2
                l(6) =   2
     Q(r) pseudized with  6 coefficients,  rinner =    1.200   1.200   1.200
                                                       1.200   1.200

     atomic species   valence    mass     pseudopotential
        Ba            10.00   137.32700     Ba( 1.00)
        Ca            10.00    40.07800     Ca( 1.00)
        Cu            11.00    63.54600     Cu( 1.00)
        O              6.00    15.99900     O ( 1.00)
        Y             11.00    88.90584     Y ( 1.00)

      4 Sym. Ops. (no inversion) found ( 2 have fractional translation)

   Cartesian axes

     site n.     atom                  positions (alat units)
         1           O   tau(   1) = (  -0.0008343   0.2387265  -0.0222443  )
         2           O   tau(   2) = (   0.5008340   0.2387265  -0.0222443  )
         3           Cu  tau(   3) = (   0.5017257   0.0000000   0.0109608  )
         4           Cu  tau(   4) = (  -0.0017260   0.0000000   0.0109608  )
         5           O   tau(   5) = (  -0.0028933   0.0000000   0.2506504  )
         6           O   tau(   6) = (   0.5028929   0.0000000   0.2506504  )
         7           Ba  tau(   7) = (   0.7499995   0.2387265   0.2749435  )
         8           Ba  tau(   8) = (   0.2499998   0.2387265   0.2755214  )
         9           Cu  tau(   9) = (   0.4980963   0.0000000   0.5208446  )
        10           Cu  tau(  10) = (   0.0019033   0.0000000   0.5208446  )
        11           O   tau(  11) = (   0.2499998   0.0000000   0.5341884  )
        12           O   tau(  12) = (   0.5083351   0.2387265   0.5569851  )
        13           O   tau(  13) = (  -0.0083354   0.2387265   0.5569851  )
        14           O   tau(  14) = (   0.7499995   0.0000000   0.5573831  )
        15           Ca  tau(  15) = (   0.2499998   0.2387265   0.7436937  )
        16           Y   tau(  16) = (   0.7499995   0.2387265   0.7469544  )
        17           O   tau(  17) = (  -0.0063798   0.2387265   0.9248530  )
        18           O   tau(  18) = (   0.5063794   0.2387265   0.9248530  )
        19           O   tau(  19) = (   0.7499995   0.0000000   0.9338544  )
        20           O   tau(  20) = (   0.2499998   0.0000000   0.9461329  )
        21           Cu  tau(  21) = (   0.0015717   0.0000000   0.9686860  )
        22           Cu  tau(  22) = (   0.4984280   0.0000000   0.9686860  )
        23           Ba  tau(  23) = (   0.2499998   0.2387265   1.2085224  )
        24           Ba  tau(  24) = (   0.7499995   0.2387265   1.2233294  )
        25           O   tau(  25) = (   0.0063772   0.0000000   1.2547537  )
        26           O   tau(  26) = (   0.4936224   0.0000000   1.2547537  )
        27           O   tau(  27) = (   0.5384045   0.2387265   1.4952521  )
        28           O   tau(  28) = (  -0.0384049   0.2387265   1.4952521  )
        29           Cu  tau(  29) = (   0.5006120   0.0000000   1.4952546  )
        30           Cu  tau(  30) = (  -0.0006123   0.0000000   1.4952546  )
        31           O   tau(  31) = (   0.4936212   0.0000000   1.7995380  )
        32           O   tau(  32) = (   0.0063785   0.0000000   1.7995380  )
        33           Ba  tau(  33) = (   0.7499995   0.2387265   1.8309673  )
        34           Ba  tau(  34) = (   0.2499998   0.2387265   1.8457769  )
        35           Cu  tau(  35) = (   0.4984280   0.0000000   2.0856081  )
        36           Cu  tau(  36) = (   0.0015717   0.0000000   2.0856081  )
        37           O   tau(  37) = (   0.2499998   0.0000000   2.1081663  )
        38           O   tau(  38) = (   0.7499995   0.0000000   2.1204360  )
        39           O   tau(  39) = (   0.5063781   0.2387265   2.1294411  )
        40           O   tau(  40) = (  -0.0063785   0.2387265   2.1294411  )
        41           Y   tau(  41) = (   0.7499995   0.2387265   2.3073347  )
        42           Ca  tau(  42) = (   0.2499998   0.2387265   2.3106043  )
        43           O   tau(  43) = (   0.7499995   0.0000000   2.4969021  )
        44           O   tau(  44) = (  -0.0083354   0.2387265   2.4973040  )
        45           O   tau(  45) = (   0.5083351   0.2387265   2.4973040  )
        46           O   tau(  46) = (   0.2499998   0.0000000   2.5201020  )
        47           Cu  tau(  47) = (   0.0019059   0.0000000   2.5334356  )
        48           Cu  tau(  48) = (   0.4980938   0.0000000   2.5334356  )
        49           Ba  tau(  49) = (   0.2499998   0.2387265   2.7787753  )
        50           Ba  tau(  50) = (   0.7499995   0.2387265   2.7793174  )
        51           O   tau(  51) = (  -0.0028895   0.0000000   2.8036246  )
        52           O   tau(  52) = (   0.5028891   0.0000000   2.8036246  )
        53           Cu  tau(  53) = (   0.5017844   0.0000000   3.0433091  )
        54           Cu  tau(  54) = (  -0.0017847   0.0000000   3.0433091  )
        55           O   tau(  55) = (   0.5008990   0.2387265   3.0765155  )
        56           O   tau(  56) = (  -0.0008994   0.2387265   3.0765155  )

     number of k points=    25  Gaussian smearing, width (Ry)=  0.0100
                       cart. coord. in units 2pi/alat
        k(    1) = (   0.0000000   0.0000000   0.0000000), wk =   0.0312500
        k(    2) = (   0.0000000   0.2618060   0.0000000), wk =   0.0625000
        k(    3) = (   0.0000000   0.5236121   0.0000000), wk =   0.0625000
        k(    4) = (   0.0000000   0.7854181   0.0000000), wk =   0.0625000
        k(    5) = (   0.0000000  -1.0472241   0.0000000), wk =   0.0312500
        k(    6) = (   0.1250000   0.0000000   0.0000000), wk =   0.0625000
        k(    7) = (   0.1250000   0.2618060   0.0000000), wk =   0.1250000
        k(    8) = (   0.1250000   0.5236121   0.0000000), wk =   0.1250000
        k(    9) = (   0.1250000   0.7854181   0.0000000), wk =   0.1250000
        k(   10) = (   0.1250000  -1.0472241   0.0000000), wk =   0.0625000
        k(   11) = (   0.2500000   0.0000000   0.0000000), wk =   0.0625000
        k(   12) = (   0.2500000   0.2618060   0.0000000), wk =   0.1250000
        k(   13) = (   0.2500000   0.5236121   0.0000000), wk =   0.1250000
        k(   14) = (   0.2500000   0.7854181   0.0000000), wk =   0.1250000
        k(   15) = (   0.2500000  -1.0472241   0.0000000), wk =   0.0625000
        k(   16) = (   0.3750000   0.0000000   0.0000000), wk =   0.0625000
        k(   17) = (   0.3750000   0.2618060   0.0000000), wk =   0.1250000
        k(   18) = (   0.3750000   0.5236121   0.0000000), wk =   0.1250000
        k(   19) = (   0.3750000   0.7854181   0.0000000), wk =   0.1250000
        k(   20) = (   0.3750000  -1.0472241   0.0000000), wk =   0.0625000
        k(   21) = (  -0.5000000   0.0000000   0.0000000), wk =   0.0312500
        k(   22) = (  -0.5000000   0.2618060   0.0000000), wk =   0.0625000
        k(   23) = (  -0.5000000   0.5236121   0.0000000), wk =   0.0625000
        k(   24) = (  -0.5000000   0.7854181   0.0000000), wk =   0.0625000
        k(   25) = (  -0.5000000  -1.0472241   0.0000000), wk =   0.0312500

     Initial potential from superposition of free atoms

     starting charge  455.69457, renormalised to  456.00000

     negative rho (up, down):  9.319E-02 0.000E+00
     Starting wfcs are  396 randomized atomic wfcs

     Self-consistent Calculation

     iteration #  1     ecut=    60.00 Ry     beta= 0.50
     Davidson diagonalization with overlap
     ethr =  1.00E-02,  avg # of iterations =  2.0

     negative rho (up, down):  8.617E-02 0.000E+00

     total energy              =   -3708.39923916 Ry
     Harris-Foulkes estimate   =   -3716.38930190 Ry
     estimated scf accuracy    <      30.11743237 Ry

[...]

     iteration # 10     ecut=    60.00 Ry     beta= 0.50
     Davidson diagonalization with overlap
     c_bands:  1 eigenvalues not converged
     c_bands:  3 eigenvalues not converged
     ethr =  7.03E-05,  avg # of iterations =  5.3

[...]

     iteration # 24     ecut=    60.00 Ry     beta= 0.50
     Davidson diagonalization with overlap
     c_bands:  1 eigenvalues not converged
     ethr =  3.27E-09,  avg # of iterations =  2.6

[...]

     total energy              =   -3711.68869997 Ry
     Harris-Foulkes estimate   =   -3711.68869996 Ry
     estimated scf accuracy    <       0.00000001 Ry

     iteration # 33     ecut=    60.00 Ry     beta= 0.50
     Davidson diagonalization with overlap
     ethr =  3.15E-12,  avg # of iterations =  1.2

[...]

     End of self-consistent calculation

          k = 0.0000 0.0000 0.0000 ( 69231 PWs)   bands (ev):

   -38.0436 -38.0198 -35.6722 -35.6396 -22.8197 -22.8152 -22.6913 -22.6869
   -22.5548 -22.5143 -22.3923 -22.2568 -18.5179 -18.4974 -18.4158 -18.3923
   -18.0470 -18.0230 -17.0193 -16.9872 -16.8855 -16.8554 -16.7024 -16.6682
   -15.4263 -15.4079 -14.9856 -14.9777 -14.7161 -14.6630 -14.5754 -14.5557
   -14.5456 -14.4951 -14.4682 -14.4578 -14.4524 -14.3786 -14.3031 -14.2859
   -14.1137 -14.0971 -13.9989 -13.9970 -13.9932 -13.9848 -13.9832 -13.9753
   -13.9069 -13.8653 -13.7198 -13.5904 -13.1583 -12.7563  -8.0579  -8.0531
    -7.9491  -7.9442  -7.8690  -7.8648  -7.8349  -7.7907  -7.7308  -7.7265
    -7.6891  -7.6344  -7.6302  -7.5575  -7.5566  -7.4929  -7.4885  -7.4519
    -7.4362  -7.3713  -7.3202  -7.2074  -7.1286  -7.0155  -2.9898  -2.9814
    -2.8365  -2.7868  -2.1748  -2.1724  -2.0873  -2.0856  -2.0563  -2.0429
    -1.9041  -1.8780  -1.8579  -1.8413  -1.8132  -1.7856  -1.7085  -1.6854
    -1.6721  -1.6716  -1.6452  -1.6205  -1.5418  -1.5175  -1.3507  -1.3384
    -1.1366  -1.1328  -1.1171  -1.1010  -1.0815  -0.9900  -0.9225  -0.9211
    -0.9194  -0.9177  -0.9020  -0.8944  -0.8758  -0.8729  -0.7869  -0.7481
    -0.6958  -0.6932  -0.5512  -0.4464  -0.4329  -0.4051  -0.3145  -0.2735
    -0.2732  -0.2564  -0.2540  -0.2299  -0.2121  -0.1919  -0.1627  -0.1373
    -0.1347  -0.1324  -0.1320  -0.1249  -0.1160  -0.0276  -0.0176   0.0346
     0.0413   0.0554   0.0595   0.0671   0.0895   0.0958   0.1452   0.1605
     0.1688   0.1756   0.1767   0.1774   0.2722   0.2750   0.3115   0.3143
     0.3573   0.3802   0.3878   0.4109   0.4150   0.4157   0.4645   0.4758
     0.5144   0.5824   0.5838   0.5987   0.6042   0.6072   0.6564   0.7612
     0.7736   0.8017   0.8275   0.9136   0.9763   1.0058   1.0399   1.0442
     1.0841   1.0932   1.1130   1.1286   1.2198   1.2489   1.2640   1.2682
     1.2732   1.2797   1.2889   1.3036   1.3817   1.3832   1.3980   1.4237
     1.4331   1.4715   1.4731   1.4844   1.5067   1.5122   1.6355   1.6537
     1.6896   1.7213   1.7672   1.7697   1.8410   1.8439   1.8610   1.8757
     1.8866   1.9036   1.9568   1.9671   1.9971   2.1130   2.1175   2.2758
     2.2998   2.3027   2.3719   2.4311   2.4350   2.4981   2.4999   2.5044
     2.6368   2.6502   2.6589   2.7323   2.9272   2.9459   5.2625   5.2869
     5.5518   6.0015   6.1777   6.6677   6.6868   6.8101   7.0378   7.3203
     7.3301   7.3870   7.4226   7.4253   7.6255   7.7198   8.0929   8.1220
     8.1809   8.2035   8.2255   8.3311   8.4493   8.5469   8.5977   8.6356
     8.6605   8.7058   8.9654   9.0953   9.1322   9.1639   9.3058   9.3371
     9.4685   9.4745

[...]

          k = 0.3750-1.0472 0.0000 ( 69214 PWs)   bands (ev):

[...]

          k =-0.5000 0.0000 0.0000 ( 69240 PWs)   bands (ev):

[...]

          k =-0.5000-1.0472 0.0000 ( 69164 PWs)   bands (ev):

   -38.0252 -38.0014 -35.6606 -35.6280 -22.6168 -22.6121 -22.5870 -22.5828
   -22.3731 -22.3676 -22.2743 -22.1186 -18.6870 -18.6640 -18.3456 -18.3220
   -18.2233 -18.2023 -17.0935 -17.0592 -16.9170 -16.8872 -16.8116 -16.7800
   -14.7340 -14.7227 -14.6648 -14.6588 -14.5100 -14.4948 -14.4394 -14.4260
   -14.3901 -14.3806 -14.3456 -14.2665 -14.2616 -14.2462 -14.2376 -14.2256
   -14.1210 -14.0802 -13.9994 -13.9930 -13.9180 -13.9159 -13.8845 -13.8712
   -13.8704 -13.8677 -13.8672 -13.8663 -13.0264 -13.0113  -8.4019  -8.3975
    -8.3510  -8.3469  -8.1436  -8.0769  -8.0723  -8.0600  -8.0550  -8.0532
    -8.0491  -7.9749  -7.9721  -7.9701  -7.9676  -7.8443  -7.8349  -7.7296
    -7.7259  -7.6873  -7.6167  -7.6072  -7.5797  -7.5303  -3.7955  -3.7779
    -3.5709  -3.5542  -3.3925  -3.3561  -3.2871  -3.2303  -2.9987  -2.9972
    -2.9948  -2.9937  -2.9900  -2.9377  -2.3414  -2.3378  -2.2328  -2.2282
    -2.1277  -2.0940  -2.0893  -2.0704  -2.0703  -2.0551  -1.9888  -1.9799
    -1.9590  -1.9394  -1.9015  -1.8932  -1.7987  -1.7476  -1.7235  -1.6887
    -1.6602  -1.6353  -1.4607  -1.4394  -1.3432  -1.3171  -1.1474  -1.1239
    -1.1181  -1.1114  -1.0895  -1.0832  -0.8817  -0.8580  -0.8137  -0.7855
    -0.7802  -0.7700  -0.7082  -0.6987  -0.6900  -0.6816  -0.6738  -0.6623
    -0.6205  -0.6025  -0.5271  -0.4916  -0.4409  -0.4062  -0.3880  -0.3433
    -0.3102  -0.2968  -0.2724  -0.2530  -0.1977  -0.1735   0.2570   0.2859
     0.3855   0.3889   0.4582   0.4768   0.5395   0.5605   0.5747   0.6004
     0.6132   0.6150   0.7492   0.8269   0.8682   1.0112   1.0843   1.1071
     1.1399   1.1491   1.1594   1.1805   1.2180   1.2206   1.2291   1.2649
     1.2766   1.3106   1.3575   1.3694   1.4100   1.4126   1.4160   1.4440
     1.4886   1.5031   1.5142   1.5268   1.5373   1.5741   1.5851   1.6398
     1.6505   1.6538   1.6793   1.8474   1.8553   1.8716   1.9093   1.9225
     1.9359   1.9556   1.9650   1.9881   1.9936   2.0031   2.0120   2.0507
     2.0677   2.1011   2.1276   2.1419   2.2203   2.2514   2.2529   2.2557
     2.2579   2.3688   2.5107   2.5994   2.6025   2.6084   2.6118   2.6228
     2.7654   2.7763   2.7785   2.7966   3.4848   3.5477   3.6020   3.6226
     3.6664   3.6817   3.7072   3.7239   3.8110   3.8614   6.2671   6.7824
     6.7857   6.8139   6.8411   7.0130   7.0753   7.1338   7.6429   7.6789
     8.2881   8.3393   8.3619   8.5007   8.8537   9.1285   9.1986   9.2066
     9.2645   9.3570   9.4502   9.4576   9.5124   9.5242   9.5277   9.6610
     9.7631   9.7707   9.8190   9.8303   9.8574   9.8786   9.8795   9.9406
     9.9709  10.0445

     the Fermi energy is     2.7799 ev

!    total energy              =   -3711.68869998 Ry
     Harris-Foulkes estimate   =   -3711.68869997 Ry
     estimated scf accuracy    <          5.6E-09 Ry

     The total energy is the sum of the following terms:

     one-electron contribution =  -62784.54505304 Ry
     hartree contribution      =   31700.02607187 Ry
     xc contribution           =   -1263.93938191 Ry
     ewald contribution        =   28636.78451311 Ry
     smearing contrib. (-TS)   =      -0.01485001 Ry

     convergence has been achieved in  33 iterations

     negative rho (up, down):  9.224E-02 0.000E+00

     Forces acting on atoms (cartesian axes, Ry/au):

     atom    1 type  4   force =    -0.00001074    0.00000000   -0.00015541
     atom    2 type  4   force =     0.00001074    0.00000000   -0.00015541
     atom    3 type  3   force =    -0.00002147    0.00000000   -0.00003875
     atom    4 type  3   force =     0.00002147    0.00000000   -0.00003875
     atom    5 type  4   force =    -0.00000962    0.00000000   -0.00004400
     atom    6 type  4   force =     0.00000962    0.00000000   -0.00004400
     atom    7 type  1   force =     0.00000000    0.00000000   -0.00020623
     atom    8 type  1   force =     0.00000000    0.00000000   -0.00018075
     atom    9 type  3   force =     0.00007157    0.00000000   -0.00011475
     atom   10 type  3   force =    -0.00007157    0.00000000   -0.00011475
     atom   11 type  4   force =     0.00000000    0.00000000    0.00045687
     atom   12 type  4   force =    -0.00000867    0.00000000    0.00043413
     atom   13 type  4   force =     0.00000867    0.00000000    0.00043413
     atom   14 type  4   force =     0.00000000    0.00000000    0.00057922
     atom   15 type  2   force =     0.00000000    0.00000000   -0.00120270
     atom   16 type  5   force =     0.00000000    0.00000000   -0.00184976
     atom   17 type  4   force =     0.00033740    0.00000000    0.00187581
     atom   18 type  4   force =    -0.00033740    0.00000000    0.00187581
     atom   19 type  4   force =     0.00000000    0.00000000    0.00150924
     atom   20 type  4   force =     0.00000000    0.00000000    0.00174096
     atom   21 type  3   force =     0.00029516    0.00000000   -0.00054738
     atom   22 type  3   force =    -0.00029516    0.00000000   -0.00054738
     atom   23 type  1   force =     0.00000000    0.00000000    0.00572950
     atom   24 type  1   force =     0.00000000    0.00000000    0.01025308
     atom   25 type  4   force =     0.00135422    0.00000000   -0.00570780
     atom   26 type  4   force =    -0.00135422    0.00000000   -0.00570780
     atom   27 type  4   force =    -0.00075588    0.00000000    0.01622307
     atom   28 type  4   force =     0.00075588    0.00000000    0.01622307
     atom   29 type  3   force =     0.00237836    0.00000000    0.03885722
     atom   30 type  3   force =    -0.00237836    0.00000000    0.03885722
     atom   31 type  4   force =     0.00747277    0.00000000   -0.03187792
     atom   32 type  4   force =    -0.00747277    0.00000000   -0.03187792
     atom   33 type  1   force =     0.00000000    0.00000000   -0.02436458
     atom   34 type  1   force =     0.00000000    0.00000000   -0.01624584
     atom   35 type  3   force =    -0.00205921    0.00000000   -0.01056611
     atom   36 type  3   force =     0.00205921    0.00000000   -0.01056611
     atom   37 type  4   force =     0.00000000    0.00000000    0.00402612
     atom   38 type  4   force =     0.00000000    0.00000000    0.00101699
     atom   39 type  4   force =     0.00177861    0.00000000    0.00059103
     atom   40 type  4   force =    -0.00177861    0.00000000    0.00059103
     atom   41 type  5   force =     0.00000000    0.00000000    0.00106809
     atom   42 type  2   force =     0.00000000    0.00000000   -0.00021355
     atom   43 type  4   force =     0.00000000    0.00000000    0.00001049
     atom   44 type  4   force =     0.00000325    0.00000000   -0.00033216
     atom   45 type  4   force =    -0.00000325    0.00000000   -0.00033216
     atom   46 type  4   force =     0.00000000    0.00000000    0.00007626
     atom   47 type  3   force =     0.00004775    0.00000000    0.00008628
     atom   48 type  3   force =    -0.00004775    0.00000000    0.00008628
     atom   49 type  1   force =     0.00000000    0.00000000    0.00009105
     atom   50 type  1   force =     0.00000000    0.00000000    0.00012983
     atom   51 type  4   force =    -0.00002871    0.00000000   -0.00022899
     atom   52 type  4   force =     0.00002871    0.00000000   -0.00022899
     atom   53 type  3   force =    -0.00004151    0.00000000    0.00042773
     atom   54 type  3   force =     0.00004151    0.00000000    0.00042773
     atom   55 type  4   force =     0.00001368    0.00000000   -0.00009415
     atom   56 type  4   force =    -0.00001368    0.00000000   -0.00009415

     Total force =     0.083930     Total SCF correction =     0.000272

     Computing stress (Cartesian axis) and pressure

     negative rho (up, down):  9.224E-02 0.000E+00
          total   stress  (Ry/bohr**3)                   (kbar)     P=       -6.00
  -0.00000230   0.00000000   0.00000000           -0.34        0.00        0.00
   0.00000000  -0.00004478   0.00000000            0.00       -6.59        0.00
   0.00000000   0.00000000  -0.00007536            0.00        0.00      -11.09

     General routines

     Parallel routines

   This run was terminated on:   0: 2: 8  28May2021

   JOB DONE.
[1622174528.703746] [holy7c16612:221793:0]          mpool.c:43   UCX  WARN  object 0x4641500 was not returned to mpool ucp_requests
[1622174528.707375] [holy7c18104:265238:0]          mpool.c:43   UCX  WARN  object 0x3539840 was not returned to mpool ucp_requests
[1622174528.709429] [holy7c18111:9809 :0]          mpool.c:43   UCX  WARN  object 0x35a57c0 was not returned to mpool ucp_requests
[1622174528.708585] [holy7c18108:157949:0]          mpool.c:43   UCX  WARN  object 0x2d346c0 was not returned to mpool ucp_requests
[1622174528.708616] [holy7c18108:157949:0]          mpool.c:43   UCX  WARN  object 0x2d34880 was not returned to mpool ucp_requests
[1622174528.711678] [holy7c16603:248611:0]          mpool.c:43   UCX  WARN  object 0x3bbe780 was not returned to mpool ucp_requests
[1622174528.711739] [holy7c18110:118831:0]          mpool.c:43   UCX  WARN  object 0x408be80 was not returned to mpool ucp_requests
[1622174528.702986] [holy7c16612:221794:0]          mpool.c:43   UCX  WARN  object 0x29ec880 was not returned to mpool ucp_requests
[1622174528.703009] [holy7c16612:221794:0]          mpool.c:43   UCX  WARN  object 0x29eca40 was not returned to mpool ucp_requests
[1622174528.707278] [holy7c18104:265239:0]          mpool.c:43   UCX  WARN  object 0x319b880 was not returned to mpool ucp_requests
[1622174528.718590] [holy7c18111:9810 :0]          mpool.c:43   UCX  WARN  object 0x413a380 was not returned to mpool ucp_requests
[1622174528.714106] [holy7c16603:248608:0]          mpool.c:43   UCX  WARN  object 0x28b9c40 was not returned to mpool ucp_requests
[1622174528.714126] [holy7c16603:248608:0]          mpool.c:43   UCX  WARN  object 0x28b9fc0 was not returned to mpool ucp_requests
[1622174528.711721] [holy7c16603:248607:0]          mpool.c:43   UCX  WARN  object 0x403d0c0 was not returned to mpool ucp_requests
[1622174528.714382] [holy7c16603:248606:0]          mpool.c:43   UCX  WARN  object 0x2de7880 was not returned to mpool ucp_requests
[1622174528.718053] [holy7c18110:118832:0]          mpool.c:43   UCX  WARN  object 0x43d20c0 was not returned to mpool ucp_requests
[1622174528.717331] [holy7c18110:118834:0]          mpool.c:43   UCX  WARN  object 0x30cc000 was not returned to mpool ucp_requests
[1622174528.717354] [holy7c18110:118834:0]          mpool.c:43   UCX  WARN  object 0x30cc700 was not returned to mpool ucp_requests