     Program PWSCF v.6.5 starts on  1Jun2021 at 15:22: 2

     R & G space division:  proc/nbgrp/npool/nimage =      32
     Reading input from YCBCO50_212_Y_cleave_5.0_sep.pwi
Warning: card &IONS ignored
Warning: card     ION_DYNAMICS = 'BFGS' ignored
Warning: card / ignored
Warning: card &CELL ignored
Warning: card     CELL_DYNAMICS = 'BFGS' ignored
Warning: card     PRESS_CONV_THR = 5 ignored
Warning: card / ignored

     Current dimensions of program PWSCF are:
     Max number of different atomic species (ntypx) = 10
     Max number of k-points (npk) =  40000
     Max angular momentum in pseudopotentials (lmaxx) =  3

     Message from routine setup:
     using ibrav=0 with symmetry is DISCOURAGED, use correct ibrav instead

     bravais-lattice index     =            0
     lattice parameter (alat)  =      14.8133  a.u.
     unit-cell volume          =    9707.1835 (a.u.)^3
     number of atoms/cell      =           56
     number of atomic types    =            5
     number of electrons       =       456.00
     number of Kohn-Sham states=          274
     kinetic-energy cutoff     =      60.0000  Ry
     charge density cutoff     =     720.0000  Ry
     convergence threshold     =      1.0E-08
     mixing beta               =       0.5000
     number of iterations used =           10  local-TF  mixing
     Exchange-correlation= SLA PW PBE PBE
                           (   1   4   3   4   0   0   0)

     celldm(1)=  14.813271  celldm(2)=   0.000000  celldm(3)=   0.000000
     celldm(4)=   0.000000  celldm(5)=   0.000000  celldm(6)=   0.000000

     crystal axes: (cart. coord. in units of alat)
               a(1) = (   1.000000   0.000000   0.000000 )
               a(2) = (   0.000000   0.477453   0.000000 )
               a(3) = (   0.000000   0.000000   6.254750 )

     reciprocal axes: (cart. coord. in units 2 pi/alat)
               b(1) = (  1.000000  0.000000  0.000000 )
               b(2) = (  0.000000  2.094448  0.000000 )
               b(3) = (  0.000000  0.000000  0.159878 )

     PseudoPot. # 1 for Ba read from file:
     ./pseudo/Ba.pbe-nsp-van.UPF
     MD5 check sum: 2b9c31dd849566dd297d80989662b7a0
     Pseudo is Ultrasoft + core correction, Zval = 10.0
     Generated by new atomic code, or converted to UPF format
     Using radial grid of  907 points,  6 beta functions with:
                l(1) =   0
                l(2) =   0
                l(3) =   1
                l(4) =   1
                l(5) =   2
                l(6) =   2
     Q(r) pseudized with  6 coefficients,  rinner =    1.200   1.200   1.200
                                                       1.200   1.200

     PseudoPot. # 2 for Ca read from file:
     ./pseudo/Ca.pbe-nsp-van.UPF
     MD5 check sum: 6471098428ff4fa451746d08035ff179
     Pseudo is Ultrasoft + core correction, Zval = 10.0
     Generated by new atomic code, or converted to UPF format
     Using radial grid of  845 points,  6 beta functions with:
                l(1) =   0
                l(2) =   0
                l(3) =   1
                l(4) =   1
                l(5) =   2
                l(6) =   2
     Q(r) pseudized with  6 coefficients,  rinner =    1.200   1.200   1.200
                                                       1.200   1.200

     PseudoPot. # 3 for Cu read from file:
     ./pseudo/Cu.pbe-n-van_ak.UPF
     MD5 check sum: 34e3282627ffb533726feb647e090d62
     Pseudo is Ultrasoft + core correction, Zval = 11.0
     Generated by new atomic code, or converted to UPF format
     Using radial grid of  867 points,  6 beta functions with:
                l(1) =   0
                l(2) =   0
                l(3) =   1
                l(4) =   1
                l(5) =   2
                l(6) =   2
     Q(r) pseudized with  8 coefficients,  rinner =    1.400   1.400   1.400
                                                       1.400   1.400

     PseudoPot. # 4 for O  read from file:
     ./pseudo/O.pbe-van_ak.UPF
     MD5 check sum: 783ce7fe4c79b6a4916957118fed0856
     Pseudo is Ultrasoft, Zval =  6.0
     Generated by new atomic code, or converted to UPF format
     Using radial grid of  737 points,  4 beta functions with:
                l(1) =   0
                l(2) =   0
                l(3) =   1
                l(4) =   1
     Q(r) pseudized with  8 coefficients,  rinner =    0.800   0.800   0.800

     PseudoPot. # 5 for Y  read from file:
     ./pseudo/Y.pbe-nsp-van.UPF
     MD5 check sum: 4412fed3ab108fed87a1b7d6a69a4a38
     Pseudo is Ultrasoft + core correction, Zval = 11.0
     Generated by new atomic code, or converted to UPF format
     Using radial grid of  885 points,  6 beta functions with:
                l(1) =   0
                l(2) =   0
                l(3) =   1
                l(4) =   1
                l(5) =   2
                l(6) =   2
     Q(r) pseudized with  6 coefficients,  rinner =    1.200   1.200   1.200
                                                       1.200   1.200

     atomic species   valence    mass     pseudopotential
        Ba            10.00   137.32700     Ba( 1.00)
        Ca            10.00    40.07800     Ca( 1.00)
        Cu            11.00    63.54600     Cu( 1.00)
        O              6.00    15.99900     O ( 1.00)
        Y             11.00    88.90584     Y ( 1.00)

      4 Sym. Ops. (no inversion) found ( 2 have fractional translation)

   Cartesian axes

     site n.     atom                  positions (alat units)
         1           O   tau(   1) = (  -0.0008343   0.2387265  -0.0222443  )
         2           O   tau(   2) = (   0.5008340   0.2387265  -0.0222443  )
         3           Cu  tau(   3) = (   0.5017257   0.0000000   0.0109608  )
         4           Cu  tau(   4) = (  -0.0017260   0.0000000   0.0109608  )
         5           O   tau(   5) = (  -0.0028933   0.0000000   0.2506504  )
         6           O   tau(   6) = (   0.5028929   0.0000000   0.2506504  )
         7           Ba  tau(   7) = (   0.7499995   0.2387265   0.2749435  )
         8           Ba  tau(   8) = (   0.2499998   0.2387265   0.2755214  )
         9           Cu  tau(   9) = (   0.4980963   0.0000000   0.5208446  )
        10           Cu  tau(  10) = (   0.0019033   0.0000000   0.5208446  )
        11           O   tau(  11) = (   0.2499998   0.0000000   0.5341884  )
        12           O   tau(  12) = (   0.5083351   0.2387265   0.5569851  )
        13           O   tau(  13) = (  -0.0083354   0.2387265   0.5569851  )
        14           O   tau(  14) = (   0.7499995   0.0000000   0.5573831  )
        15           Ca  tau(  15) = (   0.2499998   0.2387265   0.7436937  )
        16           Y   tau(  16) = (   0.7499995   0.2387265   0.7469544  )
        17           O   tau(  17) = (  -0.0063798   0.2387265   0.9248530  )
        18           O   tau(  18) = (   0.5063794   0.2387265   0.9248530  )
        19           O   tau(  19) = (   0.7499995   0.0000000   0.9338544  )
        20           O   tau(  20) = (   0.2499998   0.0000000   0.9461329  )
        21           Cu  tau(  21) = (   0.0015717   0.0000000   0.9686860  )
        22           Cu  tau(  22) = (   0.4984280   0.0000000   0.9686860  )
        23           Ba  tau(  23) = (   0.2499998   0.2387265   1.2085224  )
        24           Ba  tau(  24) = (   0.7499995   0.2387265   1.2233294  )
        25           O   tau(  25) = (   0.0063772   0.0000000   1.2547537  )
        26           O   tau(  26) = (   0.4936224   0.0000000   1.2547537  )
        27           O   tau(  27) = (   0.5384045   0.2387265   1.4952521  )
        28           O   tau(  28) = (  -0.0384049   0.2387265   1.4952521  )
        29           Cu  tau(  29) = (   0.5006120   0.0000000   1.4952546  )
        30           Cu  tau(  30) = (  -0.0006123   0.0000000   1.4952546  )
        31           O   tau(  31) = (   0.4936212   0.0000000   1.7357531  )
        32           O   tau(  32) = (   0.0063785   0.0000000   1.7357531  )
        33           Ba  tau(  33) = (   0.7499995   0.2387265   1.7671824  )
        34           Ba  tau(  34) = (   0.2499998   0.2387265   1.7819920  )
        35           Cu  tau(  35) = (   0.4984280   0.0000000   2.0218232  )
        36           Cu  tau(  36) = (   0.0015717   0.0000000   2.0218232  )
        37           O   tau(  37) = (   0.2499998   0.0000000   2.0443814  )
        38           O   tau(  38) = (   0.7499995   0.0000000   2.0566511  )
        39           O   tau(  39) = (   0.5063781   0.2387265   2.0656562  )
        40           O   tau(  40) = (  -0.0063785   0.2387265   2.0656562  )
        41           Y   tau(  41) = (   0.7499995   0.2387265   2.2435498  )
        42           Ca  tau(  42) = (   0.2499998   0.2387265   2.2468194  )
        43           O   tau(  43) = (   0.7499995   0.0000000   3.0709663  )
        44           O   tau(  44) = (  -0.0083354   0.2387265   3.0713681  )
        45           O   tau(  45) = (   0.5083351   0.2387265   3.0713681  )
        46           O   tau(  46) = (   0.2499998   0.0000000   3.0941661  )
        47           Cu  tau(  47) = (   0.0019059   0.0000000   3.1074997  )
        48           Cu  tau(  48) = (   0.4980938   0.0000000   3.1074997  )
        49           Ba  tau(  49) = (   0.2499998   0.2387265   3.3528394  )
        50           Ba  tau(  50) = (   0.7499995   0.2387265   3.3533816  )
        51           O   tau(  51) = (  -0.0028895   0.0000000   3.3776887  )
        52           O   tau(  52) = (   0.5028891   0.0000000   3.3776887  )
        53           Cu  tau(  53) = (   0.5017844   0.0000000   3.6173733  )
        54           Cu  tau(  54) = (  -0.0017847   0.0000000   3.6173733  )
        55           O   tau(  55) = (   0.5008990   0.2387265   3.6505797  )
        56           O   tau(  56) = (  -0.0008994   0.2387265   3.6505797  )

     number of k points=    25  Gaussian smearing, width (Ry)=  0.0100
                       cart. coord. in units 2pi/alat
        k(    1) = (   0.0000000   0.0000000   0.0000000), wk =   0.0312500
        k(    2) = (   0.0000000   0.2618060   0.0000000), wk =   0.0625000
        k(    3) = (   0.0000000   0.5236121   0.0000000), wk =   0.0625000
        k(    4) = (   0.0000000   0.7854181   0.0000000), wk =   0.0625000
        k(    5) = (   0.0000000  -1.0472241   0.0000000), wk =   0.0312500
        k(    6) = (   0.1250000   0.0000000   0.0000000), wk =   0.0625000
        k(    7) = (   0.1250000   0.2618060   0.0000000), wk =   0.1250000
        k(    8) = (   0.1250000   0.5236121   0.0000000), wk =   0.1250000
        k(    9) = (   0.1250000   0.7854181   0.0000000), wk =   0.1250000
        k(   10) = (   0.1250000  -1.0472241   0.0000000), wk =   0.0625000
        k(   11) = (   0.2500000   0.0000000   0.0000000), wk =   0.0625000
        k(   12) = (   0.2500000   0.2618060   0.0000000), wk =   0.1250000
        k(   13) = (   0.2500000   0.5236121   0.0000000), wk =   0.1250000
        k(   14) = (   0.2500000   0.7854181   0.0000000), wk =   0.1250000
        k(   15) = (   0.2500000  -1.0472241   0.0000000), wk =   0.0625000
        k(   16) = (   0.3750000   0.0000000   0.0000000), wk =   0.0625000
        k(   17) = (   0.3750000   0.2618060   0.0000000), wk =   0.1250000
        k(   18) = (   0.3750000   0.5236121   0.0000000), wk =   0.1250000
        k(   19) = (   0.3750000   0.7854181   0.0000000), wk =   0.1250000
        k(   20) = (   0.3750000  -1.0472241   0.0000000), wk =   0.0625000
        k(   21) = (  -0.5000000   0.0000000   0.0000000), wk =   0.0312500
        k(   22) = (  -0.5000000   0.2618060   0.0000000), wk =   0.0625000
        k(   23) = (  -0.5000000   0.5236121   0.0000000), wk =   0.0625000
        k(   24) = (  -0.5000000   0.7854181   0.0000000), wk =   0.0625000
        k(   25) = (  -0.5000000  -1.0472241   0.0000000), wk =   0.0312500

     Initial potential from superposition of free atoms

     starting charge  455.69457, renormalised to  456.00000

     negative rho (up, down):  9.342E-02 0.000E+00
     Starting wfcs are  396 randomized atomic wfcs

     Self-consistent Calculation

     iteration #  1     ecut=    60.00 Ry     beta= 0.50
     Davidson diagonalization with overlap
     ethr =  1.00E-02,  avg # of iterations =  2.0

     negative rho (up, down):  8.592E-02 0.000E+00

     total energy              =   -3708.34700390 Ry
     Harris-Foulkes estimate   =   -3716.37038439 Ry
     estimated scf accuracy    <      31.22346711 Ry

[...]

     iteration # 21     ecut=    60.00 Ry     beta= 0.50
     Davidson diagonalization with overlap
     c_bands:  3 eigenvalues not converged
     c_bands:  1 eigenvalues not converged
     ethr =  4.88E-06,  avg # of iterations =  7.6

[...]

     iteration # 28     ecut=    60.00 Ry     beta= 0.50
     Davidson diagonalization with overlap
     c_bands:  1 eigenvalues not converged
     ethr =  2.07E-08,  avg # of iterations =  2.3

[...]

     total energy              =   -3711.04017466 Ry
     Harris-Foulkes estimate   =   -3711.04017469 Ry
     estimated scf accuracy    <       0.00000003 Ry

     iteration # 52     ecut=    60.00 Ry     beta= 0.50
     Davidson diagonalization with overlap
     ethr =  6.41E-12,  avg # of iterations =  1.0

[...]

     End of self-consistent calculation

          k = 0.0000 0.0000 0.0000 ( 76245 PWs)   bands (ev):

   -41.4868 -39.2055 -38.5970 -36.2240 -23.5134 -23.3866 -23.3664 -23.2583
   -23.1449 -23.0212 -22.9913 -22.8920 -21.5984 -21.5338 -21.3662 -20.3029
   -20.2423 -20.1663 -19.0722 -18.9680 -18.6002 -17.5721 -17.4368 -17.2538
   -16.5481 -16.0780 -15.9829 -15.8267 -15.5558 -15.4986 -15.3615 -15.3584
   -15.3329 -15.2291 -15.1277 -15.0870 -15.0509 -15.0240 -14.9342 -14.8857
   -14.6725 -14.6222 -14.6047 -14.5635 -14.5574 -14.5513 -14.4674 -14.4590
   -14.4412 -14.2723 -14.2577 -14.1293 -14.0924 -13.7383  -8.8501  -8.7367
    -8.6246  -8.5161  -8.4890  -8.4361  -8.4043  -8.3802  -8.3179  -8.3038
    -8.2979  -8.2016  -8.1663  -8.1456  -8.1361  -8.1051  -8.1013  -8.0599
    -8.0200  -7.9512  -7.9507  -7.8686  -7.7969  -7.7075  -3.9517  -3.5546
    -3.3850  -3.2825  -3.1396  -3.0428  -2.8543  -2.7433  -2.7316  -2.7125
    -2.6852  -2.6558  -2.6120  -2.5944  -2.5623  -2.4552  -2.4075  -2.3708
    -2.3646  -2.2347  -2.2012  -2.1176  -2.1006  -2.0668  -2.0138  -2.0050
    -1.8999  -1.8597  -1.7251  -1.7098  -1.6751  -1.6409  -1.6402  -1.5825
    -1.4911  -1.4896  -1.4779  -1.4471  -1.4412  -1.4333  -1.4277  -1.4273
    -1.3870  -1.3354  -1.3207  -1.3064  -1.2642  -1.1838  -1.1610  -1.1463
    -1.0909  -1.0379  -0.8912  -0.8739  -0.8248  -0.7566  -0.7526  -0.7293
    -0.7240  -0.7057  -0.7011  -0.6863  -0.5985  -0.5979  -0.5814  -0.5721
    -0.5668  -0.5427  -0.5262  -0.5154  -0.5124  -0.4583  -0.4433  -0.4389
    -0.4133  -0.3928  -0.3923  -0.3578  -0.2966  -0.2914  -0.2573  -0.2483
    -0.2470  -0.2465  -0.2079  -0.1876  -0.1554  -0.1554  -0.1195  -0.1126
    -0.0584  -0.0424  -0.0196   0.0115   0.0158   0.0276   0.0397   0.0546
     0.0804   0.1025   0.1785   0.2020   0.2412   0.2444   0.3323   0.4205
     0.4722   0.5164   0.5251   0.5366   0.5593   0.5961   0.6715   0.6900
     0.6957   0.7139   0.7219   0.7524   0.7688   0.8261   0.8346   0.8509
     0.8886   0.9126   0.9195   0.9780   1.0732   1.0830   1.1218   1.1516
     1.1924   1.1986   1.2671   1.2733   1.2782   1.3061   1.3181   1.4044
     1.4046   1.4207   1.4751   1.5083   1.5414   1.5551   1.6220   1.6753
     1.7242   1.7443   1.7666   1.8127   1.8457   1.9114   1.9684   1.9804
     2.0158   2.0662   2.1120   2.1280   2.1891   2.3578   2.5611   2.8308
     3.5700   3.7231   4.7094   4.8578   4.9738   5.0394   5.0862   5.1551
     5.5473   5.9795   6.1247   6.2420   6.3582   6.3984   6.4095   6.4623
     6.6011   6.7612   6.8552   6.8834   6.8976   6.9253   6.9334   6.9591
     7.1462   7.4022   7.5265   7.5691   7.6298   7.7081   7.7899   7.9086
     7.9859   8.0550

[...]

          k = 0.3750-1.0472 0.0000 ( 76210 PWs)   bands (ev):

[...]

          k =-0.5000 0.0000 0.0000 ( 76308 PWs)   bands (ev):

[...]

          k =-0.5000-1.0472 0.0000 ( 76140 PWs)   bands (ev):

   -41.4726 -39.1962 -38.5786 -36.2124 -23.3309 -23.2516 -23.1837 -23.1541
   -22.9627 -22.8757 -22.8086 -22.7939 -21.7006 -21.5025 -21.4958 -20.3510
   -20.2430 -20.2356 -19.2406 -18.8978 -18.7772 -17.6451 -17.4683 -17.3641
   -16.0331 -15.8692 -15.8400 -15.5666 -15.2969 -15.2318 -15.0786 -15.0780
   -15.0722 -14.9974 -14.9508 -14.8926 -14.8639 -14.8158 -14.8062 -14.7900
   -14.6904 -14.6652 -14.6027 -14.5768 -14.4392 -14.4384 -14.3908 -14.3702
   -14.3674 -14.3643 -14.3305 -14.3235 -14.1767 -14.0476  -9.0950  -8.9866
    -8.9689  -8.9183  -8.8676  -8.7648  -8.7291  -8.6694  -8.6442  -8.6387
    -8.6326  -8.6203  -8.6050  -8.5881  -8.5415  -8.5389  -8.4246  -8.3817
    -8.2948  -8.2905  -8.2230  -8.2048  -8.1237  -8.0713  -4.7652  -4.4993
    -4.3534  -4.1331  -3.9518  -3.9318  -3.8227  -3.7852  -3.5788  -3.5662
    -3.5655  -3.5617  -3.4518  -3.4234  -3.2089  -3.1440  -3.0907  -3.0187
    -2.9088  -2.7993  -2.7651  -2.7366  -2.6865  -2.6555  -2.6362  -2.6204
    -2.5777  -2.5335  -2.4995  -2.4673  -2.3781  -2.3264  -2.2688  -2.2287
    -2.1713  -2.0913  -2.0788  -1.9895  -1.9825  -1.9203  -1.8981  -1.8505
    -1.8473  -1.6971  -1.6739  -1.6071  -1.6050  -1.5916  -1.5888  -1.5744
    -1.4587  -1.4106  -1.3444  -1.3393  -1.3373  -1.3289  -1.3285  -1.2724
    -1.2444  -1.2429  -1.2293  -1.1425  -1.1255  -1.1193  -1.0731  -0.9869
    -0.9833  -0.9461  -0.8704  -0.8463  -0.6527  -0.6394  -0.5936  -0.4749
    -0.4652  -0.3044  -0.2904  -0.2011  -0.1561  -0.0978  -0.0225  -0.0065
     0.0042   0.0241   0.0421   0.1957   0.2186   0.3626   0.4168   0.4697
     0.4835   0.4886   0.5223   0.5338   0.5685   0.6156   0.6442   0.6601
     0.6919   0.6949   0.7534   0.7947   0.8203   0.8457   0.8646   0.8648
     0.8729   0.8937   0.9118   0.9280   0.9375   0.9397   0.9453   1.0156
     1.0739   1.1364   1.1563   1.2229   1.2485   1.2698   1.2718   1.3203
     1.3294   1.3811   1.4112   1.4211   1.4495   1.4521   1.4993   1.5091
     1.5401   1.5629   1.6254   1.6834   1.6873   1.7534   1.7622   1.8218
     1.8338   1.9095   2.0312   2.0401   2.0991   2.1040   2.1910   2.2017
     2.2166   2.3825   2.4065   2.4315   2.6368   2.6776   2.8101   2.9734
     3.0569   3.1552   3.1560   3.2548   3.4272   3.4837   3.5685   3.6924
     4.1687   4.1941   4.5481   4.8429   5.0320   5.5071   5.6765   6.1253
     6.2149   6.2624   6.4088   6.4806   6.4835   6.5903   6.7230   7.0993
     7.2964   7.4150   7.6867   7.6924   7.7293   7.7392   8.2845   8.4150
     8.4640   8.5999   8.7111   8.8802   8.9025   8.9297   8.9400   8.9705
     9.0737   9.0934

     the Fermi energy is     2.2114 ev

!    total energy              =   -3711.04017465 Ry
     Harris-Foulkes estimate   =   -3711.04017466 Ry
     estimated scf accuracy    <          1.8E-09 Ry

     The total energy is the sum of the following terms:

     one-electron contribution =  -58819.47554779 Ry
     hartree contribution      =   29704.98203130 Ry
     xc contribution           =   -1263.17419057 Ry
     ewald contribution        =   26666.64253029 Ry
     smearing contrib. (-TS)   =      -0.01499788 Ry

     convergence has been achieved in  52 iterations

     negative rho (up, down):  9.153E-02 0.000E+00

     Forces acting on atoms (cartesian axes, Ry/au):

     atom    1 type  4   force =    -0.00000877    0.00000000   -0.00011200
     atom    2 type  4   force =     0.00000877    0.00000000   -0.00011200
     atom    3 type  3   force =    -0.00001915    0.00000000   -0.00012168
     atom    4 type  3   force =     0.00001915    0.00000000   -0.00012168
     atom    5 type  4   force =    -0.00000110    0.00000000   -0.00006514
     atom    6 type  4   force =     0.00000110    0.00000000   -0.00006514
     atom    7 type  1   force =     0.00000000    0.00000000   -0.00010716
     atom    8 type  1   force =     0.00000000    0.00000000   -0.00009842
     atom    9 type  3   force =     0.00001731    0.00000000    0.00001610
     atom   10 type  3   force =    -0.00001731    0.00000000    0.00001610
     atom   11 type  4   force =     0.00000000    0.00000000    0.00011785
     atom   12 type  4   force =    -0.00000714    0.00000000    0.00003884
     atom   13 type  4   force =     0.00000714    0.00000000    0.00003884
     atom   14 type  4   force =     0.00000000    0.00000000    0.00015933
     atom   15 type  2   force =     0.00000000    0.00000000   -0.00044649
     atom   16 type  5   force =     0.00000000    0.00000000   -0.00067989
     atom   17 type  4   force =     0.00007584    0.00000000    0.00072338
     atom   18 type  4   force =    -0.00007584    0.00000000    0.00072338
     atom   19 type  4   force =     0.00000000    0.00000000    0.00080133
     atom   20 type  4   force =     0.00000000    0.00000000    0.00102845
     atom   21 type  3   force =    -0.00004060    0.00000000   -0.00115220
     atom   22 type  3   force =     0.00004060    0.00000000   -0.00115220
     atom   23 type  1   force =     0.00000000    0.00000000   -0.00190432
     atom   24 type  1   force =     0.00000000    0.00000000   -0.00198635
     atom   25 type  4   force =    -0.00021854    0.00000000    0.00366708
     atom   26 type  4   force =     0.00021854    0.00000000    0.00366708
     atom   27 type  4   force =    -0.00037256    0.00000000    0.00432536
     atom   28 type  4   force =     0.00037256    0.00000000    0.00432536
     atom   29 type  3   force =     0.00157289    0.00000000   -0.00836234
     atom   30 type  3   force =    -0.00157289    0.00000000   -0.00836234
     atom   31 type  4   force =    -0.00058189    0.00000000    0.01225868
     atom   32 type  4   force =     0.00058189    0.00000000    0.01225868
     atom   33 type  1   force =     0.00000000    0.00000000   -0.02189914
     atom   34 type  1   force =     0.00000000    0.00000000   -0.01692511
     atom   35 type  3   force =     0.00106166    0.00000000    0.00802349
     atom   36 type  3   force =    -0.00106166    0.00000000    0.00802349
     atom   37 type  4   force =     0.00000000    0.00000000    0.05180083
     atom   38 type  4   force =     0.00000000    0.00000000    0.06288144
     atom   39 type  4   force =     0.01862053    0.00000000    0.06179815
     atom   40 type  4   force =    -0.01862053    0.00000000    0.06179815
     atom   41 type  5   force =     0.00000000    0.00000000   -0.14433146
     atom   42 type  2   force =     0.00000000    0.00000000   -0.08553014
     atom   43 type  4   force =     0.00000000    0.00000000    0.03062939
     atom   44 type  4   force =    -0.00296077    0.00000000    0.01853275
     atom   45 type  4   force =     0.00296077    0.00000000    0.01853275
     atom   46 type  4   force =     0.00000000    0.00000000    0.02652141
     atom   47 type  3   force =    -0.00128196    0.00000000   -0.01927180
     atom   48 type  3   force =     0.00128196    0.00000000   -0.01927180
     atom   49 type  1   force =     0.00000000    0.00000000   -0.02451390
     atom   50 type  1   force =     0.00000000    0.00000000   -0.02935720
     atom   51 type  4   force =     0.00136349    0.00000000   -0.00466936
     atom   52 type  4   force =    -0.00136349    0.00000000   -0.00466936
     atom   53 type  3   force =    -0.00030261    0.00000000    0.00134114
     atom   54 type  3   force =     0.00030261    0.00000000    0.00134114
     atom   55 type  4   force =     0.00015859    0.00000000   -0.00005066
     atom   56 type  4   force =    -0.00015859    0.00000000   -0.00005066

     Total force =     0.221683     Total SCF correction =     0.000223

     Computing stress (Cartesian axis) and pressure

     negative rho (up, down):  9.153E-02 0.000E+00
          total   stress  (Ry/bohr**3)                   (kbar)     P=       -7.71
  -0.00003970   0.00000000   0.00000000           -5.84        0.00        0.00
   0.00000000  -0.00002523   0.00000000            0.00       -3.71        0.00
   0.00000000   0.00000000  -0.00009227            0.00        0.00      -13.57

     General routines

     Parallel routines

   This run was terminated on:  16: 8:53   1Jun2021

   JOB DONE.
[1622578133.122071] [holy7c04102:199748:0]          mpool.c:43   UCX  WARN  object 0x3ec5900 was not returned to mpool ucp_requests
[1622578133.127911] [holy7c02501:3580 :0]          mpool.c:43   UCX  WARN  object 0x428d6c0 was not returned to mpool ucp_requests
[1622578133.141037] [holy7c04101:205011:0]          mpool.c:43   UCX  WARN  object 0x3eed740 was not returned to mpool ucp_requests
[1622578133.142381] [holy7c04101:205014:0]          mpool.c:43   UCX  WARN  object 0x3c20fc0 was not returned to mpool ucp_requests
[1622578133.142403] [holy7c04101:205014:0]          mpool.c:43   UCX  WARN  object 0x3c21180 was not returned to mpool ucp_requests
[1622578133.144036] [holy7c02502:188305:0]          mpool.c:43   UCX  WARN  object 0x2b32a40 was not returned to mpool ucp_requests
[1622578133.144845] [holy7c02502:188311:0]          mpool.c:43   UCX  WARN  object 0x476af00 was not returned to mpool ucp_requests
[1622578133.144869] [holy7c02502:188311:0]          mpool.c:43   UCX  WARN  object 0x476b280 was not returned to mpool ucp_requests
[1622578133.142767] [holy7c04101:205016:0]          mpool.c:43   UCX  WARN  object 0x2de5f00 was not returned to mpool ucp_requests
[1622578133.150099] [holy7c02502:188306:0]          mpool.c:43   UCX  WARN  object 0x3f58280 was not returned to mpool ucp_requests
[1622578133.150123] [holy7c02502:188306:0]          mpool.c:43   UCX  WARN  object 0x3f587c0 was not returned to mpool ucp_requests
[1622578133.150033] [holy7c02502:188310:0]          mpool.c:43   UCX  WARN  object 0x2c38640 was not returned to mpool ucp_requests
[1622578133.142341] [holy7c04101:205012:0]          mpool.c:43   UCX  WARN  object 0x44e3440 was not returned to mpool ucp_requests
[1622578133.141177] [holy7c02502:188314:0]          mpool.c:43   UCX  WARN  object 0x30c4600 was not returned to mpool ucp_requests
[1622578133.147690] [holy7c02502:188309:0]          mpool.c:43   UCX  WARN  object 0x392c740 was not returned to mpool ucp_requests
[1622578133.150533] [holy7c02502:188316:0]          mpool.c:43   UCX  WARN  object 0x46e0640 was not returned to mpool ucp_requests
[1622578133.150554] [holy7c02502:188316:0]          mpool.c:43   UCX  WARN  object 0x46e1280 was not returned to mpool ucp_requests