     Program PWSCF v.6.5 starts on 27May2021 at 23:19:29

     R & G space division:  proc/nbgrp/npool/nimage =      32
     Reading input from YCBCO50_212_BaO_cleave_7.0_sep.pwi
Warning: card &IONS ignored
Warning: card     ION_DYNAMICS = 'BFGS' ignored
Warning: card / ignored
Warning: card &CELL ignored
Warning: card     CELL_DYNAMICS = 'BFGS' ignored
Warning: card     PRESS_CONV_THR = 5 ignored
Warning: card / ignored

     Current dimensions of program PWSCF are:
     Max number of different atomic species (ntypx) = 10
     Max number of k-points (npk) =  40000
     Max angular momentum in pseudopotentials (lmaxx) =  3

     Message from routine setup:
     using ibrav=0 with symmetry is DISCOURAGED, use correct ibrav instead

     bravais-lattice index     =            0
     lattice parameter (alat)  =      14.8133  a.u.
     unit-cell volume          =   10103.1525 (a.u.)^3
     number of atoms/cell      =           56
     number of atomic types    =            5
     number of electrons       =       456.00
     number of Kohn-Sham states=          274
     kinetic-energy cutoff     =      60.0000  Ry
     charge density cutoff     =     720.0000  Ry
     convergence threshold     =      1.0E-08
     mixing beta               =       0.5000
     number of iterations used =           10  local-TF  mixing
     Exchange-correlation= SLA PW PBE PBE
                           (   1   4   3   4   0   0   0)

     celldm(1)=  14.813271  celldm(2)=   0.000000  celldm(3)=   0.000000
     celldm(4)=   0.000000  celldm(5)=   0.000000  celldm(6)=   0.000000

     crystal axes: (cart. coord. in units of alat)
               a(1) = (   1.000000   0.000000   0.000000 )
               a(2) = (   0.000000   0.477453   0.000000 )
               a(3) = (   0.000000   0.000000   6.509890 )

     reciprocal axes: (cart. coord. in units 2 pi/alat)
               b(1) = (  1.000000  0.000000  0.000000 )
               b(2) = (  0.000000  2.094448  0.000000 )
               b(3) = (  0.000000  0.000000  0.153612 )

     PseudoPot. # 1 for Ba read from file:
     ./pseudo/Ba.pbe-nsp-van.UPF
     MD5 check sum: 2b9c31dd849566dd297d80989662b7a0
     Pseudo is Ultrasoft + core correction, Zval = 10.0
     Generated by new atomic code, or converted to UPF format
     Using radial grid of  907 points,  6 beta functions with:
                l(1) =   0
                l(2) =   0
                l(3) =   1
                l(4) =   1
                l(5) =   2
                l(6) =   2
     Q(r) pseudized with  6 coefficients,  rinner =    1.200   1.200   1.200
                                                       1.200   1.200

     PseudoPot. # 2 for Ca read from file:
     ./pseudo/Ca.pbe-nsp-van.UPF
     MD5 check sum: 6471098428ff4fa451746d08035ff179
     Pseudo is Ultrasoft + core correction, Zval = 10.0
     Generated by new atomic code, or converted to UPF format
     Using radial grid of  845 points,  6 beta functions with:
                l(1) =   0
                l(2) =   0
                l(3) =   1
                l(4) =   1
                l(5) =   2
                l(6) =   2
     Q(r) pseudized with  6 coefficients,  rinner =    1.200   1.200   1.200
                                                       1.200   1.200

     PseudoPot. # 3 for Cu read from file:
     ./pseudo/Cu.pbe-n-van_ak.UPF
     MD5 check sum: 34e3282627ffb533726feb647e090d62
     Pseudo is Ultrasoft + core correction, Zval = 11.0
     Generated by new atomic code, or converted to UPF format
     Using radial grid of  867 points,  6 beta functions with:
                l(1) =   0
                l(2) =   0
                l(3) =   1
                l(4) =   1
                l(5) =   2
                l(6) =   2
     Q(r) pseudized with  8 coefficients,  rinner =    1.400   1.400   1.400
                                                       1.400   1.400

     PseudoPot. # 4 for O  read from file:
     ./pseudo/O.pbe-van_ak.UPF
     MD5 check sum: 783ce7fe4c79b6a4916957118fed0856
     Pseudo is Ultrasoft, Zval =  6.0
     Generated by new atomic code, or converted to UPF format
     Using radial grid of  737 points,  4 beta functions with:
                l(1) =   0
                l(2) =   0
                l(3) =   1
                l(4) =   1
     Q(r) pseudized with  8 coefficients,  rinner =    0.800   0.800   0.800

     PseudoPot. # 5 for Y  read from file:
     ./pseudo/Y.pbe-nsp-van.UPF
     MD5 check sum: 4412fed3ab108fed87a1b7d6a69a4a38
     Pseudo is Ultrasoft + core correction, Zval = 11.0
     Generated by new atomic code, or converted to UPF format
     Using radial grid of  885 points,  6 beta functions with:
                l(1) =   0
                l(2) =   0
                l(3) =   1
                l(4) =   1
                l(5) =   2
                l(6) =   2
     Q(r) pseudized with  6 coefficients,  rinner =    1.200   1.200   1.200
                                                       1.200   1.200

     atomic species   valence    mass     pseudopotential
        Ba            10.00   137.32700     Ba( 1.00)
        Ca            10.00    40.07800     Ca( 1.00)
        Cu            11.00    63.54600     Cu( 1.00)
        O              6.00    15.99900     O ( 1.00)
        Y             11.00    88.90584     Y ( 1.00)

      4 Sym. Ops. (no inversion) found ( 2 have fractional translation)

   Cartesian axes

     site n.     atom                  positions (alat units)
         1           O   tau(   1) = (  -0.0008343   0.2387265  -0.0222443  )
         2           O   tau(   2) = (   0.5008340   0.2387265  -0.0222443  )
         3           Cu  tau(   3) = (   0.5017257   0.0000000   0.0109608  )
         4           Cu  tau(   4) = (  -0.0017260   0.0000000   0.0109608  )
         5           O   tau(   5) = (  -0.0028933   0.0000000   0.2506504  )
         6           O   tau(   6) = (   0.5028929   0.0000000   0.2506504  )
         7           Ba  tau(   7) = (   0.7499995   0.2387265   0.2749435  )
         8           Ba  tau(   8) = (   0.2499998   0.2387265   0.2755214  )
         9           Cu  tau(   9) = (   0.4980963   0.0000000   0.5208446  )
        10           Cu  tau(  10) = (   0.0019033   0.0000000   0.5208446  )
        11           O   tau(  11) = (   0.2499998   0.0000000   0.5341884  )
        12           O   tau(  12) = (   0.5083351   0.2387265   0.5569851  )
        13           O   tau(  13) = (  -0.0083354   0.2387265   0.5569851  )
        14           O   tau(  14) = (   0.7499995   0.0000000   0.5573831  )
        15           Ca  tau(  15) = (   0.2499998   0.2387265   0.7436937  )
        16           Y   tau(  16) = (   0.7499995   0.2387265   0.7469544  )
        17           O   tau(  17) = (  -0.0063798   0.2387265   0.9248530  )
        18           O   tau(  18) = (   0.5063794   0.2387265   0.9248530  )
        19           O   tau(  19) = (   0.7499995   0.0000000   0.9338544  )
        20           O   tau(  20) = (   0.2499998   0.0000000   0.9461329  )
        21           Cu  tau(  21) = (   0.0015717   0.0000000   0.9686860  )
        22           Cu  tau(  22) = (   0.4984280   0.0000000   0.9686860  )
        23           Ba  tau(  23) = (   0.2499998   0.2387265   1.2085224  )
        24           Ba  tau(  24) = (   0.7499995   0.2387265   1.2233294  )
        25           O   tau(  25) = (   0.0063772   0.0000000   1.2547537  )
        26           O   tau(  26) = (   0.4936224   0.0000000   1.2547537  )
        27           O   tau(  27) = (   0.5384045   0.2387265   1.4952521  )
        28           O   tau(  28) = (  -0.0384049   0.2387265   1.4952521  )
        29           Cu  tau(  29) = (   0.5006120   0.0000000   1.4952546  )
        30           Cu  tau(  30) = (  -0.0006123   0.0000000   1.4952546  )
        31           O   tau(  31) = (   0.4936212   0.0000000   1.7357531  )
        32           O   tau(  32) = (   0.0063785   0.0000000   1.7357531  )
        33           Ba  tau(  33) = (   0.7499995   0.2387265   1.7671824  )
        34           Ba  tau(  34) = (   0.2499998   0.2387265   1.7819920  )
        35           Cu  tau(  35) = (   0.4984280   0.0000000   2.9148119  )
        36           Cu  tau(  36) = (   0.0015717   0.0000000   2.9148119  )
        37           O   tau(  37) = (   0.2499998   0.0000000   2.9373701  )
        38           O   tau(  38) = (   0.7499995   0.0000000   2.9496397  )
        39           O   tau(  39) = (   0.5063781   0.2387265   2.9586449  )
        40           O   tau(  40) = (  -0.0063785   0.2387265   2.9586449  )
        41           Y   tau(  41) = (   0.7499995   0.2387265   3.1365384  )
        42           Ca  tau(  42) = (   0.2499998   0.2387265   3.1398080  )
        43           O   tau(  43) = (   0.7499995   0.0000000   3.3261059  )
        44           O   tau(  44) = (  -0.0083354   0.2387265   3.3265077  )
        45           O   tau(  45) = (   0.5083351   0.2387265   3.3265077  )
        46           O   tau(  46) = (   0.2499998   0.0000000   3.3493057  )
        47           Cu  tau(  47) = (   0.0019059   0.0000000   3.3626393  )
        48           Cu  tau(  48) = (   0.4980938   0.0000000   3.3626393  )
        49           Ba  tau(  49) = (   0.2499998   0.2387265   3.6079790  )
        50           Ba  tau(  50) = (   0.7499995   0.2387265   3.6085212  )
        51           O   tau(  51) = (  -0.0028895   0.0000000   3.6328283  )
        52           O   tau(  52) = (   0.5028891   0.0000000   3.6328283  )
        53           Cu  tau(  53) = (   0.5017844   0.0000000   3.8725129  )
        54           Cu  tau(  54) = (  -0.0017847   0.0000000   3.8725129  )
        55           O   tau(  55) = (   0.5008990   0.2387265   3.9057193  )
        56           O   tau(  56) = (  -0.0008994   0.2387265   3.9057193  )

     number of k points=    25  Gaussian smearing, width (Ry)=  0.0100
                       cart. coord. in units 2pi/alat
        k(    1) = (   0.0000000   0.0000000   0.0000000), wk =   0.0312500
        k(    2) = (   0.0000000   0.2618060   0.0000000), wk =   0.0625000
        k(    3) = (   0.0000000   0.5236121   0.0000000), wk =   0.0625000
        k(    4) = (   0.0000000   0.7854181   0.0000000), wk =   0.0625000
        k(    5) = (   0.0000000  -1.0472241   0.0000000), wk =   0.0312500
        k(    6) = (   0.1250000   0.0000000   0.0000000), wk =   0.0625000
        k(    7) = (   0.1250000   0.2618060   0.0000000), wk =   0.1250000
        k(    8) = (   0.1250000   0.5236121   0.0000000), wk =   0.1250000
        k(    9) = (   0.1250000   0.7854181   0.0000000), wk =   0.1250000
        k(   10) = (   0.1250000  -1.0472241   0.0000000), wk =   0.0625000
        k(   11) = (   0.2500000   0.0000000   0.0000000), wk =   0.0625000
        k(   12) = (   0.2500000   0.2618060   0.0000000), wk =   0.1250000
        k(   13) = (   0.2500000   0.5236121   0.0000000), wk =   0.1250000
        k(   14) = (   0.2500000   0.7854181   0.0000000), wk =   0.1250000
        k(   15) = (   0.2500000  -1.0472241   0.0000000), wk =   0.0625000
        k(   16) = (   0.3750000   0.0000000   0.0000000), wk =   0.0625000
        k(   17) = (   0.3750000   0.2618060   0.0000000), wk =   0.1250000
        k(   18) = (   0.3750000   0.5236121   0.0000000), wk =   0.1250000
        k(   19) = (   0.3750000   0.7854181   0.0000000), wk =   0.1250000
        k(   20) = (   0.3750000  -1.0472241   0.0000000), wk =   0.0625000
        k(   21) = (  -0.5000000   0.0000000   0.0000000), wk =   0.0312500
        k(   22) = (  -0.5000000   0.2618060   0.0000000), wk =   0.0625000
        k(   23) = (  -0.5000000   0.5236121   0.0000000), wk =   0.0625000
        k(   24) = (  -0.5000000   0.7854181   0.0000000), wk =   0.0625000
        k(   25) = (  -0.5000000  -1.0472241   0.0000000), wk =   0.0312500

     Initial potential from superposition of free atoms

     starting charge  455.69457, renormalised to  456.00000

     negative rho (up, down):  9.295E-02 0.000E+00
     Starting wfcs are  396 randomized atomic wfcs

     Self-consistent Calculation

     iteration #  1     ecut=    60.00 Ry     beta= 0.50
     Davidson diagonalization with overlap
     ethr =  1.00E-02,  avg # of iterations =  2.0

     negative rho (up, down):  8.615E-02 0.000E+00

     total energy              =   -3708.11740298 Ry
     Harris-Foulkes estimate   =   -3716.63419883 Ry
     estimated scf accuracy    <      39.83800487 Ry

[...]

     iteration # 17     ecut=    60.00 Ry     beta= 0.50
     Davidson diagonalization with overlap
     c_bands:  1 eigenvalues not converged
     ethr =  1.94E-06,  avg # of iterations =  5.4

[...]

     iteration # 28     ecut=    60.00 Ry     beta= 0.50
     Davidson diagonalization with overlap
     c_bands:  1 eigenvalues not converged
     ethr =  3.17E-08,  avg # of iterations =  5.2

[...]

     total energy              =   -3711.56595571 Ry
     Harris-Foulkes estimate   =   -3711.56595571 Ry
     estimated scf accuracy    <       0.00000001 Ry

     iteration # 38     ecut=    60.00 Ry     beta= 0.50
     Davidson diagonalization with overlap
     ethr =  2.64E-12,  avg # of iterations =  2.7

[...]

     End of self-consistent calculation

          k = 0.0000 0.0000 0.0000 ( 79365 PWs)   bands (ev):

   -38.7224 -38.3548 -36.3524 -35.9487 -25.5315 -25.0622 -23.4958 -23.4678
   -23.3948 -23.3674 -23.3402 -23.2507 -19.1975 -19.0927 -18.8028 -18.7503
   -18.7259 -18.3656 -17.7002 -17.5642 -17.3824 -17.2711 -17.1874 -16.9884
   -16.1071 -16.0199 -15.8331 -15.8119 -15.6595 -15.6104 -15.3666 -15.2521
   -15.1863 -15.1802 -15.1774 -15.1432 -15.1336 -14.9851 -14.9515 -14.8731
   -14.7925 -14.7612 -14.6827 -14.6820 -14.6779 -14.6737 -14.6610 -14.6269
   -14.6100 -14.5893 -14.5169 -14.4148 -14.1418 -13.9078 -10.9442 -10.3744
   -10.2586 -10.2406  -9.8462  -9.8271  -8.7347  -8.7003  -8.6772  -8.6238
    -8.5964  -8.5876  -8.5451  -8.5199  -8.4070  -8.3926  -8.3798  -8.3105
    -8.2853  -8.2701  -8.2120  -8.1690  -8.1418  -8.0496  -3.6673  -3.6147
    -3.5183  -3.0317  -2.8762  -2.8524  -2.8372  -2.8309  -2.7633  -2.7564
    -2.7320  -2.5940  -2.5770  -2.5308  -2.5009  -2.4514  -2.4162  -2.3728
    -2.3523  -2.3260  -2.2737  -2.2266  -2.2150  -2.1404  -2.0710  -2.0590
    -2.0174  -1.9416  -1.8871  -1.8565  -1.8252  -1.7932  -1.7718  -1.6822
    -1.6228  -1.5983  -1.5980  -1.5977  -1.5965  -1.5629  -1.5616  -1.5568
    -1.5273  -1.4693  -1.4382  -1.3717  -1.3647  -1.3625  -1.2850  -1.2126
    -1.1546  -1.1360  -1.0586  -0.9323  -0.9260  -0.9055  -0.8807  -0.8786
    -0.8145  -0.8133  -0.8110  -0.8091  -0.8055  -0.8026  -0.6815  -0.6750
    -0.6538  -0.6377  -0.6199  -0.6001  -0.5964  -0.5845  -0.5554  -0.5286
    -0.5050  -0.5024  -0.5010  -0.4877  -0.4538  -0.4443  -0.4197  -0.4044
    -0.4033  -0.3657  -0.3640  -0.3303  -0.3021  -0.2991  -0.2858  -0.2635
    -0.2066  -0.1592  -0.0939  -0.0849  -0.0713  -0.0710  -0.0482   0.0062
     0.0173   0.0457   0.1352   0.1677   0.2589   0.2957   0.3210   0.3612
     0.3732   0.3806   0.3977   0.4036   0.4216   0.5150   0.5606   0.5694
     0.5698   0.5832   0.5924   0.6034   0.6035   0.6124   0.6788   0.6976
     0.7059   0.7155   0.7337   0.7617   0.7822   0.8208   0.8218   0.8420
     0.9465   1.0285   1.0372   1.0536   1.0625   1.0914   1.0974   1.1649
     1.1827   1.1876   1.2797   1.2814   1.3398   1.4080   1.4338   1.4569
     1.5401   1.5647   1.5921   1.6265   1.7089   1.7375   1.7417   1.9012
     1.9318   1.9546   1.9632   2.0617   2.2358   2.2709   2.7779   3.9757
     4.5690   4.6088   4.6164   4.6507   4.9958   5.2154   5.4034   5.8074
     5.9369   6.0167   6.0668   6.2787   6.4212   6.6513   6.6709   6.7335
     6.7469   6.7491   6.9784   7.2135   7.2620   7.3761   7.4031   7.4125
     7.5026   7.5054   7.5211   7.6899   7.8242   7.8416   7.8593   7.8603
     7.8921   8.0461

[...]

          k = 0.3750-1.0472 0.0000 ( 79290 PWs)   bands (ev):

[...]

          k =-0.5000 0.0000 0.0000 ( 79384 PWs)   bands (ev):

[...]

          k =-0.5000-1.0472 0.0000 ( 79260 PWs)   bands (ev):

   -38.7040 -38.3363 -36.3407 -35.9371 -25.3990 -24.9398 -23.2928 -23.2632
   -23.2630 -23.2377 -23.2096 -23.1388 -19.3661 -19.0226 -19.0089 -18.9026
   -18.6794 -18.5039 -17.7737 -17.5955 -17.4920 -17.3831 -17.2204 -17.0577
   -15.4145 -15.3717 -15.3414 -15.3204 -15.3151 -15.3086 -15.2973 -15.2579
   -15.1902 -15.1134 -15.0658 -15.0388 -14.9885 -14.9748 -14.9667 -14.9348
   -14.9184 -14.8146 -14.7985 -14.7832 -14.6178 -14.5894 -14.5464 -14.5456
   -14.5452 -14.5444 -14.3996 -14.3839 -14.1583 -13.9733 -10.8844 -10.8132
   -10.6441 -10.5955 -10.2172 -10.1215  -9.0780  -9.0489  -9.0274  -9.0018
    -8.9869  -8.8766  -8.7530  -8.7295  -8.7257  -8.7048  -8.7001  -8.6522
    -8.6476  -8.6465  -8.6198  -8.6186  -8.5021  -8.4958  -4.4720  -4.3469
    -4.2818  -4.2112  -4.1739  -4.1617  -4.0446  -3.9307  -3.6775  -3.6737
    -3.6733  -3.6726  -3.6301  -3.4856  -3.0184  -2.9932  -2.9523  -2.9148
    -2.8908  -2.8787  -2.8041  -2.7386  -2.7062  -2.6544  -2.6533  -2.6526
    -2.6278  -2.6154  -2.6027  -2.5904  -2.5655  -2.5179  -2.3870  -2.3304
    -2.3216  -2.2870  -2.1539  -2.0666  -2.0589  -2.0555  -1.9721  -1.9475
    -1.9201  -1.8900  -1.7983  -1.7907  -1.7612  -1.7586  -1.7364  -1.6696
    -1.4916  -1.4712  -1.4615  -1.3853  -1.3752  -1.3694  -1.3628  -1.3535
    -1.3525  -1.3428  -1.3337  -1.2549  -1.2084  -1.1157  -1.1094  -1.0976
    -0.9999  -0.9927  -0.9811  -0.9618  -0.7464  -0.7417  -0.6504  -0.5945
    -0.4057  -0.3911  -0.3806  -0.3372  -0.2774  -0.2421  -0.1265  -0.1153
    -0.1115  -0.0944  -0.0831  -0.0462   0.0439   0.1398   0.1409   0.1450
     0.1960   0.2663   0.4077   0.4588   0.4937   0.5399   0.5432   0.5497
     0.5849   0.6028   0.6293   0.6776   0.7319   0.7358   0.7403   0.7717
     0.7722   0.7784   0.7989   0.8220   0.8481   0.8517   0.9074   0.9232
     0.9261   0.9485   0.9524   0.9546   0.9751   0.9873   0.9973   1.0232
     1.0913   1.1457   1.1978   1.2406   1.2638   1.2705   1.2880   1.3162
     1.3575   1.3793   1.4461   1.4491   1.5602   1.5681   1.5760   1.5785
     1.5785   1.7150   1.7813   1.8336   1.9241   1.9255   1.9330   1.9354
     2.0929   2.1014   2.1071   2.1170   2.8499   2.9354   2.9387   3.0362
     3.0469   3.0890   3.1656   3.2241   3.3075   3.3523   4.3292   4.4533
     5.0387   5.1997   5.4175   6.1066   6.1211   6.1459   6.1695   6.1910
     6.2341   6.3500   6.3906   6.4327   6.9583   6.9687   7.3625   7.4611
     7.6207   7.7518   8.0943   8.1388   8.1538   8.4365   8.4517   8.5367
     8.6460   8.6602   8.6694   8.7231   8.7573   8.7740   8.7789   8.8154
     8.8623   8.8652

     the Fermi energy is     2.1049 ev

!    total energy              =   -3711.56595573 Ry
     Harris-Foulkes estimate   =   -3711.56595571 Ry
     estimated scf accuracy    <          6.7E-09 Ry

     The total energy is the sum of the following terms:

     one-electron contribution =  -46696.84838646 Ry
     hartree contribution      =   23642.81972555 Ry
     xc contribution           =   -1263.75036053 Ry
     ewald contribution        =   20606.22853691 Ry
     smearing contrib. (-TS)   =      -0.01547119 Ry

     convergence has been achieved in  38 iterations

     negative rho (up, down):  9.204E-02 0.000E+00

     Forces acting on atoms (cartesian axes, Ry/au):

     atom    1 type  4   force =    -0.00000213    0.00000000   -0.00011075
     atom    2 type  4   force =     0.00000213    0.00000000   -0.00011075
     atom    3 type  3   force =    -0.00000986    0.00000000   -0.00009662
     atom    4 type  3   force =     0.00000986    0.00000000   -0.00009662
     atom    5 type  4   force =    -0.00000063    0.00000000   -0.00002334
     atom    6 type  4   force =     0.00000063    0.00000000   -0.00002334
     atom    7 type  1   force =     0.00000000    0.00000000   -0.00023920
     atom    8 type  1   force =     0.00000000    0.00000000   -0.00022297
     atom    9 type  3   force =     0.00005586    0.00000000    0.00002603
     atom   10 type  3   force =    -0.00005586    0.00000000    0.00002603
     atom   11 type  4   force =     0.00000000    0.00000000    0.00037507
     atom   12 type  4   force =     0.00000672    0.00000000    0.00035687
     atom   13 type  4   force =    -0.00000672    0.00000000    0.00035687
     atom   14 type  4   force =     0.00000000    0.00000000    0.00056856
     atom   15 type  2   force =     0.00000000    0.00000000   -0.00135047
     atom   16 type  5   force =     0.00000000    0.00000000   -0.00201515
     atom   17 type  4   force =     0.00019342    0.00000000    0.00265711
     atom   18 type  4   force =    -0.00019342    0.00000000    0.00265711
     atom   19 type  4   force =     0.00000000    0.00000000    0.00285948
     atom   20 type  4   force =     0.00000000    0.00000000    0.00350145
     atom   21 type  3   force =    -0.00012880    0.00000000   -0.00305391
     atom   22 type  3   force =     0.00012880    0.00000000   -0.00305391
     atom   23 type  1   force =     0.00000000    0.00000000   -0.00811577
     atom   24 type  1   force =     0.00000000    0.00000000   -0.00938925
     atom   25 type  4   force =    -0.00116831    0.00000000    0.00661541
     atom   26 type  4   force =     0.00116831    0.00000000    0.00661541
     atom   27 type  4   force =    -0.00164344    0.00000000    0.02134877
     atom   28 type  4   force =     0.00164344    0.00000000    0.02134877
     atom   29 type  3   force =     0.00592567    0.00000000   -0.02430057
     atom   30 type  3   force =    -0.00592567    0.00000000   -0.02430057
     atom   31 type  4   force =    -0.01209150    0.00000000    0.05615098
     atom   32 type  4   force =     0.01209150    0.00000000    0.05615098
     atom   33 type  1   force =     0.00000000    0.00000000   -0.05734180
     atom   34 type  1   force =     0.00000000    0.00000000   -0.04564960
     atom   35 type  3   force =    -0.01007174    0.00000000   -0.01081214
     atom   36 type  3   force =     0.01007174    0.00000000   -0.01081214
     atom   37 type  4   force =     0.00000000    0.00000000    0.02098476
     atom   38 type  4   force =     0.00000000    0.00000000    0.02264230
     atom   39 type  4   force =     0.00224825    0.00000000    0.01372527
     atom   40 type  4   force =    -0.00224825    0.00000000    0.01372527
     atom   41 type  5   force =     0.00000000    0.00000000   -0.04130887
     atom   42 type  2   force =     0.00000000    0.00000000   -0.03058118
     atom   43 type  4   force =     0.00000000    0.00000000    0.00693062
     atom   44 type  4   force =     0.00063681    0.00000000    0.00333781
     atom   45 type  4   force =    -0.00063681    0.00000000    0.00333781
     atom   46 type  4   force =     0.00000000    0.00000000    0.00483340
     atom   47 type  3   force =     0.00049227    0.00000000    0.00125950
     atom   48 type  3   force =    -0.00049227    0.00000000    0.00125950
     atom   49 type  1   force =     0.00000000    0.00000000   -0.00100619
     atom   50 type  1   force =     0.00000000    0.00000000   -0.00120953
     atom   51 type  4   force =     0.00009417    0.00000000    0.00084830
     atom   52 type  4   force =    -0.00009417    0.00000000    0.00084830
     atom   53 type  3   force =    -0.00004940    0.00000000   -0.00026655
     atom   54 type  3   force =     0.00004940    0.00000000   -0.00026655
     atom   55 type  4   force =    -0.00000373    0.00000000    0.00020501
     atom   56 type  4   force =     0.00000373    0.00000000    0.00020501

     Total force =     0.137707     Total SCF correction =     0.000310

     Computing stress (Cartesian axis) and pressure

     negative rho (up, down):  9.204E-02 0.000E+00
          total   stress  (Ry/bohr**3)                   (kbar)     P=       -6.56
  -0.00008523   0.00000000   0.00000000          -12.54        0.00        0.00
   0.00000000  -0.00003397   0.00000000            0.00       -5.00        0.00
   0.00000000   0.00000000  -0.00001458            0.00        0.00       -2.14

     General routines

     Parallel routines

   This run was terminated on:  23:59:50  27May2021

   JOB DONE.
[1622174390.693905] [holy7c16612:220224:0]          mpool.c:43   UCX  WARN  object 0x3837f80 was not returned to mpool ucp_requests
[1622174390.693962] [holy7c16612:220225:0]          mpool.c:43   UCX  WARN  object 0x36ad900 was not returned to mpool ucp_requests
[1622174390.734264] [holy7c04102:245099:0]          mpool.c:43   UCX  WARN  object 0x2ff8a00 was not returned to mpool ucp_requests
[1622174390.734288] [holy7c04102:245099:0]          mpool.c:43   UCX  WARN  object 0x2ff8f40 was not returned to mpool ucp_requests
[1622174390.706026] [holy7c16611:218038:0]          mpool.c:43   UCX  WARN  object 0x43ca240 was not returned to mpool ucp_requests
[1622174390.706061] [holy7c16611:218038:0]          mpool.c:43   UCX  WARN  object 0x43ca940 was not returned to mpool ucp_requests
[1622174390.706064] [holy7c16611:218038:0]          mpool.c:43   UCX  WARN  object 0x43cab00 was not returned to mpool ucp_requests
[1622174390.741026] [holy7c04102:245103:0]          mpool.c:43   UCX  WARN  object 0x3fc85c0 was not returned to mpool ucp_requests
[1622174390.746848] [holy7c04102:245097:0]          mpool.c:43   UCX  WARN  object 0x41ed580 was not returned to mpool ucp_requests
[1622174390.736946] [holy7c04102:245102:0]          mpool.c:43   UCX  WARN  object 0x47ca400 was not returned to mpool ucp_requests
[1622174390.736971] [holy7c04102:245102:0]          mpool.c:43   UCX  WARN  object 0x47ca780 was not returned to mpool ucp_requests
[1622174390.737326] [holy7c04102:245107:0]          mpool.c:43   UCX  WARN  object 0x39fc780 was not returned to mpool ucp_requests
[1622174390.738563] [holy7c04102:245098:0]          mpool.c:43   UCX  WARN  object 0x3f49a00 was not returned to mpool ucp_requests
[1622174390.744150] [holy7c04102:245111:0]          mpool.c:43   UCX  WARN  object 0x2c2c340 was not returned to mpool ucp_requests
[1622174390.747060] [holy7c04102:245112:0]          mpool.c:43   UCX  WARN  object 0x45c2800 was not returned to mpool ucp_requests
[1622174390.748309] [holy7c04102:245104:0]          mpool.c:43   UCX  WARN  object 0x402b400 was not returned to mpool ucp_requests
[1622174390.748331] [holy7c04102:245104:0]          mpool.c:43   UCX  WARN  object 0x402b5c0 was not returned to mpool ucp_requests
[1622174390.747858] [holy7c04102:245109:0]          mpool.c:43   UCX  WARN  object 0x3ec2e80 was not returned to mpool ucp_requests
[1622174390.747879] [holy7c04102:245109:0]          mpool.c:43   UCX  WARN  object 0x3ec3040 was not returned to mpool ucp_requests