     Program PWSCF v.6.5 starts on 27May2021 at 23:51:38

     R & G space division:  proc/nbgrp/npool/nimage =      32
     Reading input from YCBCO50_212_CuO_cleave_1.25_sep.pwi
Warning: card &IONS ignored
Warning: card     ION_DYNAMICS = 'BFGS' ignored
Warning: card / ignored
Warning: card &CELL ignored
Warning: card     CELL_DYNAMICS = 'BFGS' ignored
Warning: card     PRESS_CONV_THR = 5 ignored
Warning: card / ignored

     Current dimensions of program PWSCF are:
     Max number of different atomic species (ntypx) = 10
     Max number of k-points (npk) =  40000
     Max angular momentum in pseudopotentials (lmaxx) =  3

     Message from routine setup:
     using ibrav=0 with symmetry is DISCOURAGED, use correct ibrav instead

     bravais-lattice index     =            0
     lattice parameter (alat)  =      14.8133  a.u.
     unit-cell volume          =    8964.7417 (a.u.)^3
     number of atoms/cell      =           56
     number of atomic types    =            5
     number of electrons       =       456.00
     number of Kohn-Sham states=          274
     kinetic-energy cutoff     =      60.0000  Ry
     charge density cutoff     =     720.0000  Ry
     convergence threshold     =      1.0E-08
     mixing beta               =       0.5000
     number of iterations used =           10  local-TF  mixing
     Exchange-correlation= SLA PW PBE PBE
                           (   1   4   3   4   0   0   0)

     celldm(1)=  14.813271  celldm(2)=   0.000000  celldm(3)=   0.000000
     celldm(4)=   0.000000  celldm(5)=   0.000000  celldm(6)=   0.000000

     crystal axes: (cart. coord. in units of alat)
               a(1) = (   1.000000   0.000000   0.000000 )
               a(2) = (   0.000000   0.477453   0.000000 )
               a(3) = (   0.000000   0.000000   5.776363 )

     reciprocal axes: (cart. coord. in units 2 pi/alat)
               b(1) = (  1.000000  0.000000  0.000000 )
               b(2) = (  0.000000  2.094448  0.000000 )
               b(3) = (  0.000000  0.000000  0.173119 )

     PseudoPot. # 1 for Ba read from file:
     ./pseudo/Ba.pbe-nsp-van.UPF
     MD5 check sum: 2b9c31dd849566dd297d80989662b7a0
     Pseudo is Ultrasoft + core correction, Zval = 10.0
     Generated by new atomic code, or converted to UPF format
     Using radial grid of  907 points,  6 beta functions with:
                l(1) =   0
                l(2) =   0
                l(3) =   1
                l(4) =   1
                l(5) =   2
                l(6) =   2
     Q(r) pseudized with  6 coefficients,  rinner =    1.200   1.200   1.200
                                                       1.200   1.200

     PseudoPot. # 2 for Ca read from file:
     ./pseudo/Ca.pbe-nsp-van.UPF
     MD5 check sum: 6471098428ff4fa451746d08035ff179
     Pseudo is Ultrasoft + core correction, Zval = 10.0
     Generated by new atomic code, or converted to UPF format
     Using radial grid of  845 points,  6 beta functions with:
                l(1) =   0
                l(2) =   0
                l(3) =   1
                l(4) =   1
                l(5) =   2
                l(6) =   2
     Q(r) pseudized with  6 coefficients,  rinner =    1.200   1.200   1.200
                                                       1.200   1.200

     PseudoPot. # 3 for Cu read from file:
     ./pseudo/Cu.pbe-n-van_ak.UPF
     MD5 check sum: 34e3282627ffb533726feb647e090d62
     Pseudo is Ultrasoft + core correction, Zval = 11.0
     Generated by new atomic code, or converted to UPF format
     Using radial grid of  867 points,  6 beta functions with:
                l(1) =   0
                l(2) =   0
                l(3) =   1
                l(4) =   1
                l(5) =   2
                l(6) =   2
     Q(r) pseudized with  8 coefficients,  rinner =    1.400   1.400   1.400
                                                       1.400   1.400

     PseudoPot. # 4 for O  read from file:
     ./pseudo/O.pbe-van_ak.UPF
     MD5 check sum: 783ce7fe4c79b6a4916957118fed0856
     Pseudo is Ultrasoft, Zval =  6.0
     Generated by new atomic code, or converted to UPF format
     Using radial grid of  737 points,  4 beta functions with:
                l(1) =   0
                l(2) =   0
                l(3) =   1
                l(4) =   1
     Q(r) pseudized with  8 coefficients,  rinner =    0.800   0.800   0.800

     PseudoPot. # 5 for Y  read from file:
     ./pseudo/Y.pbe-nsp-van.UPF
     MD5 check sum: 4412fed3ab108fed87a1b7d6a69a4a38
     Pseudo is Ultrasoft + core correction, Zval = 11.0
     Generated by new atomic code, or converted to UPF format
     Using radial grid of  885 points,  6 beta functions with:
                l(1) =   0
                l(2) =   0
                l(3) =   1
                l(4) =   1
                l(5) =   2
                l(6) =   2
     Q(r) pseudized with  6 coefficients,  rinner =    1.200   1.200   1.200
                                                       1.200   1.200

     atomic species   valence    mass     pseudopotential
        Ba            10.00   137.32700     Ba( 1.00)
        Ca            10.00    40.07800     Ca( 1.00)
        Cu            11.00    63.54600     Cu( 1.00)
        O              6.00    15.99900     O ( 1.00)
        Y             11.00    88.90584     Y ( 1.00)

      4 Sym. Ops. (no inversion) found ( 2 have fractional translation)

   Cartesian axes

     site n.     atom                  positions (alat units)
         1           O   tau(   1) = (  -0.0008343   0.2387265  -0.0222443  )
         2           O   tau(   2) = (   0.5008340   0.2387265  -0.0222443  )
         3           Cu  tau(   3) = (   0.5017257   0.0000000   0.0109608  )
         4           Cu  tau(   4) = (  -0.0017260   0.0000000   0.0109608  )
         5           O   tau(   5) = (  -0.0028933   0.0000000   0.2506504  )
         6           O   tau(   6) = (   0.5028929   0.0000000   0.2506504  )
         7           Ba  tau(   7) = (   0.7499995   0.2387265   0.2749435  )
         8           Ba  tau(   8) = (   0.2499998   0.2387265   0.2755214  )
         9           Cu  tau(   9) = (   0.4980963   0.0000000   0.5208446  )
        10           Cu  tau(  10) = (   0.0019033   0.0000000   0.5208446  )
        11           O   tau(  11) = (   0.2499998   0.0000000   0.5341884  )
        12           O   tau(  12) = (   0.5083351   0.2387265   0.5569851  )
        13           O   tau(  13) = (  -0.0083354   0.2387265   0.5569851  )
        14           O   tau(  14) = (   0.7499995   0.0000000   0.5573831  )
        15           Ca  tau(  15) = (   0.2499998   0.2387265   0.7436937  )
        16           Y   tau(  16) = (   0.7499995   0.2387265   0.7469544  )
        17           O   tau(  17) = (  -0.0063798   0.2387265   0.9248530  )
        18           O   tau(  18) = (   0.5063794   0.2387265   0.9248530  )
        19           O   tau(  19) = (   0.7499995   0.0000000   0.9338544  )
        20           O   tau(  20) = (   0.2499998   0.0000000   0.9461329  )
        21           Cu  tau(  21) = (   0.0015717   0.0000000   0.9686860  )
        22           Cu  tau(  22) = (   0.4984280   0.0000000   0.9686860  )
        23           Ba  tau(  23) = (   0.2499998   0.2387265   1.2085224  )
        24           Ba  tau(  24) = (   0.7499995   0.2387265   1.2233294  )
        25           O   tau(  25) = (   0.0063772   0.0000000   1.2547537  )
        26           O   tau(  26) = (   0.4936224   0.0000000   1.2547537  )
        27           O   tau(  27) = (   0.5384045   0.2387265   1.4952521  )
        28           O   tau(  28) = (  -0.0384049   0.2387265   1.4952521  )
        29           Cu  tau(  29) = (   0.5006120   0.0000000   1.4952546  )
        30           Cu  tau(  30) = (  -0.0006123   0.0000000   1.4952546  )
        31           O   tau(  31) = (   0.4936212   0.0000000   1.8952153  )
        32           O   tau(  32) = (   0.0063785   0.0000000   1.8952153  )
        33           Ba  tau(  33) = (   0.7499995   0.2387265   1.9266447  )
        34           Ba  tau(  34) = (   0.2499998   0.2387265   1.9414543  )
        35           Cu  tau(  35) = (   0.4984280   0.0000000   2.1812855  )
        36           Cu  tau(  36) = (   0.0015717   0.0000000   2.1812855  )
        37           O   tau(  37) = (   0.2499998   0.0000000   2.2038437  )
        38           O   tau(  38) = (   0.7499995   0.0000000   2.2161133  )
        39           O   tau(  39) = (   0.5063781   0.2387265   2.2251185  )
        40           O   tau(  40) = (  -0.0063785   0.2387265   2.2251185  )
        41           Y   tau(  41) = (   0.7499995   0.2387265   2.4030120  )
        42           Ca  tau(  42) = (   0.2499998   0.2387265   2.4062816  )
        43           O   tau(  43) = (   0.7499995   0.0000000   2.5925795  )
        44           O   tau(  44) = (  -0.0083354   0.2387265   2.5929813  )
        45           O   tau(  45) = (   0.5083351   0.2387265   2.5929813  )
        46           O   tau(  46) = (   0.2499998   0.0000000   2.6157793  )
        47           Cu  tau(  47) = (   0.0019059   0.0000000   2.6291129  )
        48           Cu  tau(  48) = (   0.4980938   0.0000000   2.6291129  )
        49           Ba  tau(  49) = (   0.2499998   0.2387265   2.8744526  )
        50           Ba  tau(  50) = (   0.7499995   0.2387265   2.8749948  )
        51           O   tau(  51) = (  -0.0028895   0.0000000   2.8993020  )
        52           O   tau(  52) = (   0.5028891   0.0000000   2.8993020  )
        53           Cu  tau(  53) = (   0.5017844   0.0000000   3.1389865  )
        54           Cu  tau(  54) = (  -0.0017847   0.0000000   3.1389865  )
        55           O   tau(  55) = (   0.5008990   0.2387265   3.1721929  )
        56           O   tau(  56) = (  -0.0008994   0.2387265   3.1721929  )

     number of k points=    25  Gaussian smearing, width (Ry)=  0.0100
                       cart. coord. in units 2pi/alat
        k(    1) = (   0.0000000   0.0000000   0.0000000), wk =   0.0312500
        k(    2) = (   0.0000000   0.2618060   0.0000000), wk =   0.0625000
        k(    3) = (   0.0000000   0.5236121   0.0000000), wk =   0.0625000
        k(    4) = (   0.0000000   0.7854181   0.0000000), wk =   0.0625000
        k(    5) = (   0.0000000  -1.0472241   0.0000000), wk =   0.0312500
        k(    6) = (   0.1250000   0.0000000   0.0000000), wk =   0.0625000
        k(    7) = (   0.1250000   0.2618060   0.0000000), wk =   0.1250000
        k(    8) = (   0.1250000   0.5236121   0.0000000), wk =   0.1250000
        k(    9) = (   0.1250000   0.7854181   0.0000000), wk =   0.1250000
        k(   10) = (   0.1250000  -1.0472241   0.0000000), wk =   0.0625000
        k(   11) = (   0.2500000   0.0000000   0.0000000), wk =   0.0625000
        k(   12) = (   0.2500000   0.2618060   0.0000000), wk =   0.1250000
        k(   13) = (   0.2500000   0.5236121   0.0000000), wk =   0.1250000
        k(   14) = (   0.2500000   0.7854181   0.0000000), wk =   0.1250000
        k(   15) = (   0.2500000  -1.0472241   0.0000000), wk =   0.0625000
        k(   16) = (   0.3750000   0.0000000   0.0000000), wk =   0.0625000
        k(   17) = (   0.3750000   0.2618060   0.0000000), wk =   0.1250000
        k(   18) = (   0.3750000   0.5236121   0.0000000), wk =   0.1250000
        k(   19) = (   0.3750000   0.7854181   0.0000000), wk =   0.1250000
        k(   20) = (   0.3750000  -1.0472241   0.0000000), wk =   0.0625000
        k(   21) = (  -0.5000000   0.0000000   0.0000000), wk =   0.0312500
        k(   22) = (  -0.5000000   0.2618060   0.0000000), wk =   0.0625000
        k(   23) = (  -0.5000000   0.5236121   0.0000000), wk =   0.0625000
        k(   24) = (  -0.5000000   0.7854181   0.0000000), wk =   0.0625000
        k(   25) = (  -0.5000000  -1.0472241   0.0000000), wk =   0.0312500

     Initial potential from superposition of free atoms

     starting charge  455.69457, renormalised to  456.00000

     negative rho (up, down):  9.326E-02 0.000E+00
     Starting wfcs are  396 randomized atomic wfcs

     Self-consistent Calculation

     iteration #  1     ecut=    60.00 Ry     beta= 0.50
     Davidson diagonalization with overlap
     ethr =  1.00E-02,  avg # of iterations =  2.0

     negative rho (up, down):  8.609E-02 0.000E+00

     total energy              =   -3708.25660754 Ry
     Harris-Foulkes estimate   =   -3716.37958796 Ry
     estimated scf accuracy    <      30.75957795 Ry

[...]

     iteration # 18     ecut=    60.00 Ry     beta= 0.50
     Davidson diagonalization with overlap
     c_bands:  1 eigenvalues not converged
     ethr =  1.22E-06,  avg # of iterations =  9.6

[...]

     iteration # 24     ecut=    60.00 Ry     beta= 0.50
     Davidson diagonalization with overlap
     c_bands:  2 eigenvalues not converged
     c_bands:  1 eigenvalues not converged
     c_bands:  2 eigenvalues not converged
     ethr =  8.17E-09,  avg # of iterations =  6.7

[...]

     total energy              =   -3711.57268538 Ry
     Harris-Foulkes estimate   =   -3711.57268538 Ry
     estimated scf accuracy    <       0.00000001 Ry

     iteration # 34     ecut=    60.00 Ry     beta= 0.50
     Davidson diagonalization with overlap
     ethr =  2.84E-12,  avg # of iterations =  1.0

[...]

     End of self-consistent calculation

          k = 0.0000 0.0000 0.0000 ( 70419 PWs)   bands (ev):

   -38.1930 -38.1419 -35.8254 -35.7655 -22.9468 -22.9378 -22.8185 -22.8096
   -22.8082 -22.7577 -22.5913 -22.3527 -18.6663 -18.6223 -18.5657 -18.5155
   -18.1967 -18.1450 -17.1717 -17.1137 -17.0382 -16.9819 -16.8563 -16.7938
   -15.5715 -15.5363 -15.1179 -15.1022 -14.8834 -14.7898 -14.7198 -14.7135
   -14.6825 -14.6435 -14.5941 -14.5846 -14.5746 -14.5241 -14.4328 -14.4275
   -14.2573 -14.2231 -14.1448 -14.1225 -14.1138 -14.1128 -14.1074 -14.0986
   -14.0591 -13.9932 -13.8875 -13.8236 -13.0406 -12.5866  -8.1855  -8.1776
    -8.1097  -8.0771  -8.0665  -8.0005  -7.9960  -7.9875  -7.8675  -7.8579
    -7.8491  -7.7659  -7.7614  -7.7529  -7.6868  -7.6474  -7.6419  -7.6200
    -7.6112  -7.5869  -7.5547  -7.4097  -7.2053  -7.0990  -3.1224  -3.1044
    -2.9974  -2.9154  -2.3004  -2.2952  -2.2119  -2.2081  -2.2027  -2.1733
    -2.0537  -2.0069  -2.0047  -1.9757  -1.9639  -1.9126  -1.9092  -1.8619
    -1.8365  -1.8067  -1.7950  -1.7497  -1.6887  -1.6425  -1.4975  -1.4728
    -1.3001  -1.2609  -1.2397  -1.2293  -1.1577  -1.0970  -1.0547  -1.0466
    -1.0457  -1.0425  -1.0395  -1.0375  -1.0084  -1.0074  -0.9378  -0.8740
    -0.8209  -0.8151  -0.5625  -0.5186  -0.4626  -0.3955  -0.3824  -0.3760
    -0.3685  -0.3679  -0.3422  -0.3256  -0.3145  -0.2940  -0.2625  -0.2577
    -0.2567  -0.2564  -0.2314  -0.1890  -0.1665  -0.1529  -0.0989  -0.0819
    -0.0696  -0.0686  -0.0597  -0.0569   0.0072   0.0122   0.0298   0.0483
     0.0507   0.0508   0.0530   0.0556   0.1483   0.1547   0.1877   0.1910
     0.1940   0.2137   0.2433   0.2770   0.2838   0.2966   0.3537   0.3923
     0.4356   0.4579   0.4595   0.4784   0.4841   0.4860   0.4907   0.5161
     0.6594   0.6802   0.7411   0.8234   0.8252   0.8660   0.9128   0.9225
     0.9432   0.9634   0.9642   1.0049   1.0942   1.1173   1.1355   1.1435
     1.1444   1.1515   1.1534   1.1664   1.2404   1.2617   1.2670   1.3006
     1.3086   1.3231   1.3347   1.3569   1.3958   1.3977   1.4882   1.5304
     1.5494   1.5786   1.6423   1.6478   1.6788   1.7149   1.7211   1.7247
     1.7766   1.7805   1.7992   1.8175   1.8739   1.9852   1.9952   2.0886
     2.1610   2.1627   2.2973   2.3260   2.3415   2.3884   2.3974   2.4896
     2.5095   2.5368   2.5642   2.5775   2.7926   2.8313   5.0439   5.1626
     5.2093   5.8468   5.9593   6.5356   6.5592   6.6752   6.8447   6.9736
     7.2030   7.2134   7.2978   7.3039   7.3413   7.4696   7.5316   7.9295
     7.9865   8.0300   8.0786   8.0851   8.1916   8.3864   8.4222   8.4494
     8.5156   8.5846   8.6338   8.8023   8.9534   9.0238   9.0985   9.1305
     9.2831   9.2926

[...]

          k = 0.3750-1.0472 0.0000 ( 70342 PWs)   bands (ev):

[...]

          k =-0.5000 0.0000 0.0000 ( 70432 PWs)   bands (ev):

[...]

          k =-0.5000-1.0472 0.0000 ( 70316 PWs)   bands (ev):

   -38.1745 -38.1234 -35.8138 -35.7539 -22.7440 -22.7347 -22.7142 -22.7055
   -22.6715 -22.5762 -22.4725 -22.2111 -18.8364 -18.7867 -18.4955 -18.4449
   -18.3720 -18.3267 -17.2474 -17.1852 -17.0697 -17.0142 -16.9639 -16.9065
   -14.8710 -14.8465 -14.7935 -14.7816 -14.6488 -14.6189 -14.5820 -14.5548
   -14.5358 -14.5272 -14.5078 -14.4170 -14.3962 -14.3886 -14.3714 -14.3582
   -14.3144 -14.3062 -14.1191 -14.1164 -14.1085 -14.0941 -14.0176 -13.9966
   -13.9958 -13.9870 -13.9861 -13.9720 -12.8606 -12.8467  -8.5289  -8.5200
    -8.4781  -8.4695  -8.3481  -8.2711  -8.2612  -8.2039  -8.1950  -8.1803
    -8.1719  -8.1024  -8.0997  -8.0942  -8.0903  -8.0514  -8.0284  -8.0284
    -7.9618  -7.8462  -7.7799  -7.7293  -7.6838  -7.6283  -3.9375  -3.9040
    -3.7100  -3.6797  -3.5448  -3.4853  -3.4405  -3.3592  -3.1226  -3.1218
    -3.1147  -3.1138  -3.0687  -3.0143  -2.4687  -2.4608  -2.3630  -2.3522
    -2.2938  -2.2441  -2.2303  -2.1996  -2.1990  -2.1862  -2.1158  -2.1035
    -2.0943  -2.0654  -2.0346  -2.0178  -1.9537  -1.8775  -1.8643  -1.8407
    -1.8199  -1.8121  -1.6026  -1.5641  -1.4830  -1.4409  -1.2646  -1.2481
    -1.2355  -1.2351  -1.2084  -1.1877  -1.0252  -0.9908  -0.9458  -0.9202
    -0.9176  -0.8954  -0.8429  -0.8230  -0.8054  -0.8051  -0.7953  -0.7860
    -0.6894  -0.6808  -0.6627  -0.6236  -0.6066  -0.5232  -0.4410  -0.4354
    -0.4261  -0.4051  -0.3403  -0.3166  -0.2002  -0.1764   0.1122   0.1477
     0.3074   0.3138   0.3896   0.3981   0.4286   0.4497   0.4537   0.4721
     0.4811   0.5144   0.6091   0.7048   0.7239   0.9165   0.9372   0.9796
     0.9959   1.0147   1.0295   1.0622   1.0723   1.0976   1.1105   1.1440
     1.1569   1.1608   1.2195   1.2435   1.2664   1.2779   1.2902   1.3175
     1.3382   1.3698   1.3899   1.3955   1.3998   1.4369   1.4440   1.4672
     1.5196   1.5231   1.5329   1.6703   1.7223   1.7320   1.7874   1.7984
     1.8088   1.8341   1.9037   1.9315   1.9403   1.9556   1.9910   2.0118
     2.0181   2.0322   2.0829   2.1263   2.1274   2.1364   2.1382   2.1631
     2.2516   2.2700   2.4107   2.4270   2.4746   2.4819   2.4836   2.4912
     2.6354   2.6399   2.6631   2.6822   3.0074   3.0944   3.4024   3.4279
     3.4655   3.4920   3.5589   3.5884   3.6695   3.6884   6.1684   6.6566
     6.6639   6.6788   6.7114   6.8690   6.9333   7.1996   7.4837   7.5410
     8.0053   8.1271   8.1794   8.1975   8.5069   8.9156   8.9501   9.0677
     9.1207   9.1723   9.2082   9.3018   9.3219   9.3397   9.3421   9.3692
     9.3920   9.5239   9.5863   9.6389   9.6854   9.7268   9.7358   9.7437
     9.7572   9.7735

     the Fermi energy is     2.6552 ev

!    total energy              =   -3711.57268538 Ry
     Harris-Foulkes estimate   =   -3711.57268538 Ry
     estimated scf accuracy    <          8.3E-09 Ry

     The total energy is the sum of the following terms:

     one-electron contribution =  -59678.82731157 Ry
     hartree contribution      =   30144.94696879 Ry
     xc contribution           =   -1263.81075940 Ry
     ewald contribution        =   27086.13640224 Ry
     smearing contrib. (-TS)   =      -0.01798543 Ry

     convergence has been achieved in  34 iterations

     negative rho (up, down):  9.197E-02 0.000E+00

     Forces acting on atoms (cartesian axes, Ry/au):

     atom    1 type  4   force =    -0.00000560    0.00000000   -0.00035293
     atom    2 type  4   force =     0.00000560    0.00000000   -0.00035293
     atom    3 type  3   force =    -0.00001139    0.00000000    0.00004630
     atom    4 type  3   force =     0.00001139    0.00000000    0.00004630
     atom    5 type  4   force =    -0.00000683    0.00000000    0.00005270
     atom    6 type  4   force =     0.00000683    0.00000000    0.00005270
     atom    7 type  1   force =     0.00000000    0.00000000   -0.00033997
     atom    8 type  1   force =     0.00000000    0.00000000   -0.00030840
     atom    9 type  3   force =     0.00012073    0.00000000   -0.00015429
     atom   10 type  3   force =    -0.00012073    0.00000000   -0.00015429
     atom   11 type  4   force =     0.00000000    0.00000000    0.00088820
     atom   12 type  4   force =     0.00002042    0.00000000    0.00101468
     atom   13 type  4   force =    -0.00002042    0.00000000    0.00101468
     atom   14 type  4   force =     0.00000000    0.00000000    0.00115997
     atom   15 type  2   force =     0.00000000    0.00000000   -0.00255458
     atom   16 type  5   force =     0.00000000    0.00000000   -0.00381122
     atom   17 type  4   force =     0.00074662    0.00000000    0.00445209
     atom   18 type  4   force =    -0.00074662    0.00000000    0.00445209
     atom   19 type  4   force =     0.00000000    0.00000000    0.00314322
     atom   20 type  4   force =     0.00000000    0.00000000    0.00398385
     atom   21 type  3   force =     0.00045588    0.00000000   -0.00098048
     atom   22 type  3   force =    -0.00045588    0.00000000   -0.00098048
     atom   23 type  1   force =     0.00000000    0.00000000    0.00732076
     atom   24 type  1   force =     0.00000000    0.00000000    0.01341382
     atom   25 type  4   force =     0.00229594    0.00000000   -0.01381096
     atom   26 type  4   force =    -0.00229594    0.00000000   -0.01381096
     atom   27 type  4   force =    -0.00809473    0.00000000    0.02623075
     atom   28 type  4   force =     0.00809473    0.00000000    0.02623075
     atom   29 type  3   force =     0.00879568    0.00000000   -0.00415380
     atom   30 type  3   force =    -0.00879568    0.00000000   -0.00415380
     atom   31 type  4   force =     0.01209879    0.00000000    0.01047975
     atom   32 type  4   force =    -0.01209879    0.00000000    0.01047975
     atom   33 type  1   force =     0.00000000    0.00000000   -0.01884954
     atom   34 type  1   force =     0.00000000    0.00000000   -0.01996310
     atom   35 type  3   force =    -0.00315697    0.00000000   -0.01879609
     atom   36 type  3   force =     0.00315697    0.00000000   -0.01879609
     atom   37 type  4   force =     0.00000000    0.00000000    0.00429624
     atom   38 type  4   force =     0.00000000    0.00000000    0.00130708
     atom   39 type  4   force =     0.00261787    0.00000000    0.00090434
     atom   40 type  4   force =    -0.00261787    0.00000000    0.00090434
     atom   41 type  5   force =     0.00000000    0.00000000    0.00172801
     atom   42 type  2   force =     0.00000000    0.00000000    0.00012592
     atom   43 type  4   force =     0.00000000    0.00000000    0.00009495
     atom   44 type  4   force =     0.00002848    0.00000000   -0.00094110
     atom   45 type  4   force =    -0.00002848    0.00000000   -0.00094110
     atom   46 type  4   force =     0.00000000    0.00000000   -0.00002559
     atom   47 type  3   force =    -0.00000478    0.00000000    0.00022018
     atom   48 type  3   force =     0.00000478    0.00000000    0.00022018
     atom   49 type  1   force =     0.00000000    0.00000000    0.00015671
     atom   50 type  1   force =     0.00000000    0.00000000    0.00020070
     atom   51 type  4   force =    -0.00004409    0.00000000   -0.00060198
     atom   52 type  4   force =     0.00004409    0.00000000   -0.00060198
     atom   53 type  3   force =    -0.00003834    0.00000000    0.00070487
     atom   54 type  3   force =     0.00003834    0.00000000    0.00070487
     atom   55 type  4   force =     0.00001995    0.00000000   -0.00029752
     atom   56 type  4   force =    -0.00001995    0.00000000   -0.00029752

     Total force =     0.066721     Total SCF correction =     0.000543

     Computing stress (Cartesian axis) and pressure

     negative rho (up, down):  9.197E-02 0.000E+00
          total   stress  (Ry/bohr**3)                   (kbar)     P=       -6.61
  -0.00000309   0.00000000   0.00000000           -0.45        0.00        0.00
   0.00000000  -0.00007627   0.00000000            0.00      -11.22        0.00
   0.00000000   0.00000000  -0.00005544            0.00        0.00       -8.16

     General routines

     Parallel routines

   This run was terminated on:   0:24: 1  28May2021

   JOB DONE.
[1622175841.650282] [holy7c12308:57628:0]          mpool.c:43   UCX  WARN  object 0x310b3c0 was not returned to mpool ucp_requests
[1622175841.649803] [holy7c12407:23017:0]          mpool.c:43   UCX  WARN  object 0x3e94100 was not returned to mpool ucp_requests
[1622175841.649824] [holy7c12407:23017:0]          mpool.c:43   UCX  WARN  object 0x3e949c0 was not returned to mpool ucp_requests
[1622175841.651397] [holy7c16102:181827:0]          mpool.c:43   UCX  WARN  object 0x33f3000 was not returned to mpool ucp_requests
[1622175841.658146] [holy7c12604:271608:0]          mpool.c:43   UCX  WARN  object 0x283a940 was not returned to mpool ucp_requests
[1622175841.658366] [holy7c06410:84379:0]          mpool.c:43   UCX  WARN  object 0x43c6a00 was not returned to mpool ucp_requests
[1622175841.658978] [holy7c04211:127805:0]          mpool.c:43   UCX  WARN  object 0x29b3500 was not returned to mpool ucp_requests
[1622175841.668379] [holy7c12203:271960:0]          mpool.c:43   UCX  WARN  object 0x3240f00 was not returned to mpool ucp_requests
[1622175841.668404] [holy7c12203:271960:0]          mpool.c:43   UCX  WARN  object 0x3241280 was not returned to mpool ucp_requests
[1622175841.656884] [holy7c12206:224047:0]          mpool.c:43   UCX  WARN  object 0x4056f40 was not returned to mpool ucp_requests
[1622175841.669378] [holy7c10602:102834:0]          mpool.c:43   UCX  WARN  object 0x3d74500 was not returned to mpool ucp_requests
[1622175841.669402] [holy7c10602:102834:0]          mpool.c:43   UCX  WARN  object 0x3d74c00 was not returned to mpool ucp_requests
[1622175841.674033] [holy7c12203:271965:0]          mpool.c:43   UCX  WARN  object 0x3d300c0 was not returned to mpool ucp_requests
[1622175841.670062] [holy7c12203:271962:0]          mpool.c:43   UCX  WARN  object 0x42cfc00 was not returned to mpool ucp_requests
[1622175841.670087] [holy7c12203:271962:0]          mpool.c:43   UCX  WARN  object 0x42cff80 was not returned to mpool ucp_requests
[1622175841.665467] [holy7c12203:271961:0]          mpool.c:43   UCX  WARN  object 0x429e6c0 was not returned to mpool ucp_requests
[1622175841.669881] [holy7c12203:271967:0]          mpool.c:43   UCX  WARN  object 0x2f5df40 was not returned to mpool ucp_requests
[1622175841.669898] [holy7c12203:271967:0]          mpool.c:43   UCX  WARN  object 0x2f5e2c0 was not returned to mpool ucp_requests