     Program PWSCF v.6.5 starts on 27May2021 at 23:57:31

     R & G space division:  proc/nbgrp/npool/nimage =      32
     Reading input from YCBCO50_212_Y_cleave_1.0_sep.pwi
Warning: card &IONS ignored
Warning: card     ION_DYNAMICS = 'BFGS' ignored
Warning: card / ignored
Warning: card &CELL ignored
Warning: card     CELL_DYNAMICS = 'BFGS' ignored
Warning: card     PRESS_CONV_THR = 5 ignored
Warning: card / ignored

     Current dimensions of program PWSCF are:
     Max number of different atomic species (ntypx) = 10
     Max number of k-points (npk) =  40000
     Max angular momentum in pseudopotentials (lmaxx) =  3

     Message from routine setup:
     using ibrav=0 with symmetry is DISCOURAGED, use correct ibrav instead

     bravais-lattice index     =            0
     lattice parameter (alat)  =      14.8133  a.u.
     unit-cell volume          =    8915.2456 (a.u.)^3
     number of atoms/cell      =           56
     number of atomic types    =            5
     number of electrons       =       456.00
     number of Kohn-Sham states=          274
     kinetic-energy cutoff     =      60.0000  Ry
     charge density cutoff     =     720.0000  Ry
     convergence threshold     =      1.0E-08
     mixing beta               =       0.5000
     number of iterations used =           10  local-TF  mixing
     Exchange-correlation= SLA PW PBE PBE
                           (   1   4   3   4   0   0   0)

     celldm(1)=  14.813271  celldm(2)=   0.000000  celldm(3)=   0.000000
     celldm(4)=   0.000000  celldm(5)=   0.000000  celldm(6)=   0.000000

     crystal axes: (cart. coord. in units of alat)
               a(1) = (   1.000000   0.000000   0.000000 )
               a(2) = (   0.000000   0.477453   0.000000 )
               a(3) = (   0.000000   0.000000   5.744471 )

     reciprocal axes: (cart. coord. in units 2 pi/alat)
               b(1) = (  1.000000  0.000000  0.000000 )
               b(2) = (  0.000000  2.094448  0.000000 )
               b(3) = (  0.000000  0.000000  0.174080 )

     PseudoPot. # 1 for Ba read from file:
     ./pseudo/Ba.pbe-nsp-van.UPF
     MD5 check sum: 2b9c31dd849566dd297d80989662b7a0
     Pseudo is Ultrasoft + core correction, Zval = 10.0
     Generated by new atomic code, or converted to UPF format
     Using radial grid of  907 points,  6 beta functions with:
                l(1) =   0
                l(2) =   0
                l(3) =   1
                l(4) =   1
                l(5) =   2
                l(6) =   2
     Q(r) pseudized with  6 coefficients,  rinner =    1.200   1.200   1.200
                                                       1.200   1.200

     PseudoPot. # 2 for Ca read from file:
     ./pseudo/Ca.pbe-nsp-van.UPF
     MD5 check sum: 6471098428ff4fa451746d08035ff179
     Pseudo is Ultrasoft + core correction, Zval = 10.0
     Generated by new atomic code, or converted to UPF format
     Using radial grid of  845 points,  6 beta functions with:
                l(1) =   0
                l(2) =   0
                l(3) =   1
                l(4) =   1
                l(5) =   2
                l(6) =   2
     Q(r) pseudized with  6 coefficients,  rinner =    1.200   1.200   1.200
                                                       1.200   1.200

     PseudoPot. # 3 for Cu read from file:
     ./pseudo/Cu.pbe-n-van_ak.UPF
     MD5 check sum: 34e3282627ffb533726feb647e090d62
     Pseudo is Ultrasoft + core correction, Zval = 11.0
     Generated by new atomic code, or converted to UPF format
     Using radial grid of  867 points,  6 beta functions with:
                l(1) =   0
                l(2) =   0
                l(3) =   1
                l(4) =   1
                l(5) =   2
                l(6) =   2
     Q(r) pseudized with  8 coefficients,  rinner =    1.400   1.400   1.400
                                                       1.400   1.400

     PseudoPot. # 4 for O  read from file:
     ./pseudo/O.pbe-van_ak.UPF
     MD5 check sum: 783ce7fe4c79b6a4916957118fed0856
     Pseudo is Ultrasoft, Zval =  6.0
     Generated by new atomic code, or converted to UPF format
     Using radial grid of  737 points,  4 beta functions with:
                l(1) =   0
                l(2) =   0
                l(3) =   1
                l(4) =   1
     Q(r) pseudized with  8 coefficients,  rinner =    0.800   0.800   0.800

     PseudoPot. # 5 for Y  read from file:
     ./pseudo/Y.pbe-nsp-van.UPF
     MD5 check sum: 4412fed3ab108fed87a1b7d6a69a4a38
     Pseudo is Ultrasoft + core correction, Zval = 11.0
     Generated by new atomic code, or converted to UPF format
     Using radial grid of  885 points,  6 beta functions with:
                l(1) =   0
                l(2) =   0
                l(3) =   1
                l(4) =   1
                l(5) =   2
                l(6) =   2
     Q(r) pseudized with  6 coefficients,  rinner =    1.200   1.200   1.200
                                                       1.200   1.200

     atomic species   valence    mass     pseudopotential
        Ba            10.00   137.32700     Ba( 1.00)
        Ca            10.00    40.07800     Ca( 1.00)
        Cu            11.00    63.54600     Cu( 1.00)
        O              6.00    15.99900     O ( 1.00)
        Y             11.00    88.90584     Y ( 1.00)

      4 Sym. Ops. (no inversion) found ( 2 have fractional translation)

   Cartesian axes

     site n.     atom                  positions (alat units)
         1           O   tau(   1) = (  -0.0008343   0.2387265  -0.0222443  )
         2           O   tau(   2) = (   0.5008340   0.2387265  -0.0222443  )
         3           Cu  tau(   3) = (   0.5017257   0.0000000   0.0109608  )
         4           Cu  tau(   4) = (  -0.0017260   0.0000000   0.0109608  )
         5           O   tau(   5) = (  -0.0028933   0.0000000   0.2506504  )
         6           O   tau(   6) = (   0.5028929   0.0000000   0.2506504  )
         7           Ba  tau(   7) = (   0.7499995   0.2387265   0.2749435  )
         8           Ba  tau(   8) = (   0.2499998   0.2387265   0.2755214  )
         9           Cu  tau(   9) = (   0.4980963   0.0000000   0.5208446  )
        10           Cu  tau(  10) = (   0.0019033   0.0000000   0.5208446  )
        11           O   tau(  11) = (   0.2499998   0.0000000   0.5341884  )
        12           O   tau(  12) = (   0.5083351   0.2387265   0.5569851  )
        13           O   tau(  13) = (  -0.0083354   0.2387265   0.5569851  )
        14           O   tau(  14) = (   0.7499995   0.0000000   0.5573831  )
        15           Ca  tau(  15) = (   0.2499998   0.2387265   0.7436937  )
        16           Y   tau(  16) = (   0.7499995   0.2387265   0.7469544  )
        17           O   tau(  17) = (  -0.0063798   0.2387265   0.9248530  )
        18           O   tau(  18) = (   0.5063794   0.2387265   0.9248530  )
        19           O   tau(  19) = (   0.7499995   0.0000000   0.9338544  )
        20           O   tau(  20) = (   0.2499998   0.0000000   0.9461329  )
        21           Cu  tau(  21) = (   0.0015717   0.0000000   0.9686860  )
        22           Cu  tau(  22) = (   0.4984280   0.0000000   0.9686860  )
        23           Ba  tau(  23) = (   0.2499998   0.2387265   1.2085224  )
        24           Ba  tau(  24) = (   0.7499995   0.2387265   1.2233294  )
        25           O   tau(  25) = (   0.0063772   0.0000000   1.2547537  )
        26           O   tau(  26) = (   0.4936224   0.0000000   1.2547537  )
        27           O   tau(  27) = (   0.5384045   0.2387265   1.4952521  )
        28           O   tau(  28) = (  -0.0384049   0.2387265   1.4952521  )
        29           Cu  tau(  29) = (   0.5006120   0.0000000   1.4952546  )
        30           Cu  tau(  30) = (  -0.0006123   0.0000000   1.4952546  )
        31           O   tau(  31) = (   0.4936212   0.0000000   1.7357531  )
        32           O   tau(  32) = (   0.0063785   0.0000000   1.7357531  )
        33           Ba  tau(  33) = (   0.7499995   0.2387265   1.7671824  )
        34           Ba  tau(  34) = (   0.2499998   0.2387265   1.7819920  )
        35           Cu  tau(  35) = (   0.4984280   0.0000000   2.0218232  )
        36           Cu  tau(  36) = (   0.0015717   0.0000000   2.0218232  )
        37           O   tau(  37) = (   0.2499998   0.0000000   2.0443814  )
        38           O   tau(  38) = (   0.7499995   0.0000000   2.0566511  )
        39           O   tau(  39) = (   0.5063781   0.2387265   2.0656562  )
        40           O   tau(  40) = (  -0.0063785   0.2387265   2.0656562  )
        41           Y   tau(  41) = (   0.7499995   0.2387265   2.2435498  )
        42           Ca  tau(  42) = (   0.2499998   0.2387265   2.2468194  )
        43           O   tau(  43) = (   0.7499995   0.0000000   2.5606870  )
        44           O   tau(  44) = (  -0.0083354   0.2387265   2.5610889  )
        45           O   tau(  45) = (   0.5083351   0.2387265   2.5610889  )
        46           O   tau(  46) = (   0.2499998   0.0000000   2.5838869  )
        47           Cu  tau(  47) = (   0.0019059   0.0000000   2.5972205  )
        48           Cu  tau(  48) = (   0.4980938   0.0000000   2.5972205  )
        49           Ba  tau(  49) = (   0.2499998   0.2387265   2.8425602  )
        50           Ba  tau(  50) = (   0.7499995   0.2387265   2.8431023  )
        51           O   tau(  51) = (  -0.0028895   0.0000000   2.8674095  )
        52           O   tau(  52) = (   0.5028891   0.0000000   2.8674095  )
        53           Cu  tau(  53) = (   0.5017844   0.0000000   3.1070940  )
        54           Cu  tau(  54) = (  -0.0017847   0.0000000   3.1070940  )
        55           O   tau(  55) = (   0.5008990   0.2387265   3.1403004  )
        56           O   tau(  56) = (  -0.0008994   0.2387265   3.1403004  )

     number of k points=    25  Gaussian smearing, width (Ry)=  0.0100
                       cart. coord. in units 2pi/alat
        k(    1) = (   0.0000000   0.0000000   0.0000000), wk =   0.0312500
        k(    2) = (   0.0000000   0.2618060   0.0000000), wk =   0.0625000
        k(    3) = (   0.0000000   0.5236121   0.0000000), wk =   0.0625000
        k(    4) = (   0.0000000   0.7854181   0.0000000), wk =   0.0625000
        k(    5) = (   0.0000000  -1.0472241   0.0000000), wk =   0.0312500
        k(    6) = (   0.1250000   0.0000000   0.0000000), wk =   0.0625000
        k(    7) = (   0.1250000   0.2618060   0.0000000), wk =   0.1250000
        k(    8) = (   0.1250000   0.5236121   0.0000000), wk =   0.1250000
        k(    9) = (   0.1250000   0.7854181   0.0000000), wk =   0.1250000
        k(   10) = (   0.1250000  -1.0472241   0.0000000), wk =   0.0625000
        k(   11) = (   0.2500000   0.0000000   0.0000000), wk =   0.0625000
        k(   12) = (   0.2500000   0.2618060   0.0000000), wk =   0.1250000
        k(   13) = (   0.2500000   0.5236121   0.0000000), wk =   0.1250000
        k(   14) = (   0.2500000   0.7854181   0.0000000), wk =   0.1250000
        k(   15) = (   0.2500000  -1.0472241   0.0000000), wk =   0.0625000
        k(   16) = (   0.3750000   0.0000000   0.0000000), wk =   0.0625000
        k(   17) = (   0.3750000   0.2618060   0.0000000), wk =   0.1250000
        k(   18) = (   0.3750000   0.5236121   0.0000000), wk =   0.1250000
        k(   19) = (   0.3750000   0.7854181   0.0000000), wk =   0.1250000
        k(   20) = (   0.3750000  -1.0472241   0.0000000), wk =   0.0625000
        k(   21) = (  -0.5000000   0.0000000   0.0000000), wk =   0.0312500
        k(   22) = (  -0.5000000   0.2618060   0.0000000), wk =   0.0625000
        k(   23) = (  -0.5000000   0.5236121   0.0000000), wk =   0.0625000
        k(   24) = (  -0.5000000   0.7854181   0.0000000), wk =   0.0625000
        k(   25) = (  -0.5000000  -1.0472241   0.0000000), wk =   0.0312500

     Initial potential from superposition of free atoms

     starting charge  455.69457, renormalised to  456.00000

     negative rho (up, down):  9.344E-02 0.000E+00
     Starting wfcs are  396 randomized atomic wfcs

     Self-consistent Calculation

     iteration #  1     ecut=    60.00 Ry     beta= 0.50
     Davidson diagonalization with overlap
     ethr =  1.00E-02,  avg # of iterations =  2.0

     negative rho (up, down):  8.573E-02 0.000E+00

     total energy              =   -3708.41680402 Ry
     Harris-Foulkes estimate   =   -3716.32761342 Ry
     estimated scf accuracy    <      30.33246062 Ry

[...]

     iteration # 15     ecut=    60.00 Ry     beta= 0.50
     Davidson diagonalization with overlap
     c_bands:  1 eigenvalues not converged
     ethr =  2.40E-05,  avg # of iterations =  5.3

[...]

     iteration # 21     ecut=    60.00 Ry     beta= 0.50
     Davidson diagonalization with overlap
     c_bands:  1 eigenvalues not converged
     ethr =  6.02E-07,  avg # of iterations =  4.6

[...]

     total energy              =   -3711.48995028 Ry
     Harris-Foulkes estimate   =   -3711.48995028 Ry
     estimated scf accuracy    <       0.00000001 Ry

     iteration # 37     ecut=    60.00 Ry     beta= 0.50
     Davidson diagonalization with overlap
     ethr =  2.63E-12,  avg # of iterations =  1.1

[...]

     End of self-consistent calculation

          k = 0.0000 0.0000 0.0000 ( 70025 PWs)   bands (ev):

   -40.2991 -37.9887 -37.6897 -35.6156 -22.7864 -22.7822 -22.6538 -22.6517
   -22.6213 -22.5137 -22.4943 -22.3596 -20.3733 -20.3030 -20.2301 -18.7739
   -18.7160 -18.6855 -18.4640 -18.3599 -17.9919 -16.9636 -16.8285 -16.6452
   -15.7020 -15.3755 -15.2272 -15.0063 -14.9472 -14.8589 -14.8463 -14.8393
   -14.6878 -14.6200 -14.5202 -14.5165 -14.4428 -14.4194 -14.4163 -14.2944
   -14.2740 -14.0658 -13.9638 -13.9506 -13.9458 -13.9457 -13.9447 -13.9378
   -13.8694 -13.8497 -13.6220 -13.5843 -13.5067 -13.4850  -8.1200  -8.0229
    -8.0191  -7.9114  -7.8317  -7.7766  -7.7700  -7.7671  -7.7043  -7.6935
    -7.6923  -7.6851  -7.6599  -7.5972  -7.5946  -7.5482  -7.5010  -7.4609
    -7.4555  -7.4485  -7.3884  -7.3171  -7.3077  -7.1654  -3.2239  -2.9493
    -2.7747  -2.6607  -2.4863  -2.3282  -2.1390  -2.0997  -2.0872  -2.0518
    -2.0334  -2.0280  -2.0053  -2.0010  -1.9576  -1.8473  -1.8000  -1.7611
    -1.6282  -1.5930  -1.5681  -1.4930  -1.4210  -1.4058  -1.3661  -1.3264
    -1.2933  -1.2763  -1.2538  -1.1493  -1.1228  -1.0875  -1.0687  -1.0082
    -1.0004  -0.9382  -0.8872  -0.8865  -0.8858  -0.8851  -0.8390  -0.8326
    -0.8210  -0.7615  -0.6942  -0.6730  -0.6602  -0.6458  -0.6309  -0.6245
    -0.5155  -0.5152  -0.3528  -0.2951  -0.2646  -0.2330  -0.2321  -0.2204
    -0.1967  -0.1473  -0.1155  -0.1016  -0.0969  -0.0666  -0.0174   0.0215
     0.0256   0.0421   0.0702   0.0816   0.0915   0.0935   0.0995   0.1197
     0.1580   0.2114   0.2130   0.2793   0.2804   0.2871   0.3034   0.3074
     0.3425   0.3466   0.3500   0.3975   0.4281   0.4376   0.4475   0.4494
     0.4550   0.5174   0.5675   0.5967   0.6183   0.6403   0.6428   0.6702
     0.6851   0.7213   0.7511   0.8277   0.8582   0.9474   0.9782   1.0524
     1.0766   1.0954   1.1323   1.1341   1.1618   1.1899   1.2077   1.2767
     1.2957   1.3012   1.3086   1.3262   1.3369   1.3974   1.4343   1.4485
     1.4885   1.4990   1.5231   1.5453   1.5678   1.6513   1.6820   1.7344
     1.7377   1.7403   1.8027   1.8222   1.8290   1.8419   1.8776   1.9103
     1.9282   1.9363   2.0199   2.1071   2.1494   2.1642   2.2296   2.2342
     2.2404   2.3015   2.3511   2.3774   2.3948   2.4024   2.4803   2.4828
     2.5988   2.6617   2.6713   2.7652   2.9634   2.9702   4.2235   5.3142
     5.3680   5.7756   5.8503   5.9376   6.1612   6.2987   6.3468   6.6217
     6.7231   6.8208   6.9226   7.2372   7.3649   7.4281   7.4580   7.4748
     7.5043   7.6800   7.8140   7.8405   7.8586   8.1183   8.1326   8.2149
     8.2378   8.3132   8.4764   8.5833   8.5931   8.6078   8.6417   8.6952
     8.8206   8.8880

[...]

          k = 0.3750-1.0472 0.0000 ( 69970 PWs)   bands (ev):

[...]

          k =-0.5000 0.0000 0.0000 ( 70044 PWs)   bands (ev):

[...]

          k =-0.5000-1.0472 0.0000 ( 69948 PWs)   bands (ev):

   -40.2847 -37.9703 -37.6803 -35.6040 -22.5987 -22.5792 -22.5497 -22.5421
   -22.4090 -22.3979 -22.3318 -22.2438 -20.5818 -20.3418 -20.1812 -18.8863
   -18.7658 -18.6377 -18.6323 -18.2897 -18.1690 -17.0365 -16.8600 -16.7556
   -15.2296 -15.0090 -14.9816 -14.7263 -14.6908 -14.6272 -14.5671 -14.5624
   -14.4655 -14.3908 -14.3453 -14.2790 -14.2211 -14.1987 -14.1772 -14.1672
   -14.0816 -14.0709 -14.0591 -14.0193 -13.9392 -13.9370 -13.9011 -13.8767
   -13.8354 -13.8346 -13.8258 -13.8252 -13.7481 -13.7325  -8.3895  -8.3645
    -8.3138  -8.2577  -8.2177  -8.1801  -8.1290  -8.0966  -8.0411  -8.0394
    -8.0160  -8.0008  -7.9628  -7.9492  -7.9370  -7.9341  -7.8925  -7.8775
    -7.7810  -7.7419  -7.7218  -7.6943  -7.5884  -7.5652  -4.0008  -3.7469
    -3.7346  -3.5261  -3.3400  -3.2948  -3.2253  -3.1823  -3.1673  -3.1615
    -2.9623  -2.9616  -2.9488  -2.9438  -2.4344  -2.4095  -2.3721  -2.3042
    -2.2123  -2.1942  -2.1909  -2.1256  -2.1136  -2.0955  -2.0467  -2.0049
    -1.9642  -1.9114  -1.8897  -1.8615  -1.8129  -1.7620  -1.7064  -1.6362
    -1.5237  -1.4860  -1.4783  -1.4503  -1.4398  -1.3845  -1.3578  -1.2842
    -1.1666  -1.1535  -1.1273  -1.0882  -1.0633  -0.9647  -0.9512  -0.9329
    -0.9143  -0.9141  -0.7646  -0.7287  -0.7286  -0.7249  -0.7063  -0.6668
    -0.6379  -0.6348  -0.6301  -0.6232  -0.5979  -0.5425  -0.5337  -0.4929
    -0.4626  -0.3776  -0.2651  -0.2385  -0.2224  -0.2194   0.1620   0.1659
     0.1756   0.3359   0.3361   0.4317   0.4554   0.5043   0.5458   0.5851
     0.6365   0.6501   0.7118   0.7772   0.7778   0.8124   0.8992   0.9836
     1.0944   1.1293   1.1541   1.1938   1.2237   1.2274   1.2685   1.2997
     1.3069   1.3145   1.3490   1.3597   1.3993   1.4024   1.4135   1.4269
     1.4490   1.4690   1.4696   1.5281   1.5462   1.5466   1.6000   1.6256
     1.6400   1.6500   1.6816   1.7127   1.7841   1.7955   1.8092   1.8692
     1.9004   1.9060   1.9292   1.9303   1.9484   1.9717   1.9935   2.0198
     2.0919   2.1173   2.1466   2.1824   2.2693   2.2855   2.2872   2.2878
     2.2937   2.4729   2.5627   2.6344   2.6350   2.6440   2.6583   2.6724
     2.8060   2.8212   2.8537   2.8648   3.4242   3.4269   3.5794   3.6641
     3.7541   3.7632   3.8425   3.9269   4.1177   4.1896   5.0021   5.6426
     6.1751   6.4856   6.6710   6.7927   6.8147   6.8189   6.8537   6.8684
     7.0015   7.0904   7.2735   7.3082   7.7086   8.0391   8.1588   8.2800
     8.3511   8.3760   8.5214   8.6909   9.1023   9.2096   9.3076   9.3851
     9.4120   9.4581   9.5018   9.5162   9.5640   9.5964   9.6534   9.7997
     9.8262   9.8704

     the Fermi energy is     2.8152 ev

!    total energy              =   -3711.48995027 Ry
     Harris-Foulkes estimate   =   -3711.48995028 Ry
     estimated scf accuracy    <          5.0E-09 Ry

     The total energy is the sum of the following terms:

     one-electron contribution =  -62994.41100827 Ry
     hartree contribution      =   31802.98451286 Ry
     xc contribution           =   -1263.63861648 Ry
     ewald contribution        =   28743.58885609 Ry
     smearing contrib. (-TS)   =      -0.01369447 Ry

     convergence has been achieved in  37 iterations

     negative rho (up, down):  9.144E-02 0.000E+00

     Forces acting on atoms (cartesian axes, Ry/au):

     atom    1 type  4   force =    -0.00000753    0.00000000   -0.00011162
     atom    2 type  4   force =     0.00000753    0.00000000   -0.00011162
     atom    3 type  3   force =    -0.00001831    0.00000000   -0.00006423
     atom    4 type  3   force =     0.00001831    0.00000000   -0.00006423
     atom    5 type  4   force =    -0.00000370    0.00000000   -0.00001298
     atom    6 type  4   force =     0.00000370    0.00000000   -0.00001298
     atom    7 type  1   force =     0.00000000    0.00000000   -0.00008634
     atom    8 type  1   force =     0.00000000    0.00000000   -0.00007805
     atom    9 type  3   force =     0.00002194    0.00000000    0.00002909
     atom   10 type  3   force =    -0.00002194    0.00000000    0.00002909
     atom   11 type  4   force =     0.00000000    0.00000000    0.00005154
     atom   12 type  4   force =    -0.00001106    0.00000000   -0.00001648
     atom   13 type  4   force =     0.00001106    0.00000000   -0.00001648
     atom   14 type  4   force =     0.00000000    0.00000000    0.00006610
     atom   15 type  2   force =     0.00000000    0.00000000   -0.00026897
     atom   16 type  5   force =     0.00000000    0.00000000   -0.00039177
     atom   17 type  4   force =     0.00005283    0.00000000    0.00037698
     atom   18 type  4   force =    -0.00005283    0.00000000    0.00037698
     atom   19 type  4   force =     0.00000000    0.00000000    0.00041066
     atom   20 type  4   force =     0.00000000    0.00000000    0.00055720
     atom   21 type  3   force =    -0.00005134    0.00000000   -0.00062041
     atom   22 type  3   force =     0.00005134    0.00000000   -0.00062041
     atom   23 type  1   force =     0.00000000    0.00000000   -0.00111313
     atom   24 type  1   force =     0.00000000    0.00000000   -0.00118036
     atom   25 type  4   force =    -0.00011180    0.00000000    0.00256488
     atom   26 type  4   force =     0.00011180    0.00000000    0.00256488
     atom   27 type  4   force =     0.00012822    0.00000000    0.00325390
     atom   28 type  4   force =    -0.00012822    0.00000000    0.00325390
     atom   29 type  3   force =     0.00092056    0.00000000   -0.00588238
     atom   30 type  3   force =    -0.00092056    0.00000000   -0.00588238
     atom   31 type  4   force =     0.00033884    0.00000000    0.00770753
     atom   32 type  4   force =    -0.00033884    0.00000000    0.00770753
     atom   33 type  1   force =     0.00000000    0.00000000   -0.01758396
     atom   34 type  1   force =     0.00000000    0.00000000   -0.01231769
     atom   35 type  3   force =    -0.00303772    0.00000000    0.00304364
     atom   36 type  3   force =     0.00303772    0.00000000    0.00304364
     atom   37 type  4   force =     0.00000000    0.00000000    0.03994254
     atom   38 type  4   force =     0.00000000    0.00000000    0.06577230
     atom   39 type  4   force =     0.01585215    0.00000000    0.05422906
     atom   40 type  4   force =    -0.01585215    0.00000000    0.05422906
     atom   41 type  5   force =     0.00000000    0.00000000   -0.01451780
     atom   42 type  2   force =     0.00000000    0.00000000    0.00168099
     atom   43 type  4   force =     0.00000000    0.00000000   -0.03745651
     atom   44 type  4   force =    -0.00144770    0.00000000   -0.02893446
     atom   45 type  4   force =     0.00144770    0.00000000   -0.02893446
     atom   46 type  4   force =     0.00000000    0.00000000   -0.01266119
     atom   47 type  3   force =     0.00051726    0.00000000   -0.01827731
     atom   48 type  3   force =    -0.00051726    0.00000000   -0.01827731
     atom   49 type  1   force =     0.00000000    0.00000000   -0.01963676
     atom   50 type  1   force =     0.00000000    0.00000000   -0.02493019
     atom   51 type  4   force =     0.00051558    0.00000000   -0.00037551
     atom   52 type  4   force =    -0.00051558    0.00000000   -0.00037551
     atom   53 type  3   force =    -0.00012159    0.00000000   -0.00064906
     atom   54 type  3   force =     0.00012159    0.00000000   -0.00064906
     atom   55 type  4   force =     0.00001845    0.00000000    0.00061006
     atom   56 type  4   force =    -0.00001845    0.00000000    0.00061006

     Total force =     0.134781     Total SCF correction =     0.000338

     Computing stress (Cartesian axis) and pressure

     negative rho (up, down):  9.144E-02 0.000E+00
          total   stress  (Ry/bohr**3)                   (kbar)     P=       -9.34
  -0.00001373   0.00000000   0.00000000           -2.02        0.00        0.00
   0.00000000   0.00000156   0.00000000            0.00        0.23        0.00
   0.00000000   0.00000000  -0.00017834            0.00        0.00      -26.23

     General routines

     Parallel routines

   This run was terminated on:   0:30:50  28May2021

   JOB DONE.
[1622176250.660368] [holy7c12108:183088:0]          mpool.c:43   UCX  WARN  object 0x3c7fa40 was not returned to mpool ucp_requests
[1622176250.704179] [holy7c12412:13033:0]          mpool.c:43   UCX  WARN  object 0x33c6600 was not returned to mpool ucp_requests
[1622176250.722265] [holy7c12412:13047:0]          mpool.c:43   UCX  WARN  object 0x3800740 was not returned to mpool ucp_requests
[1622176250.725223] [holy7c12412:13039:0]          mpool.c:43   UCX  WARN  object 0x43cd7c0 was not returned to mpool ucp_requests
[1622176250.725249] [holy7c12412:13039:0]          mpool.c:43   UCX  WARN  object 0x43cd980 was not returned to mpool ucp_requests
[1622176250.727436] [holy7c12412:13049:0]          mpool.c:43   UCX  WARN  object 0x4111480 was not returned to mpool ucp_requests
[1622176250.727470] [holy7c12412:13049:0]          mpool.c:43   UCX  WARN  object 0x41119c0 was not returned to mpool ucp_requests
[1622176250.727474] [holy7c12412:13049:0]          mpool.c:43   UCX  WARN  object 0x4111d40 was not returned to mpool ucp_requests
[1622176250.704490] [holy7c12412:13037:0]          mpool.c:43   UCX  WARN  object 0x4452100 was not returned to mpool ucp_requests
[1622176250.716208] [holy7c12412:13042:0]          mpool.c:43   UCX  WARN  object 0x4464700 was not returned to mpool ucp_requests
[1622176250.716691] [holy7c12412:13052:0]          mpool.c:43   UCX  WARN  object 0x3601100 was not returned to mpool ucp_requests
[1622176250.716978] [holy7c12412:13051:0]          mpool.c:43   UCX  WARN  object 0x3fba3c0 was not returned to mpool ucp_requests
[1622176250.726257] [holy7c12412:13034:0]          mpool.c:43   UCX  WARN  object 0x315eb80 was not returned to mpool ucp_requests
[1622176250.726283] [holy7c12412:13034:0]          mpool.c:43   UCX  WARN  object 0x315ef00 was not returned to mpool ucp_requests
[1622176250.730457] [holy7c12412:13044:0]          mpool.c:43   UCX  WARN  object 0x2eb1740 was not returned to mpool ucp_requests
[1622176250.730483] [holy7c12412:13044:0]          mpool.c:43   UCX  WARN  object 0x2eb1900 was not returned to mpool ucp_requests
[1622176250.727094] [holy7c12412:13046:0]          mpool.c:43   UCX  WARN  object 0x43c80c0 was not returned to mpool ucp_requests