     Program PWSCF v.6.5 starts on 25May2021 at 14:24:56

     R & G space division:  proc/nbgrp/npool/nimage =      32
     Reading input from YCBCO50_212_BaO_cleave_1.25_sep.pwi
Warning: card &IONS ignored
Warning: card     ION_DYNAMICS = 'BFGS' ignored
Warning: card / ignored
Warning: card &CELL ignored
Warning: card     CELL_DYNAMICS = 'BFGS' ignored
Warning: card     PRESS_CONV_THR = 5 ignored
Warning: card / ignored

     Current dimensions of program PWSCF are:
     Max number of different atomic species (ntypx) = 10
     Max number of k-points (npk) =  40000
     Max angular momentum in pseudopotentials (lmaxx) =  3

     Message from routine setup:
     using ibrav=0 with symmetry is DISCOURAGED, use correct ibrav instead

     bravais-lattice index     =            0
     lattice parameter (alat)  =      14.8133  a.u.
     unit-cell volume          =    8964.7417 (a.u.)^3
     number of atoms/cell      =           56
     number of atomic types    =            5
     number of electrons       =       456.00
     number of Kohn-Sham states=          274
     kinetic-energy cutoff     =      60.0000  Ry
     charge density cutoff     =     720.0000  Ry
     convergence threshold     =      1.0E-08
     mixing beta               =       0.5000
     number of iterations used =           10  local-TF  mixing
     Exchange-correlation= SLA PW PBE PBE
                           (   1   4   3   4   0   0   0)

     celldm(1)=  14.813271  celldm(2)=   0.000000  celldm(3)=   0.000000
     celldm(4)=   0.000000  celldm(5)=   0.000000  celldm(6)=   0.000000

     crystal axes: (cart. coord. in units of alat)
               a(1) = (   1.000000   0.000000   0.000000 )
               a(2) = (   0.000000   0.477453   0.000000 )
               a(3) = (   0.000000   0.000000   5.776363 )

     reciprocal axes: (cart. coord. in units 2 pi/alat)
               b(1) = (  1.000000  0.000000  0.000000 )
               b(2) = (  0.000000  2.094448  0.000000 )
               b(3) = (  0.000000  0.000000  0.173119 )

     PseudoPot. # 1 for Ba read from file:
     ./pseudo/Ba.pbe-nsp-van.UPF
     MD5 check sum: 2b9c31dd849566dd297d80989662b7a0
     Pseudo is Ultrasoft + core correction, Zval = 10.0
     Generated by new atomic code, or converted to UPF format
     Using radial grid of  907 points,  6 beta functions with:
                l(1) =   0
                l(2) =   0
                l(3) =   1
                l(4) =   1
                l(5) =   2
                l(6) =   2
     Q(r) pseudized with  6 coefficients,  rinner =    1.200   1.200   1.200
                                                       1.200   1.200

     PseudoPot. # 2 for Ca read from file:
     ./pseudo/Ca.pbe-nsp-van.UPF
     MD5 check sum: 6471098428ff4fa451746d08035ff179
     Pseudo is Ultrasoft + core correction, Zval = 10.0
     Generated by new atomic code, or converted to UPF format
     Using radial grid of  845 points,  6 beta functions with:
                l(1) =   0
                l(2) =   0
                l(3) =   1
                l(4) =   1
                l(5) =   2
                l(6) =   2
     Q(r) pseudized with  6 coefficients,  rinner =    1.200   1.200   1.200
                                                       1.200   1.200

     PseudoPot. # 3 for Cu read from file:
     ./pseudo/Cu.pbe-n-van_ak.UPF
     MD5 check sum: 34e3282627ffb533726feb647e090d62
     Pseudo is Ultrasoft + core correction, Zval = 11.0
     Generated by new atomic code, or converted to UPF format
     Using radial grid of  867 points,  6 beta functions with:
                l(1) =   0
                l(2) =   0
                l(3) =   1
                l(4) =   1
                l(5) =   2
                l(6) =   2
     Q(r) pseudized with  8 coefficients,  rinner =    1.400   1.400   1.400
                                                       1.400   1.400

     PseudoPot. # 4 for O  read from file:
     ./pseudo/O.pbe-van_ak.UPF
     MD5 check sum: 783ce7fe4c79b6a4916957118fed0856
     Pseudo is Ultrasoft, Zval =  6.0
     Generated by new atomic code, or converted to UPF format
     Using radial grid of  737 points,  4 beta functions with:
                l(1) =   0
                l(2) =   0
                l(3) =   1
                l(4) =   1
     Q(r) pseudized with  8 coefficients,  rinner =    0.800   0.800   0.800

     PseudoPot. # 5 for Y  read from file:
     ./pseudo/Y.pbe-nsp-van.UPF
     MD5 check sum: 4412fed3ab108fed87a1b7d6a69a4a38
     Pseudo is Ultrasoft + core correction, Zval = 11.0
     Generated by new atomic code, or converted to UPF format
     Using radial grid of  885 points,  6 beta functions with:
                l(1) =   0
                l(2) =   0
                l(3) =   1
                l(4) =   1
                l(5) =   2
                l(6) =   2
     Q(r) pseudized with  6 coefficients,  rinner =    1.200   1.200   1.200
                                                       1.200   1.200

     atomic species   valence    mass     pseudopotential
        Ba            10.00   137.32700     Ba( 1.00)
        Ca            10.00    40.07800     Ca( 1.00)
        Cu            11.00    63.54600     Cu( 1.00)
        O              6.00    15.99900     O ( 1.00)
        Y             11.00    88.90584     Y ( 1.00)

      4 Sym. Ops. (no inversion) found ( 2 have fractional translation)

   Cartesian axes

     site n.     atom                  positions (alat units)
         1           O   tau(   1) = (  -0.0008343   0.2387265  -0.0222443  )
         2           O   tau(   2) = (   0.5008340   0.2387265  -0.0222443  )
         3           Cu  tau(   3) = (   0.5017257   0.0000000   0.0109608  )
         4           Cu  tau(   4) = (  -0.0017260   0.0000000   0.0109608  )
         5           O   tau(   5) = (  -0.0028933   0.0000000   0.2506504  )
         6           O   tau(   6) = (   0.5028929   0.0000000   0.2506504  )
         7           Ba  tau(   7) = (   0.7499995   0.2387265   0.2749435  )
         8           Ba  tau(   8) = (   0.2499998   0.2387265   0.2755214  )
         9           Cu  tau(   9) = (   0.4980963   0.0000000   0.5208446  )
        10           Cu  tau(  10) = (   0.0019033   0.0000000   0.5208446  )
        11           O   tau(  11) = (   0.2499998   0.0000000   0.5341884  )
        12           O   tau(  12) = (   0.5083351   0.2387265   0.5569851  )
        13           O   tau(  13) = (  -0.0083354   0.2387265   0.5569851  )
        14           O   tau(  14) = (   0.7499995   0.0000000   0.5573831  )
        15           Ca  tau(  15) = (   0.2499998   0.2387265   0.7436937  )
        16           Y   tau(  16) = (   0.7499995   0.2387265   0.7469544  )
        17           O   tau(  17) = (  -0.0063798   0.2387265   0.9248530  )
        18           O   tau(  18) = (   0.5063794   0.2387265   0.9248530  )
        19           O   tau(  19) = (   0.7499995   0.0000000   0.9338544  )
        20           O   tau(  20) = (   0.2499998   0.0000000   0.9461329  )
        21           Cu  tau(  21) = (   0.0015717   0.0000000   0.9686860  )
        22           Cu  tau(  22) = (   0.4984280   0.0000000   0.9686860  )
        23           Ba  tau(  23) = (   0.2499998   0.2387265   1.2085224  )
        24           Ba  tau(  24) = (   0.7499995   0.2387265   1.2233294  )
        25           O   tau(  25) = (   0.0063772   0.0000000   1.2547537  )
        26           O   tau(  26) = (   0.4936224   0.0000000   1.2547537  )
        27           O   tau(  27) = (   0.5384045   0.2387265   1.4952521  )
        28           O   tau(  28) = (  -0.0384049   0.2387265   1.4952521  )
        29           Cu  tau(  29) = (   0.5006120   0.0000000   1.4952546  )
        30           Cu  tau(  30) = (  -0.0006123   0.0000000   1.4952546  )
        31           O   tau(  31) = (   0.4936212   0.0000000   1.7357531  )
        32           O   tau(  32) = (   0.0063785   0.0000000   1.7357531  )
        33           Ba  tau(  33) = (   0.7499995   0.2387265   1.7671824  )
        34           Ba  tau(  34) = (   0.2499998   0.2387265   1.7819920  )
        35           Cu  tau(  35) = (   0.4984280   0.0000000   2.1812855  )
        36           Cu  tau(  36) = (   0.0015717   0.0000000   2.1812855  )
        37           O   tau(  37) = (   0.2499998   0.0000000   2.2038437  )
        38           O   tau(  38) = (   0.7499995   0.0000000   2.2161133  )
        39           O   tau(  39) = (   0.5063781   0.2387265   2.2251185  )
        40           O   tau(  40) = (  -0.0063785   0.2387265   2.2251185  )
        41           Y   tau(  41) = (   0.7499995   0.2387265   2.4030120  )
        42           Ca  tau(  42) = (   0.2499998   0.2387265   2.4062816  )
        43           O   tau(  43) = (   0.7499995   0.0000000   2.5925795  )
        44           O   tau(  44) = (  -0.0083354   0.2387265   2.5929813  )
        45           O   tau(  45) = (   0.5083351   0.2387265   2.5929813  )
        46           O   tau(  46) = (   0.2499998   0.0000000   2.6157793  )
        47           Cu  tau(  47) = (   0.0019059   0.0000000   2.6291129  )
        48           Cu  tau(  48) = (   0.4980938   0.0000000   2.6291129  )
        49           Ba  tau(  49) = (   0.2499998   0.2387265   2.8744526  )
        50           Ba  tau(  50) = (   0.7499995   0.2387265   2.8749948  )
        51           O   tau(  51) = (  -0.0028895   0.0000000   2.8993020  )
        52           O   tau(  52) = (   0.5028891   0.0000000   2.8993020  )
        53           Cu  tau(  53) = (   0.5017844   0.0000000   3.1389865  )
        54           Cu  tau(  54) = (  -0.0017847   0.0000000   3.1389865  )
        55           O   tau(  55) = (   0.5008990   0.2387265   3.1721929  )
        56           O   tau(  56) = (  -0.0008994   0.2387265   3.1721929  )

     number of k points=    25  Gaussian smearing, width (Ry)=  0.0100
                       cart. coord. in units 2pi/alat
        k(    1) = (   0.0000000   0.0000000   0.0000000), wk =   0.0312500
        k(    2) = (   0.0000000   0.2618060   0.0000000), wk =   0.0625000
        k(    3) = (   0.0000000   0.5236121   0.0000000), wk =   0.0625000
        k(    4) = (   0.0000000   0.7854181   0.0000000), wk =   0.0625000
        k(    5) = (   0.0000000  -1.0472241   0.0000000), wk =   0.0312500
        k(    6) = (   0.1250000   0.0000000   0.0000000), wk =   0.0625000
        k(    7) = (   0.1250000   0.2618060   0.0000000), wk =   0.1250000
        k(    8) = (   0.1250000   0.5236121   0.0000000), wk =   0.1250000
        k(    9) = (   0.1250000   0.7854181   0.0000000), wk =   0.1250000
        k(   10) = (   0.1250000  -1.0472241   0.0000000), wk =   0.0625000
        k(   11) = (   0.2500000   0.0000000   0.0000000), wk =   0.0625000
        k(   12) = (   0.2500000   0.2618060   0.0000000), wk =   0.1250000
        k(   13) = (   0.2500000   0.5236121   0.0000000), wk =   0.1250000
        k(   14) = (   0.2500000   0.7854181   0.0000000), wk =   0.1250000
        k(   15) = (   0.2500000  -1.0472241   0.0000000), wk =   0.0625000
        k(   16) = (   0.3750000   0.0000000   0.0000000), wk =   0.0625000
        k(   17) = (   0.3750000   0.2618060   0.0000000), wk =   0.1250000
        k(   18) = (   0.3750000   0.5236121   0.0000000), wk =   0.1250000
        k(   19) = (   0.3750000   0.7854181   0.0000000), wk =   0.1250000
        k(   20) = (   0.3750000  -1.0472241   0.0000000), wk =   0.0625000
        k(   21) = (  -0.5000000   0.0000000   0.0000000), wk =   0.0312500
        k(   22) = (  -0.5000000   0.2618060   0.0000000), wk =   0.0625000
        k(   23) = (  -0.5000000   0.5236121   0.0000000), wk =   0.0625000
        k(   24) = (  -0.5000000   0.7854181   0.0000000), wk =   0.0625000
        k(   25) = (  -0.5000000  -1.0472241   0.0000000), wk =   0.0312500

     Initial potential from superposition of free atoms

     starting charge  455.69457, renormalised to  456.00000

     negative rho (up, down):  9.331E-02 0.000E+00
     Starting wfcs are  396 randomized atomic wfcs

     Self-consistent Calculation

     iteration #  1     ecut=    60.00 Ry     beta= 0.50
     Davidson diagonalization with overlap
     ethr =  1.00E-02,  avg # of iterations =  2.0

     negative rho (up, down):  8.624E-02 0.000E+00

     total energy              =   -3708.30819085 Ry
     Harris-Foulkes estimate   =   -3716.50103537 Ry
     estimated scf accuracy    <      31.46734638 Ry

[...]

     iteration # 11     ecut=    60.00 Ry     beta= 0.50
     Davidson diagonalization with overlap
     c_bands:  3 eigenvalues not converged
     ethr =  3.55E-05,  avg # of iterations =  7.3

[...]

     iteration # 25     ecut=    60.00 Ry     beta= 0.50
     Davidson diagonalization with overlap
     c_bands:  1 eigenvalues not converged
     ethr =  1.01E-08,  avg # of iterations =  2.0

[...]

     total energy              =   -3711.67823181 Ry
     Harris-Foulkes estimate   =   -3711.67823181 Ry
     estimated scf accuracy    <       0.00000002 Ry

     iteration # 36     ecut=    60.00 Ry     beta= 0.50
     Davidson diagonalization with overlap
     ethr =  4.33E-12,  avg # of iterations =  1.0

[...]

     End of self-consistent calculation

          k = 0.0000 0.0000 0.0000 ( 70419 PWs)   bands (ev):

   -38.0930 -37.8607 -35.7205 -35.4554 -23.7138 -23.4054 -22.8785 -22.8608
   -22.7502 -22.7329 -22.6790 -22.5290 -18.5682 -18.4639 -18.3075 -18.2477
   -18.0961 -17.8723 -17.0685 -16.9331 -16.7744 -16.7501 -16.6864 -16.4964
   -15.4787 -15.2856 -15.0875 -15.0327 -15.0050 -14.9329 -14.7260 -14.6238
   -14.6018 -14.5467 -14.5329 -14.5162 -14.3947 -14.3821 -14.2750 -14.1670
   -14.0888 -14.0864 -14.0648 -14.0524 -14.0481 -14.0437 -14.0287 -14.0224
   -13.9559 -13.7829 -13.7152 -13.6817 -13.6143 -13.5015  -9.0434  -8.6813
    -8.5173  -8.4588  -8.2372  -8.1752  -8.1166  -8.0950  -8.0089  -7.9895
    -7.9530  -7.9280  -7.9119  -7.8627  -7.7898  -7.7725  -7.6934  -7.6773
    -7.6735  -7.5535  -7.5518  -7.5346  -7.4883  -7.3316  -3.0472  -3.0145
    -2.8808  -2.5663  -2.2348  -2.2256  -2.1477  -2.1430  -2.1066  -2.0357
    -2.0176  -2.0048  -1.9420  -1.9031  -1.8673  -1.8314  -1.7459  -1.7288
    -1.6963  -1.6512  -1.6443  -1.6325  -1.5957  -1.5953  -1.5162  -1.3941
    -1.3723  -1.2580  -1.2471  -1.1689  -1.1050  -1.0866  -1.0015  -0.9901
    -0.9837  -0.9831  -0.9826  -0.9811  -0.9435  -0.8932  -0.8783  -0.8237
    -0.8082  -0.7904  -0.7558  -0.7517  -0.7242  -0.7055  -0.6552  -0.5940
    -0.5537  -0.4531  -0.3970  -0.3382  -0.3163  -0.3128  -0.2494  -0.2211
    -0.1972  -0.1928  -0.1926  -0.1889  -0.1475  -0.1141  -0.0868  -0.0584
    -0.0157  -0.0065  -0.0042  -0.0039   0.0017   0.0337   0.0568   0.1151
     0.1155   0.1225   0.1402   0.1507   0.1672   0.2011   0.2105   0.2121
     0.2494   0.2513   0.2532   0.3184   0.3475   0.3541   0.3678   0.4521
     0.5078   0.5122   0.5226   0.5268   0.5284   0.5367   0.5439   0.5459
     0.6364   0.6637   0.6671   0.7643   0.8430   0.9278   0.9574   0.9804
     0.9944   1.0299   1.0322   1.0716   1.0754   1.1166   1.1382   1.1774
     1.2031   1.2147   1.2246   1.2738   1.2924   1.3154   1.3160   1.3568
     1.3877   1.4031   1.4126   1.4138   1.4158   1.4955   1.5757   1.5941
     1.6164   1.7070   1.7109   1.7486   1.7815   1.7839   1.8081   1.8183
     1.8606   1.8785   1.9185   1.9258   1.9266   2.0226   2.0532   2.0587
     2.1134   2.1653   2.2394   2.2484   2.2963   2.2969   2.3436   2.4254
     2.5704   2.5732   2.5870   2.6134   2.8543   2.8603   5.0410   5.2214
     5.2749   5.7862   5.8770   6.1102   6.5944   6.6358   6.6647   6.9483
     6.9504   7.2695   7.2822   7.3626   7.3636   7.4808   7.6585   7.9174
     7.9551   8.0727   8.1186   8.1343   8.2777   8.3219   8.3305   8.4251
     8.4906   8.5212   8.5901   8.6287   8.6590   8.9694   9.0098   9.0586
     9.1355   9.1841

[...]

          k = 0.3750-1.0472 0.0000 ( 70342 PWs)   bands (ev):

[...]

          k =-0.5000 0.0000 0.0000 ( 70432 PWs)   bands (ev):

[...]

          k =-0.5000-1.0472 0.0000 ( 70316 PWs)   bands (ev):

   -38.0746 -37.8422 -35.7089 -35.4437 -23.5755 -23.2849 -22.6756 -22.6566
   -22.6460 -22.6298 -22.4958 -22.4147 -18.7363 -18.5136 -18.3938 -18.2734
   -18.1776 -18.0103 -17.1413 -16.9645 -16.8878 -16.8605 -16.7182 -16.5640
   -14.7904 -14.7240 -14.7199 -14.7009 -14.5664 -14.4997 -14.4712 -14.4445
   -14.4297 -14.4082 -14.3996 -14.3930 -14.3816 -14.3055 -14.2901 -14.2112
   -14.1793 -14.1368 -14.0423 -14.0161 -13.9408 -13.9316 -13.9315 -13.9307
   -13.9299 -13.9279 -13.8714 -13.8687 -13.7286 -13.5755  -9.1248  -9.0230
    -8.9088  -8.8334  -8.5285  -8.5264  -8.4608  -8.4424  -8.4102  -8.3940
    -8.2651  -8.1633  -8.1357  -8.1183  -8.1123  -8.0966  -8.0336  -8.0313
    -8.0129  -8.0128  -7.9788  -7.9262  -7.7726  -7.7596  -3.8473  -3.7588
    -3.6286  -3.5633  -3.4835  -3.4597  -3.3779  -3.2944  -3.1550  -3.0615
    -3.0577  -3.0570  -3.0560  -3.0009  -2.4008  -2.3857  -2.2907  -2.2708
    -2.2189  -2.1581  -2.1561  -2.0566  -2.0539  -2.0523  -2.0451  -2.0233
    -1.9626  -1.9546  -1.9545  -1.9178  -1.8952  -1.8565  -1.8260  -1.8106
    -1.6548  -1.6473  -1.5672  -1.5289  -1.5073  -1.4317  -1.4071  -1.3324
    -1.2357  -1.2155  -1.1624  -1.1550  -1.1374  -1.1312  -0.9082  -0.8536
    -0.8396  -0.8354  -0.8077  -0.7768  -0.7764  -0.7646  -0.7584  -0.7354
    -0.7328  -0.7230  -0.6484  -0.6445  -0.5715  -0.4867  -0.4216  -0.4009
    -0.3986  -0.3827  -0.3503  -0.2852  -0.2208  -0.1700  -0.0023   0.0202
     0.1830   0.2280   0.2891   0.2906   0.4743   0.4857   0.4882   0.5253
     0.5463   0.6752   0.7015   0.7059   0.7080   0.7627   0.9562   0.9604
     1.0209   1.0475   1.1105   1.1196   1.1328   1.1411   1.1593   1.2041
     1.2132   1.2160   1.2230   1.3025   1.3096   1.3353   1.3447   1.3569
     1.3635   1.4388   1.4426   1.4454   1.4795   1.5151   1.5168   1.5621
     1.5754   1.5937   1.6044   1.6186   1.6311   1.6963   1.7029   1.7084
     1.7608   1.7771   1.8253   1.8527   1.8953   1.9068   1.9148   1.9590
     2.0052   2.0125   2.0851   2.0871   2.1566   2.1905   2.1918   2.1948
     2.2045   2.2804   2.3006   2.3332   2.5392   2.5397   2.5487   2.5487
     2.7097   2.7121   2.7242   2.7275   3.4787   3.5331   3.5642   3.6379
     3.6620   3.7425   3.8226   3.8750   3.9811   4.0666   5.7710   6.1327
     6.6551   6.7230   6.7307   6.7653   6.8542   6.9764   7.2395   7.4548
     7.5153   7.6026   7.7245   7.8458   8.1162   8.2268   8.5740   8.6984
     8.7484   8.7526   9.0753   9.2066   9.2496   9.3893   9.3922   9.4192
     9.4564   9.4712   9.4923   9.5920   9.7765   9.7893   9.8110   9.8129
     9.8396   9.8666

     the Fermi energy is     2.7203 ev

!    total energy              =   -3711.67823184 Ry
     Harris-Foulkes estimate   =   -3711.67823181 Ry
     estimated scf accuracy    <          3.8E-09 Ry

     The total energy is the sum of the following terms:

     one-electron contribution =  -60096.49031469 Ry
     hartree contribution      =   30354.00031697 Ry
     xc contribution           =   -1263.79710056 Ry
     ewald contribution        =   27294.62161100 Ry
     smearing contrib. (-TS)   =      -0.01274456 Ry

     convergence has been achieved in  36 iterations

     negative rho (up, down):  9.200E-02 0.000E+00

     Forces acting on atoms (cartesian axes, Ry/au):

     atom    1 type  4   force =    -0.00000772    0.00000000   -0.00009242
     atom    2 type  4   force =     0.00000772    0.00000000   -0.00009242
     atom    3 type  3   force =    -0.00001288    0.00000000   -0.00007302
     atom    4 type  3   force =     0.00001288    0.00000000   -0.00007302
     atom    5 type  4   force =    -0.00000084    0.00000000   -0.00004234
     atom    6 type  4   force =     0.00000084    0.00000000   -0.00004234
     atom    7 type  1   force =     0.00000000    0.00000000   -0.00013259
     atom    8 type  1   force =     0.00000000    0.00000000   -0.00012173
     atom    9 type  3   force =     0.00004628    0.00000000    0.00003873
     atom   10 type  3   force =    -0.00004628    0.00000000    0.00003873
     atom   11 type  4   force =     0.00000000    0.00000000    0.00013389
     atom   12 type  4   force =     0.00000643    0.00000000    0.00010647
     atom   13 type  4   force =    -0.00000643    0.00000000    0.00010647
     atom   14 type  4   force =     0.00000000    0.00000000    0.00021205
     atom   15 type  2   force =     0.00000000    0.00000000   -0.00063793
     atom   16 type  5   force =     0.00000000    0.00000000   -0.00100875
     atom   17 type  4   force =     0.00011122    0.00000000    0.00099289
     atom   18 type  4   force =    -0.00011122    0.00000000    0.00099289
     atom   19 type  4   force =     0.00000000    0.00000000    0.00118999
     atom   20 type  4   force =     0.00000000    0.00000000    0.00151534
     atom   21 type  3   force =    -0.00010458    0.00000000   -0.00125972
     atom   22 type  3   force =     0.00010458    0.00000000   -0.00125972
     atom   23 type  1   force =     0.00000000    0.00000000   -0.00412495
     atom   24 type  1   force =     0.00000000    0.00000000   -0.00473076
     atom   25 type  4   force =    -0.00067549    0.00000000    0.00485415
     atom   26 type  4   force =     0.00067549    0.00000000    0.00485415
     atom   27 type  4   force =     0.00069709    0.00000000    0.01022991
     atom   28 type  4   force =    -0.00069709    0.00000000    0.01022991
     atom   29 type  3   force =     0.00121748    0.00000000   -0.00733026
     atom   30 type  3   force =    -0.00121748    0.00000000   -0.00733026
     atom   31 type  4   force =    -0.00718913    0.00000000    0.01130451
     atom   32 type  4   force =     0.00718913    0.00000000    0.01130451
     atom   33 type  1   force =     0.00000000    0.00000000   -0.00299919
     atom   34 type  1   force =     0.00000000    0.00000000    0.01223709
     atom   35 type  3   force =    -0.00699694    0.00000000    0.00192230
     atom   36 type  3   force =     0.00699694    0.00000000    0.00192230
     atom   37 type  4   force =     0.00000000    0.00000000   -0.00383482
     atom   38 type  4   force =     0.00000000    0.00000000    0.00500736
     atom   39 type  4   force =     0.00162898    0.00000000   -0.00007110
     atom   40 type  4   force =    -0.00162898    0.00000000   -0.00007110
     atom   41 type  5   force =     0.00000000    0.00000000   -0.03153595
     atom   42 type  2   force =     0.00000000    0.00000000   -0.02544041
     atom   43 type  4   force =     0.00000000    0.00000000    0.00411079
     atom   44 type  4   force =     0.00028012    0.00000000    0.00215840
     atom   45 type  4   force =    -0.00028012    0.00000000    0.00215840
     atom   46 type  4   force =     0.00000000    0.00000000    0.00317593
     atom   47 type  3   force =     0.00050395    0.00000000    0.00082865
     atom   48 type  3   force =    -0.00050395    0.00000000    0.00082865
     atom   49 type  1   force =     0.00000000    0.00000000   -0.00071301
     atom   50 type  1   force =     0.00000000    0.00000000   -0.00083041
     atom   51 type  4   force =     0.00006040    0.00000000    0.00066818
     atom   52 type  4   force =    -0.00006040    0.00000000    0.00066818
     atom   53 type  3   force =    -0.00003502    0.00000000   -0.00025692
     atom   54 type  3   force =     0.00003502    0.00000000   -0.00025692
     atom   55 type  4   force =    -0.00000022    0.00000000    0.00028565
     atom   56 type  4   force =     0.00000022    0.00000000    0.00028565

     Total force =     0.052623     Total SCF correction =     0.000174

     Computing stress (Cartesian axis) and pressure

     negative rho (up, down):  9.200E-02 0.000E+00
          total   stress  (Ry/bohr**3)                   (kbar)     P=       -7.08
  -0.00006353   0.00000000   0.00000000           -9.35        0.00        0.00
   0.00000000  -0.00003785   0.00000000            0.00       -5.57        0.00
   0.00000000   0.00000000  -0.00004303            0.00        0.00       -6.33

     General routines

     Parallel routines

   This run was terminated on:  14:58:30  25May2021

   JOB DONE.
[1621969110.717872] [holy7c04508:181137:0]          mpool.c:43   UCX  WARN  object 0x4172c40 was not returned to mpool ucp_requests
[1621969110.717891] [holy7c04508:181137:0]          mpool.c:43   UCX  WARN  object 0x4172fc0 was not returned to mpool ucp_requests
[1621969110.723890] [holy7c04504:12974:0]          mpool.c:43   UCX  WARN  object 0x35d4780 was not returned to mpool ucp_requests
[1621969110.720745] [holy7c04502:155254:0]          mpool.c:43   UCX  WARN  object 0x4210f40 was not returned to mpool ucp_requests
[1621969110.728640] [holy7c04505:179477:0]          mpool.c:43   UCX  WARN  object 0x4221100 was not returned to mpool ucp_requests
[1621969110.733292] [holy7c04506:193037:0]          mpool.c:43   UCX  WARN  object 0x3fed080 was not returned to mpool ucp_requests
[1621969110.724230] [holy7c04504:12975:0]          mpool.c:43   UCX  WARN  object 0x456ce40 was not returned to mpool ucp_requests
[1621969110.724246] [holy7c04504:12975:0]          mpool.c:43   UCX  WARN  object 0x456d000 was not returned to mpool ucp_requests
[1621969110.740684] [holy7c04505:179476:0]          mpool.c:43   UCX  WARN  object 0x39b47c0 was not returned to mpool ucp_requests
[1621969110.740702] [holy7c04505:179476:0]          mpool.c:43   UCX  WARN  object 0x39b4980 was not returned to mpool ucp_requests
[1621969110.740561] [holy7c04505:179478:0]          mpool.c:43   UCX  WARN  object 0x36e8180 was not returned to mpool ucp_requests
[1621969110.740581] [holy7c04505:179478:0]          mpool.c:43   UCX  WARN  object 0x36e8880 was not returned to mpool ucp_requests
[1621969110.739149] [holy7c04506:193034:0]          mpool.c:43   UCX  WARN  object 0x46d7c40 was not returned to mpool ucp_requests
[1621969110.739173] [holy7c04506:193034:0]          mpool.c:43   UCX  WARN  object 0x46d8500 was not returned to mpool ucp_requests
[1621969110.741420] [holy7c04506:193032:0]          mpool.c:43   UCX  WARN  object 0x4098180 was not returned to mpool ucp_requests
[1621969110.741519] [holy7c04506:193036:0]          mpool.c:43   UCX  WARN  object 0x3658f80 was not returned to mpool ucp_requests
[1621969110.730930] [holy7c04507:177459:0]          mpool.c:43   UCX  WARN  object 0x31e89c0 was not returned to mpool ucp_requests
[1621969110.730721] [holy7c04507:177457:0]          mpool.c:43   UCX  WARN  object 0x42ceac0 was not returned to mpool ucp_requests
[1621969110.730738] [holy7c04507:177457:0]          mpool.c:43   UCX  WARN  object 0x42cf000 was not returned to mpool ucp_requests