     Program PWSCF v.6.5 starts on 25May2021 at 14:24:53

     R & G space division:  proc/nbgrp/npool/nimage =      32
     Reading input from YCBCO50_212_BaO_cleave_1.5_sep.pwi
Warning: card &IONS ignored
Warning: card     ION_DYNAMICS = 'BFGS' ignored
Warning: card / ignored
Warning: card &CELL ignored
Warning: card     CELL_DYNAMICS = 'BFGS' ignored
Warning: card     PRESS_CONV_THR = 5 ignored
Warning: card / ignored

     Current dimensions of program PWSCF are:
     Max number of different atomic species (ntypx) = 10
     Max number of k-points (npk) =  40000
     Max angular momentum in pseudopotentials (lmaxx) =  3

     Message from routine setup:
     using ibrav=0 with symmetry is DISCOURAGED, use correct ibrav instead

     bravais-lattice index     =            0
     lattice parameter (alat)  =      14.8133  a.u.
     unit-cell volume          =    9014.2378 (a.u.)^3
     number of atoms/cell      =           56
     number of atomic types    =            5
     number of electrons       =       456.00
     number of Kohn-Sham states=          274
     kinetic-energy cutoff     =      60.0000  Ry
     charge density cutoff     =     720.0000  Ry
     convergence threshold     =      1.0E-08
     mixing beta               =       0.5000
     number of iterations used =           10  local-TF  mixing
     Exchange-correlation= SLA PW PBE PBE
                           (   1   4   3   4   0   0   0)

     celldm(1)=  14.813271  celldm(2)=   0.000000  celldm(3)=   0.000000
     celldm(4)=   0.000000  celldm(5)=   0.000000  celldm(6)=   0.000000

     crystal axes: (cart. coord. in units of alat)
               a(1) = (   1.000000   0.000000   0.000000 )
               a(2) = (   0.000000   0.477453   0.000000 )
               a(3) = (   0.000000   0.000000   5.808256 )

     reciprocal axes: (cart. coord. in units 2 pi/alat)
               b(1) = (  1.000000  0.000000  0.000000 )
               b(2) = (  0.000000  2.094448  0.000000 )
               b(3) = (  0.000000  0.000000  0.172169 )

     PseudoPot. # 1 for Ba read from file:
     ./pseudo/Ba.pbe-nsp-van.UPF
     MD5 check sum: 2b9c31dd849566dd297d80989662b7a0
     Pseudo is Ultrasoft + core correction, Zval = 10.0
     Generated by new atomic code, or converted to UPF format
     Using radial grid of  907 points,  6 beta functions with:
                l(1) =   0
                l(2) =   0
                l(3) =   1
                l(4) =   1
                l(5) =   2
                l(6) =   2
     Q(r) pseudized with  6 coefficients,  rinner =    1.200   1.200   1.200
                                                       1.200   1.200

     PseudoPot. # 2 for Ca read from file:
     ./pseudo/Ca.pbe-nsp-van.UPF
     MD5 check sum: 6471098428ff4fa451746d08035ff179
     Pseudo is Ultrasoft + core correction, Zval = 10.0
     Generated by new atomic code, or converted to UPF format
     Using radial grid of  845 points,  6 beta functions with:
                l(1) =   0
                l(2) =   0
                l(3) =   1
                l(4) =   1
                l(5) =   2
                l(6) =   2
     Q(r) pseudized with  6 coefficients,  rinner =    1.200   1.200   1.200
                                                       1.200   1.200

     PseudoPot. # 3 for Cu read from file:
     ./pseudo/Cu.pbe-n-van_ak.UPF
     MD5 check sum: 34e3282627ffb533726feb647e090d62
     Pseudo is Ultrasoft + core correction, Zval = 11.0
     Generated by new atomic code, or converted to UPF format
     Using radial grid of  867 points,  6 beta functions with:
                l(1) =   0
                l(2) =   0
                l(3) =   1
                l(4) =   1
                l(5) =   2
                l(6) =   2
     Q(r) pseudized with  8 coefficients,  rinner =    1.400   1.400   1.400
                                                       1.400   1.400

     PseudoPot. # 4 for O  read from file:
     ./pseudo/O.pbe-van_ak.UPF
     MD5 check sum: 783ce7fe4c79b6a4916957118fed0856
     Pseudo is Ultrasoft, Zval =  6.0
     Generated by new atomic code, or converted to UPF format
     Using radial grid of  737 points,  4 beta functions with:
                l(1) =   0
                l(2) =   0
                l(3) =   1
                l(4) =   1
     Q(r) pseudized with  8 coefficients,  rinner =    0.800   0.800   0.800

     PseudoPot. # 5 for Y  read from file:
     ./pseudo/Y.pbe-nsp-van.UPF
     MD5 check sum: 4412fed3ab108fed87a1b7d6a69a4a38
     Pseudo is Ultrasoft + core correction, Zval = 11.0
     Generated by new atomic code, or converted to UPF format
     Using radial grid of  885 points,  6 beta functions with:
                l(1) =   0
                l(2) =   0
                l(3) =   1
                l(4) =   1
                l(5) =   2
                l(6) =   2
     Q(r) pseudized with  6 coefficients,  rinner =    1.200   1.200   1.200
                                                       1.200   1.200

     atomic species   valence    mass     pseudopotential
        Ba            10.00   137.32700     Ba( 1.00)
        Ca            10.00    40.07800     Ca( 1.00)
        Cu            11.00    63.54600     Cu( 1.00)
        O              6.00    15.99900     O ( 1.00)
        Y             11.00    88.90584     Y ( 1.00)

      4 Sym. Ops. (no inversion) found ( 2 have fractional translation)

   Cartesian axes

     site n.     atom                  positions (alat units)
         1           O   tau(   1) = (  -0.0008343   0.2387265  -0.0222443  )
         2           O   tau(   2) = (   0.5008340   0.2387265  -0.0222443  )
         3           Cu  tau(   3) = (   0.5017257   0.0000000   0.0109608  )
         4           Cu  tau(   4) = (  -0.0017260   0.0000000   0.0109608  )
         5           O   tau(   5) = (  -0.0028933   0.0000000   0.2506504  )
         6           O   tau(   6) = (   0.5028929   0.0000000   0.2506504  )
         7           Ba  tau(   7) = (   0.7499995   0.2387265   0.2749435  )
         8           Ba  tau(   8) = (   0.2499998   0.2387265   0.2755214  )
         9           Cu  tau(   9) = (   0.4980963   0.0000000   0.5208446  )
        10           Cu  tau(  10) = (   0.0019033   0.0000000   0.5208446  )
        11           O   tau(  11) = (   0.2499998   0.0000000   0.5341884  )
        12           O   tau(  12) = (   0.5083351   0.2387265   0.5569851  )
        13           O   tau(  13) = (  -0.0083354   0.2387265   0.5569851  )
        14           O   tau(  14) = (   0.7499995   0.0000000   0.5573831  )
        15           Ca  tau(  15) = (   0.2499998   0.2387265   0.7436937  )
        16           Y   tau(  16) = (   0.7499995   0.2387265   0.7469544  )
        17           O   tau(  17) = (  -0.0063798   0.2387265   0.9248530  )
        18           O   tau(  18) = (   0.5063794   0.2387265   0.9248530  )
        19           O   tau(  19) = (   0.7499995   0.0000000   0.9338544  )
        20           O   tau(  20) = (   0.2499998   0.0000000   0.9461329  )
        21           Cu  tau(  21) = (   0.0015717   0.0000000   0.9686860  )
        22           Cu  tau(  22) = (   0.4984280   0.0000000   0.9686860  )
        23           Ba  tau(  23) = (   0.2499998   0.2387265   1.2085224  )
        24           Ba  tau(  24) = (   0.7499995   0.2387265   1.2233294  )
        25           O   tau(  25) = (   0.0063772   0.0000000   1.2547537  )
        26           O   tau(  26) = (   0.4936224   0.0000000   1.2547537  )
        27           O   tau(  27) = (   0.5384045   0.2387265   1.4952521  )
        28           O   tau(  28) = (  -0.0384049   0.2387265   1.4952521  )
        29           Cu  tau(  29) = (   0.5006120   0.0000000   1.4952546  )
        30           Cu  tau(  30) = (  -0.0006123   0.0000000   1.4952546  )
        31           O   tau(  31) = (   0.4936212   0.0000000   1.7357531  )
        32           O   tau(  32) = (   0.0063785   0.0000000   1.7357531  )
        33           Ba  tau(  33) = (   0.7499995   0.2387265   1.7671824  )
        34           Ba  tau(  34) = (   0.2499998   0.2387265   1.7819920  )
        35           Cu  tau(  35) = (   0.4984280   0.0000000   2.2131780  )
        36           Cu  tau(  36) = (   0.0015717   0.0000000   2.2131780  )
        37           O   tau(  37) = (   0.2499998   0.0000000   2.2357361  )
        38           O   tau(  38) = (   0.7499995   0.0000000   2.2480058  )
        39           O   tau(  39) = (   0.5063781   0.2387265   2.2570109  )
        40           O   tau(  40) = (  -0.0063785   0.2387265   2.2570109  )
        41           Y   tau(  41) = (   0.7499995   0.2387265   2.4349045  )
        42           Ca  tau(  42) = (   0.2499998   0.2387265   2.4381741  )
        43           O   tau(  43) = (   0.7499995   0.0000000   2.6244719  )
        44           O   tau(  44) = (  -0.0083354   0.2387265   2.6248738  )
        45           O   tau(  45) = (   0.5083351   0.2387265   2.6248738  )
        46           O   tau(  46) = (   0.2499998   0.0000000   2.6476718  )
        47           Cu  tau(  47) = (   0.0019059   0.0000000   2.6610054  )
        48           Cu  tau(  48) = (   0.4980938   0.0000000   2.6610054  )
        49           Ba  tau(  49) = (   0.2499998   0.2387265   2.9063451  )
        50           Ba  tau(  50) = (   0.7499995   0.2387265   2.9068873  )
        51           O   tau(  51) = (  -0.0028895   0.0000000   2.9311944  )
        52           O   tau(  52) = (   0.5028891   0.0000000   2.9311944  )
        53           Cu  tau(  53) = (   0.5017844   0.0000000   3.1708789  )
        54           Cu  tau(  54) = (  -0.0017847   0.0000000   3.1708789  )
        55           O   tau(  55) = (   0.5008990   0.2387265   3.2040854  )
        56           O   tau(  56) = (  -0.0008994   0.2387265   3.2040854  )

     number of k points=    25  Gaussian smearing, width (Ry)=  0.0100
                       cart. coord. in units 2pi/alat
        k(    1) = (   0.0000000   0.0000000   0.0000000), wk =   0.0312500
        k(    2) = (   0.0000000   0.2618060   0.0000000), wk =   0.0625000
        k(    3) = (   0.0000000   0.5236121   0.0000000), wk =   0.0625000
        k(    4) = (   0.0000000   0.7854181   0.0000000), wk =   0.0625000
        k(    5) = (   0.0000000  -1.0472241   0.0000000), wk =   0.0312500
        k(    6) = (   0.1250000   0.0000000   0.0000000), wk =   0.0625000
        k(    7) = (   0.1250000   0.2618060   0.0000000), wk =   0.1250000
        k(    8) = (   0.1250000   0.5236121   0.0000000), wk =   0.1250000
        k(    9) = (   0.1250000   0.7854181   0.0000000), wk =   0.1250000
        k(   10) = (   0.1250000  -1.0472241   0.0000000), wk =   0.0625000
        k(   11) = (   0.2500000   0.0000000   0.0000000), wk =   0.0625000
        k(   12) = (   0.2500000   0.2618060   0.0000000), wk =   0.1250000
        k(   13) = (   0.2500000   0.5236121   0.0000000), wk =   0.1250000
        k(   14) = (   0.2500000   0.7854181   0.0000000), wk =   0.1250000
        k(   15) = (   0.2500000  -1.0472241   0.0000000), wk =   0.0625000
        k(   16) = (   0.3750000   0.0000000   0.0000000), wk =   0.0625000
        k(   17) = (   0.3750000   0.2618060   0.0000000), wk =   0.1250000
        k(   18) = (   0.3750000   0.5236121   0.0000000), wk =   0.1250000
        k(   19) = (   0.3750000   0.7854181   0.0000000), wk =   0.1250000
        k(   20) = (   0.3750000  -1.0472241   0.0000000), wk =   0.0625000
        k(   21) = (  -0.5000000   0.0000000   0.0000000), wk =   0.0312500
        k(   22) = (  -0.5000000   0.2618060   0.0000000), wk =   0.0625000
        k(   23) = (  -0.5000000   0.5236121   0.0000000), wk =   0.0625000
        k(   24) = (  -0.5000000   0.7854181   0.0000000), wk =   0.0625000
        k(   25) = (  -0.5000000  -1.0472241   0.0000000), wk =   0.0312500

     Initial potential from superposition of free atoms

     starting charge  455.69457, renormalised to  456.00000

     negative rho (up, down):  9.341E-02 0.000E+00
     Starting wfcs are  396 randomized atomic wfcs

     Self-consistent Calculation

     iteration #  1     ecut=    60.00 Ry     beta= 0.50
     Davidson diagonalization with overlap
     ethr =  1.00E-02,  avg # of iterations =  2.0

     negative rho (up, down):  8.639E-02 0.000E+00

     total energy              =   -3708.29622097 Ry
     Harris-Foulkes estimate   =   -3716.52076652 Ry
     estimated scf accuracy    <      31.88062601 Ry

[...]

     iteration # 12     ecut=    60.00 Ry     beta= 0.50
     Davidson diagonalization with overlap
     c_bands:  1 eigenvalues not converged
     c_bands:  1 eigenvalues not converged
     ethr =  1.19E-05,  avg # of iterations =  8.9

[...]

     iteration # 25     ecut=    60.00 Ry     beta= 0.50
     Davidson diagonalization with overlap
     c_bands:  1 eigenvalues not converged
     ethr =  2.71E-08,  avg # of iterations =  5.1

[...]

     total energy              =   -3711.66125447 Ry
     Harris-Foulkes estimate   =   -3711.66125446 Ry
     estimated scf accuracy    <       0.00000001 Ry

     iteration # 36     ecut=    60.00 Ry     beta= 0.50
     Davidson diagonalization with overlap
     ethr =  2.50E-12,  avg # of iterations =  1.0

[...]

     End of self-consistent calculation

          k = 0.0000 0.0000 0.0000 ( 70809 PWs)   bands (ev):

   -38.1234 -37.8672 -35.7511 -35.4608 -23.9115 -23.5770 -22.9065 -22.8868
   -22.7782 -22.7589 -22.7247 -22.5752 -18.5986 -18.4943 -18.3135 -18.2559
   -18.1265 -17.8789 -17.0991 -16.9637 -16.7808 -16.7796 -16.6933 -16.5021
   -15.5087 -15.3003 -15.1504 -15.0646 -15.0306 -14.9972 -14.7568 -14.6539
   -14.6233 -14.5770 -14.5593 -14.5443 -14.4158 -14.4109 -14.2793 -14.1965
   -14.1355 -14.1103 -14.1056 -14.0831 -14.0825 -14.0717 -14.0542 -14.0348
   -13.9868 -13.8529 -13.7470 -13.7101 -13.7008 -13.4907  -9.2468  -8.8527
    -8.6998  -8.6495  -8.3987  -8.3461  -8.1447  -8.1208  -8.0377  -8.0155
    -7.9993  -7.9559  -7.9381  -7.9094  -7.8178  -7.7986  -7.7215  -7.7196
    -7.7035  -7.5993  -7.5798  -7.5606  -7.5352  -7.3775  -3.0756  -3.0395
    -2.9122  -2.5697  -2.2627  -2.2524  -2.1755  -2.1701  -2.1362  -2.0898
    -2.0681  -2.0273  -1.9741  -1.9332  -1.8982  -1.8532  -1.7587  -1.7583
    -1.7265  -1.7014  -1.6588  -1.6545  -1.6508  -1.6258  -1.5353  -1.4236
    -1.3716  -1.3008  -1.2624  -1.1982  -1.1592  -1.1105  -1.0573  -1.0404
    -1.0111  -1.0106  -1.0102  -1.0087  -0.9751  -0.9356  -0.9270  -0.8501
    -0.8276  -0.8119  -0.7835  -0.7788  -0.7731  -0.7627  -0.6633  -0.6183
    -0.6072  -0.5072  -0.4292  -0.3596  -0.3441  -0.3400  -0.2799  -0.2547
    -0.2250  -0.2207  -0.2197  -0.2162  -0.1641  -0.1346  -0.1301  -0.0907
    -0.0571  -0.0447  -0.0324  -0.0317  -0.0243   0.0023   0.0339   0.0866
     0.0876   0.0956   0.1204   0.1250   0.1283   0.1477   0.1830   0.1845
     0.2218   0.2237   0.2379   0.2855   0.3162   0.3261   0.3438   0.4039
     0.4552   0.4599   0.4948   0.5012   0.5075   0.5141   0.5167   0.5176
     0.6295   0.6299   0.6401   0.7330   0.7901   0.9213   0.9386   0.9523
     0.9688   1.0001   1.0014   1.0480   1.0651   1.0687   1.1173   1.1378
     1.1738   1.1877   1.1947   1.2489   1.2661   1.2683   1.2713   1.3178
     1.3185   1.3568   1.3780   1.3804   1.3939   1.4278   1.5448   1.5539
     1.5944   1.6792   1.6837   1.7046   1.7537   1.7626   1.7817   1.7984
     1.8023   1.8282   1.8614   1.8790   1.8860   2.0173   2.0248   2.0329
     2.0461   2.1643   2.1943   2.2192   2.2506   2.2732   2.3499   2.3841
     2.5433   2.5452   2.5497   2.5949   2.8291   2.8313   4.9028   5.1923
     5.2270   5.6383   5.8180   6.0367   6.5344   6.5953   6.6230   6.7024
     6.8035   7.2411   7.2552   7.3348   7.3360   7.3579   7.5602   7.7705
     7.9162   8.0343   8.0695   8.1040   8.1735   8.2058   8.2911   8.3210
     8.4210   8.4600   8.5160   8.6121   8.6167   8.9245   8.9391   8.9708
     9.0950   9.1494

[...]

          k = 0.3750-1.0472 0.0000 ( 70750 PWs)   bands (ev):

[...]

          k =-0.5000 0.0000 0.0000 ( 70848 PWs)   bands (ev):

[...]

          k =-0.5000-1.0472 0.0000 ( 70756 PWs)   bands (ev):

   -38.1050 -37.8487 -35.7395 -35.4491 -23.7746 -23.4561 -22.7036 -22.6825
   -22.6740 -22.6560 -22.5413 -22.4612 -18.7667 -18.5206 -18.4241 -18.3037
   -18.1857 -18.0160 -17.1720 -16.9951 -16.8940 -16.8911 -16.7253 -16.5687
   -14.8195 -14.7521 -14.7444 -14.7269 -14.5958 -14.5485 -14.5137 -14.4915
   -14.4729 -14.4280 -14.4251 -14.4220 -14.4049 -14.3365 -14.3209 -14.2336
   -14.2273 -14.1900 -14.1246 -14.0808 -13.9590 -13.9584 -13.9582 -13.9576
   -13.9404 -13.9360 -13.9275 -13.9247 -13.7246 -13.5633  -9.3116  -9.1863
    -9.1136  -9.0191  -8.6999  -8.6850  -8.4888  -8.4684  -8.4382  -8.4202
    -8.3115  -8.2088  -8.1637  -8.1444  -8.1403  -8.1228  -8.0616  -8.0595
    -8.0388  -8.0387  -8.0257  -7.9737  -7.8201  -7.8089  -3.8767  -3.7814
    -3.6591  -3.5878  -3.5339  -3.4993  -3.4215  -3.3271  -3.1619  -3.0882
    -3.0854  -3.0847  -3.0828  -3.0078  -2.4288  -2.4119  -2.3189  -2.2970
    -2.2582  -2.1932  -2.1878  -2.0914  -2.0831  -2.0802  -2.0714  -2.0433
    -1.9978  -1.9931  -1.9927  -1.9425  -1.9336  -1.8999  -1.8361  -1.8170
    -1.7035  -1.6888  -1.5692  -1.5432  -1.5328  -1.4477  -1.4403  -1.3519
    -1.2837  -1.2605  -1.1939  -1.1817  -1.1656  -1.1605  -0.9685  -0.8863
    -0.8707  -0.8675  -0.8646  -0.8004  -0.8003  -0.7931  -0.7834  -0.7635
    -0.7579  -0.7516  -0.6573  -0.6555  -0.6033  -0.5189  -0.4725  -0.4252
    -0.4225  -0.4214  -0.3820  -0.3255  -0.2227  -0.1719  -0.0528  -0.0304
     0.1511   0.1992   0.2556   0.2562   0.4467   0.4551   0.4597   0.4925
     0.5160   0.6324   0.6360   0.6737   0.6891   0.7333   0.8869   0.9169
     0.9764   0.9995   1.0402   1.0896   1.1100   1.1161   1.1187   1.1627
     1.1759   1.1864   1.1979   1.2733   1.3070   1.3192   1.3209   1.3279
     1.3328   1.4086   1.4161   1.4316   1.4543   1.4848   1.4918   1.5330
     1.5469   1.5488   1.5625   1.5707   1.5829   1.6423   1.6597   1.6976
     1.7111   1.7564   1.7946   1.7997   1.8619   1.8837   1.8849   1.9107
     1.9406   1.9820   2.0511   2.0730   2.1403   2.1632   2.1641   2.1670
     2.1928   2.2629   2.2709   2.2983   2.5118   2.5120   2.5210   2.5214
     2.6820   2.6849   2.6966   2.7001   3.4492   3.5085   3.5349   3.6145
     3.6324   3.7121   3.8095   3.8601   3.9257   4.0075   5.6625   5.9921
     6.5873   6.6952   6.7038   6.7358   6.8138   6.9444   7.1504   7.2714
     7.3512   7.4995   7.5715   7.7648   7.9058   8.1727   8.4595   8.6251
     8.6320   8.6395   9.0357   9.1659   9.2236   9.3574   9.3637   9.3934
     9.4186   9.4268   9.4661   9.4864   9.7380   9.7418   9.7591   9.7811
     9.8403   9.8459

     the Fermi energy is     2.6927 ev

!    total energy              =   -3711.66125450 Ry
     Harris-Foulkes estimate   =   -3711.66125447 Ry
     estimated scf accuracy    <          4.2E-09 Ry

     The total energy is the sum of the following terms:

     one-electron contribution =  -59206.56330626 Ry
     hartree contribution      =   29908.42025676 Ry
     xc contribution           =   -1263.77736237 Ry
     ewald contribution        =   26850.27226985 Ry
     smearing contrib. (-TS)   =      -0.01311246 Ry

     convergence has been achieved in  36 iterations

     negative rho (up, down):  9.217E-02 0.000E+00

     Forces acting on atoms (cartesian axes, Ry/au):

     atom    1 type  4   force =    -0.00000562    0.00000000   -0.00009675
     atom    2 type  4   force =     0.00000562    0.00000000   -0.00009675
     atom    3 type  3   force =    -0.00001396    0.00000000   -0.00005228
     atom    4 type  3   force =     0.00001396    0.00000000   -0.00005228
     atom    5 type  4   force =     0.00000246    0.00000000   -0.00004170
     atom    6 type  4   force =    -0.00000246    0.00000000   -0.00004170
     atom    7 type  1   force =     0.00000000    0.00000000   -0.00015075
     atom    8 type  1   force =     0.00000000    0.00000000   -0.00013980
     atom    9 type  3   force =     0.00004427    0.00000000    0.00002841
     atom   10 type  3   force =    -0.00004427    0.00000000    0.00002841
     atom   11 type  4   force =     0.00000000    0.00000000    0.00017237
     atom   12 type  4   force =     0.00000274    0.00000000    0.00015833
     atom   13 type  4   force =    -0.00000274    0.00000000    0.00015833
     atom   14 type  4   force =     0.00000000    0.00000000    0.00026926
     atom   15 type  2   force =     0.00000000    0.00000000   -0.00076941
     atom   16 type  5   force =     0.00000000    0.00000000   -0.00120133
     atom   17 type  4   force =     0.00013308    0.00000000    0.00123511
     atom   18 type  4   force =    -0.00013308    0.00000000    0.00123511
     atom   19 type  4   force =     0.00000000    0.00000000    0.00146376
     atom   20 type  4   force =     0.00000000    0.00000000    0.00183801
     atom   21 type  3   force =    -0.00011727    0.00000000   -0.00148089
     atom   22 type  3   force =     0.00011727    0.00000000   -0.00148089
     atom   23 type  1   force =     0.00000000    0.00000000   -0.00478731
     atom   24 type  1   force =     0.00000000    0.00000000   -0.00547313
     atom   25 type  4   force =    -0.00075678    0.00000000    0.00538098
     atom   26 type  4   force =     0.00075678    0.00000000    0.00538098
     atom   27 type  4   force =     0.00050820    0.00000000    0.01163693
     atom   28 type  4   force =    -0.00050820    0.00000000    0.01163693
     atom   29 type  3   force =     0.00166052    0.00000000   -0.00939625
     atom   30 type  3   force =    -0.00166052    0.00000000   -0.00939625
     atom   31 type  4   force =    -0.00799897    0.00000000    0.01546737
     atom   32 type  4   force =     0.00799897    0.00000000    0.01546737
     atom   33 type  1   force =     0.00000000    0.00000000   -0.00941839
     atom   34 type  1   force =     0.00000000    0.00000000    0.00554363
     atom   35 type  3   force =    -0.00771530    0.00000000    0.00089347
     atom   36 type  3   force =     0.00771530    0.00000000    0.00089347
     atom   37 type  4   force =     0.00000000    0.00000000   -0.00023619
     atom   38 type  4   force =     0.00000000    0.00000000    0.00772282
     atom   39 type  4   force =     0.00176775    0.00000000    0.00188080
     atom   40 type  4   force =    -0.00176775    0.00000000    0.00188080
     atom   41 type  5   force =     0.00000000    0.00000000   -0.03349226
     atom   42 type  2   force =     0.00000000    0.00000000   -0.02675213
     atom   43 type  4   force =     0.00000000    0.00000000    0.00457930
     atom   44 type  4   force =     0.00033065    0.00000000    0.00236105
     atom   45 type  4   force =    -0.00033065    0.00000000    0.00236105
     atom   46 type  4   force =     0.00000000    0.00000000    0.00346429
     atom   47 type  3   force =     0.00053198    0.00000000    0.00089702
     atom   48 type  3   force =    -0.00053198    0.00000000    0.00089702
     atom   49 type  1   force =     0.00000000    0.00000000   -0.00077126
     atom   50 type  1   force =     0.00000000    0.00000000   -0.00090357
     atom   51 type  4   force =     0.00006510    0.00000000    0.00071018
     atom   52 type  4   force =    -0.00006510    0.00000000    0.00071018
     atom   53 type  3   force =    -0.00004041    0.00000000   -0.00033209
     atom   54 type  3   force =     0.00004041    0.00000000   -0.00033209
     atom   55 type  4   force =    -0.00000194    0.00000000    0.00027135
     atom   56 type  4   force =     0.00000194    0.00000000    0.00027135

     Total force =     0.058197     Total SCF correction =     0.000213

     Computing stress (Cartesian axis) and pressure

     negative rho (up, down):  9.217E-02 0.000E+00
          total   stress  (Ry/bohr**3)                   (kbar)     P=       -7.27
  -0.00006870   0.00000000   0.00000000          -10.11        0.00        0.00
   0.00000000  -0.00003878   0.00000000            0.00       -5.71        0.00
   0.00000000   0.00000000  -0.00004073            0.00        0.00       -5.99

     General routines

     Parallel routines

   This run was terminated on:  14:57:52  25May2021

   JOB DONE.
[1621969072.684362] [holy7c04501:152393:0]          mpool.c:43   UCX  WARN  object 0x3149340 was not returned to mpool ucp_requests
[1621969072.682848] [holy7c04410:23588:0]          mpool.c:43   UCX  WARN  object 0x2f53080 was not returned to mpool ucp_requests
[1621969072.683975] [holy7c04409:128292:0]          mpool.c:43   UCX  WARN  object 0x3a01680 was not returned to mpool ucp_requests
[1621969072.683993] [holy7c04409:128292:0]          mpool.c:43   UCX  WARN  object 0x3a01840 was not returned to mpool ucp_requests
[1621969072.682016] [holy7c04406:200005:0]          mpool.c:43   UCX  WARN  object 0x3a8d900 was not returned to mpool ucp_requests
[1621969072.682038] [holy7c04406:200005:0]          mpool.c:43   UCX  WARN  object 0x3a8e000 was not returned to mpool ucp_requests
[1621969072.694011] [holy7c04408:81725:0]          mpool.c:43   UCX  WARN  object 0x3d9eb80 was not returned to mpool ucp_requests
[1621969072.694035] [holy7c04408:81725:0]          mpool.c:43   UCX  WARN  object 0x3d9ef00 was not returned to mpool ucp_requests
[1621969072.690033] [holy7c04403:188343:0]          mpool.c:43   UCX  WARN  object 0x372ff80 was not returned to mpool ucp_requests
[1621969072.689966] [holy7c04403:188342:0]          mpool.c:43   UCX  WARN  object 0x4235b40 was not returned to mpool ucp_requests
[1621969072.684397] [holy7c04501:152391:0]          mpool.c:43   UCX  WARN  object 0x3585100 was not returned to mpool ucp_requests
[1621969072.684415] [holy7c04501:152391:0]          mpool.c:43   UCX  WARN  object 0x35852c0 was not returned to mpool ucp_requests
[1621969072.684418] [holy7c04501:152391:0]          mpool.c:43   UCX  WARN  object 0x35859c0 was not returned to mpool ucp_requests
[1621969072.686604] [holy7c04501:152394:0]          mpool.c:43   UCX  WARN  object 0x295f1c0 was not returned to mpool ucp_requests
[1621969072.690272] [holy7c04410:23589:0]          mpool.c:43   UCX  WARN  object 0x46b31c0 was not returned to mpool ucp_requests
[1621969072.699528] [holy7c04408:81729:0]          mpool.c:43   UCX  WARN  object 0x377e380 was not returned to mpool ucp_requests
[1621969072.699418] [holy7c04408:81728:0]          mpool.c:43   UCX  WARN  object 0x3b6f8c0 was not returned to mpool ucp_requests
[1621969072.700819] [holy7c04408:81723:0]          mpool.c:43   UCX  WARN  object 0x2cf2a00 was not returned to mpool ucp_requests
[1621969072.700839] [holy7c04408:81723:0]          mpool.c:43   UCX  WARN  object 0x2cf2bc0 was not returned to mpool ucp_requests
[1621969072.700610] [holy7c04408:81724:0]          mpool.c:43   UCX  WARN  object 0x3cffd40 was not returned to mpool ucp_requests