     Program PWSCF v.6.5 starts on 27May2021 at 23:55:22

     R & G space division:  proc/nbgrp/npool/nimage =      32
     Reading input from YCBCO50_212_Y_cleave_0.5_sep.pwi
Warning: card &IONS ignored
Warning: card     ION_DYNAMICS = 'BFGS' ignored
Warning: card / ignored
Warning: card &CELL ignored
Warning: card     CELL_DYNAMICS = 'BFGS' ignored
Warning: card     PRESS_CONV_THR = 5 ignored
Warning: card / ignored

     Current dimensions of program PWSCF are:
     Max number of different atomic species (ntypx) = 10
     Max number of k-points (npk) =  40000
     Max angular momentum in pseudopotentials (lmaxx) =  3

     Message from routine setup:
     using ibrav=0 with symmetry is DISCOURAGED, use correct ibrav instead

     bravais-lattice index     =            0
     lattice parameter (alat)  =      14.8133  a.u.
     unit-cell volume          =    8816.2533 (a.u.)^3
     number of atoms/cell      =           56
     number of atomic types    =            5
     number of electrons       =       456.00
     number of Kohn-Sham states=          274
     kinetic-energy cutoff     =      60.0000  Ry
     charge density cutoff     =     720.0000  Ry
     convergence threshold     =      1.0E-08
     mixing beta               =       0.5000
     number of iterations used =           10  local-TF  mixing
     Exchange-correlation= SLA PW PBE PBE
                           (   1   4   3   4   0   0   0)

     celldm(1)=  14.813271  celldm(2)=   0.000000  celldm(3)=   0.000000
     celldm(4)=   0.000000  celldm(5)=   0.000000  celldm(6)=   0.000000

     crystal axes: (cart. coord. in units of alat)
               a(1) = (   1.000000   0.000000   0.000000 )
               a(2) = (   0.000000   0.477453   0.000000 )
               a(3) = (   0.000000   0.000000   5.680686 )

     reciprocal axes: (cart. coord. in units 2 pi/alat)
               b(1) = (  1.000000  0.000000  0.000000 )
               b(2) = (  0.000000  2.094448  0.000000 )
               b(3) = (  0.000000  0.000000  0.176035 )

     PseudoPot. # 1 for Ba read from file:
     ./pseudo/Ba.pbe-nsp-van.UPF
     MD5 check sum: 2b9c31dd849566dd297d80989662b7a0
     Pseudo is Ultrasoft + core correction, Zval = 10.0
     Generated by new atomic code, or converted to UPF format
     Using radial grid of  907 points,  6 beta functions with:
                l(1) =   0
                l(2) =   0
                l(3) =   1
                l(4) =   1
                l(5) =   2
                l(6) =   2
     Q(r) pseudized with  6 coefficients,  rinner =    1.200   1.200   1.200
                                                       1.200   1.200

     PseudoPot. # 2 for Ca read from file:
     ./pseudo/Ca.pbe-nsp-van.UPF
     MD5 check sum: 6471098428ff4fa451746d08035ff179
     Pseudo is Ultrasoft + core correction, Zval = 10.0
     Generated by new atomic code, or converted to UPF format
     Using radial grid of  845 points,  6 beta functions with:
                l(1) =   0
                l(2) =   0
                l(3) =   1
                l(4) =   1
                l(5) =   2
                l(6) =   2
     Q(r) pseudized with  6 coefficients,  rinner =    1.200   1.200   1.200
                                                       1.200   1.200

     PseudoPot. # 3 for Cu read from file:
     ./pseudo/Cu.pbe-n-van_ak.UPF
     MD5 check sum: 34e3282627ffb533726feb647e090d62
     Pseudo is Ultrasoft + core correction, Zval = 11.0
     Generated by new atomic code, or converted to UPF format
     Using radial grid of  867 points,  6 beta functions with:
                l(1) =   0
                l(2) =   0
                l(3) =   1
                l(4) =   1
                l(5) =   2
                l(6) =   2
     Q(r) pseudized with  8 coefficients,  rinner =    1.400   1.400   1.400
                                                       1.400   1.400

     PseudoPot. # 4 for O  read from file:
     ./pseudo/O.pbe-van_ak.UPF
     MD5 check sum: 783ce7fe4c79b6a4916957118fed0856
     Pseudo is Ultrasoft, Zval =  6.0
     Generated by new atomic code, or converted to UPF format
     Using radial grid of  737 points,  4 beta functions with:
                l(1) =   0
                l(2) =   0
                l(3) =   1
                l(4) =   1
     Q(r) pseudized with  8 coefficients,  rinner =    0.800   0.800   0.800

     PseudoPot. # 5 for Y  read from file:
     ./pseudo/Y.pbe-nsp-van.UPF
     MD5 check sum: 4412fed3ab108fed87a1b7d6a69a4a38
     Pseudo is Ultrasoft + core correction, Zval = 11.0
     Generated by new atomic code, or converted to UPF format
     Using radial grid of  885 points,  6 beta functions with:
                l(1) =   0
                l(2) =   0
                l(3) =   1
                l(4) =   1
                l(5) =   2
                l(6) =   2
     Q(r) pseudized with  6 coefficients,  rinner =    1.200   1.200   1.200
                                                       1.200   1.200

     atomic species   valence    mass     pseudopotential
        Ba            10.00   137.32700     Ba( 1.00)
        Ca            10.00    40.07800     Ca( 1.00)
        Cu            11.00    63.54600     Cu( 1.00)
        O              6.00    15.99900     O ( 1.00)
        Y             11.00    88.90584     Y ( 1.00)

      4 Sym. Ops. (no inversion) found ( 2 have fractional translation)

   Cartesian axes

     site n.     atom                  positions (alat units)
         1           O   tau(   1) = (  -0.0008343   0.2387265  -0.0222443  )
         2           O   tau(   2) = (   0.5008340   0.2387265  -0.0222443  )
         3           Cu  tau(   3) = (   0.5017257   0.0000000   0.0109608  )
         4           Cu  tau(   4) = (  -0.0017260   0.0000000   0.0109608  )
         5           O   tau(   5) = (  -0.0028933   0.0000000   0.2506504  )
         6           O   tau(   6) = (   0.5028929   0.0000000   0.2506504  )
         7           Ba  tau(   7) = (   0.7499995   0.2387265   0.2749435  )
         8           Ba  tau(   8) = (   0.2499998   0.2387265   0.2755214  )
         9           Cu  tau(   9) = (   0.4980963   0.0000000   0.5208446  )
        10           Cu  tau(  10) = (   0.0019033   0.0000000   0.5208446  )
        11           O   tau(  11) = (   0.2499998   0.0000000   0.5341884  )
        12           O   tau(  12) = (   0.5083351   0.2387265   0.5569851  )
        13           O   tau(  13) = (  -0.0083354   0.2387265   0.5569851  )
        14           O   tau(  14) = (   0.7499995   0.0000000   0.5573831  )
        15           Ca  tau(  15) = (   0.2499998   0.2387265   0.7436937  )
        16           Y   tau(  16) = (   0.7499995   0.2387265   0.7469544  )
        17           O   tau(  17) = (  -0.0063798   0.2387265   0.9248530  )
        18           O   tau(  18) = (   0.5063794   0.2387265   0.9248530  )
        19           O   tau(  19) = (   0.7499995   0.0000000   0.9338544  )
        20           O   tau(  20) = (   0.2499998   0.0000000   0.9461329  )
        21           Cu  tau(  21) = (   0.0015717   0.0000000   0.9686860  )
        22           Cu  tau(  22) = (   0.4984280   0.0000000   0.9686860  )
        23           Ba  tau(  23) = (   0.2499998   0.2387265   1.2085224  )
        24           Ba  tau(  24) = (   0.7499995   0.2387265   1.2233294  )
        25           O   tau(  25) = (   0.0063772   0.0000000   1.2547537  )
        26           O   tau(  26) = (   0.4936224   0.0000000   1.2547537  )
        27           O   tau(  27) = (   0.5384045   0.2387265   1.4952521  )
        28           O   tau(  28) = (  -0.0384049   0.2387265   1.4952521  )
        29           Cu  tau(  29) = (   0.5006120   0.0000000   1.4952546  )
        30           Cu  tau(  30) = (  -0.0006123   0.0000000   1.4952546  )
        31           O   tau(  31) = (   0.4936212   0.0000000   1.7357531  )
        32           O   tau(  32) = (   0.0063785   0.0000000   1.7357531  )
        33           Ba  tau(  33) = (   0.7499995   0.2387265   1.7671824  )
        34           Ba  tau(  34) = (   0.2499998   0.2387265   1.7819920  )
        35           Cu  tau(  35) = (   0.4984280   0.0000000   2.0218232  )
        36           Cu  tau(  36) = (   0.0015717   0.0000000   2.0218232  )
        37           O   tau(  37) = (   0.2499998   0.0000000   2.0443814  )
        38           O   tau(  38) = (   0.7499995   0.0000000   2.0566511  )
        39           O   tau(  39) = (   0.5063781   0.2387265   2.0656562  )
        40           O   tau(  40) = (  -0.0063785   0.2387265   2.0656562  )
        41           Y   tau(  41) = (   0.7499995   0.2387265   2.2435498  )
        42           Ca  tau(  42) = (   0.2499998   0.2387265   2.2468194  )
        43           O   tau(  43) = (   0.7499995   0.0000000   2.4969021  )
        44           O   tau(  44) = (  -0.0083354   0.2387265   2.4973040  )
        45           O   tau(  45) = (   0.5083351   0.2387265   2.4973040  )
        46           O   tau(  46) = (   0.2499998   0.0000000   2.5201020  )
        47           Cu  tau(  47) = (   0.0019059   0.0000000   2.5334356  )
        48           Cu  tau(  48) = (   0.4980938   0.0000000   2.5334356  )
        49           Ba  tau(  49) = (   0.2499998   0.2387265   2.7787753  )
        50           Ba  tau(  50) = (   0.7499995   0.2387265   2.7793174  )
        51           O   tau(  51) = (  -0.0028895   0.0000000   2.8036246  )
        52           O   tau(  52) = (   0.5028891   0.0000000   2.8036246  )
        53           Cu  tau(  53) = (   0.5017844   0.0000000   3.0433091  )
        54           Cu  tau(  54) = (  -0.0017847   0.0000000   3.0433091  )
        55           O   tau(  55) = (   0.5008990   0.2387265   3.0765155  )
        56           O   tau(  56) = (  -0.0008994   0.2387265   3.0765155  )

     number of k points=    25  Gaussian smearing, width (Ry)=  0.0100
                       cart. coord. in units 2pi/alat
        k(    1) = (   0.0000000   0.0000000   0.0000000), wk =   0.0312500
        k(    2) = (   0.0000000   0.2618060   0.0000000), wk =   0.0625000
        k(    3) = (   0.0000000   0.5236121   0.0000000), wk =   0.0625000
        k(    4) = (   0.0000000   0.7854181   0.0000000), wk =   0.0625000
        k(    5) = (   0.0000000  -1.0472241   0.0000000), wk =   0.0312500
        k(    6) = (   0.1250000   0.0000000   0.0000000), wk =   0.0625000
        k(    7) = (   0.1250000   0.2618060   0.0000000), wk =   0.1250000
        k(    8) = (   0.1250000   0.5236121   0.0000000), wk =   0.1250000
        k(    9) = (   0.1250000   0.7854181   0.0000000), wk =   0.1250000
        k(   10) = (   0.1250000  -1.0472241   0.0000000), wk =   0.0625000
        k(   11) = (   0.2500000   0.0000000   0.0000000), wk =   0.0625000
        k(   12) = (   0.2500000   0.2618060   0.0000000), wk =   0.1250000
        k(   13) = (   0.2500000   0.5236121   0.0000000), wk =   0.1250000
        k(   14) = (   0.2500000   0.7854181   0.0000000), wk =   0.1250000
        k(   15) = (   0.2500000  -1.0472241   0.0000000), wk =   0.0625000
        k(   16) = (   0.3750000   0.0000000   0.0000000), wk =   0.0625000
        k(   17) = (   0.3750000   0.2618060   0.0000000), wk =   0.1250000
        k(   18) = (   0.3750000   0.5236121   0.0000000), wk =   0.1250000
        k(   19) = (   0.3750000   0.7854181   0.0000000), wk =   0.1250000
        k(   20) = (   0.3750000  -1.0472241   0.0000000), wk =   0.0625000
        k(   21) = (  -0.5000000   0.0000000   0.0000000), wk =   0.0312500
        k(   22) = (  -0.5000000   0.2618060   0.0000000), wk =   0.0625000
        k(   23) = (  -0.5000000   0.5236121   0.0000000), wk =   0.0625000
        k(   24) = (  -0.5000000   0.7854181   0.0000000), wk =   0.0625000
        k(   25) = (  -0.5000000  -1.0472241   0.0000000), wk =   0.0312500

     Initial potential from superposition of free atoms

     starting charge  455.69457, renormalised to  456.00000

     negative rho (up, down):  9.331E-02 0.000E+00
     Starting wfcs are  396 randomized atomic wfcs

     Self-consistent Calculation

     iteration #  1     ecut=    60.00 Ry     beta= 0.50
     Davidson diagonalization with overlap
     ethr =  1.00E-02,  avg # of iterations =  2.0

     negative rho (up, down):  8.587E-02 0.000E+00

     total energy              =   -3708.53451660 Ry
     Harris-Foulkes estimate   =   -3716.38071789 Ry
     estimated scf accuracy    <      29.56927754 Ry

[...]

     iteration # 13     ecut=    60.00 Ry     beta= 0.50
     Davidson diagonalization with overlap
     c_bands:  2 eigenvalues not converged
     ethr =  2.83E-05,  avg # of iterations =  6.2

[...]

     iteration # 21     ecut=    60.00 Ry     beta= 0.50
     Davidson diagonalization with overlap
     c_bands:  1 eigenvalues not converged
     ethr =  1.17E-07,  avg # of iterations =  6.4

[...]

     total energy              =   -3711.67282824 Ry
     Harris-Foulkes estimate   =   -3711.67282825 Ry
     estimated scf accuracy    <       0.00000001 Ry

     iteration # 33     ecut=    60.00 Ry     beta= 0.50
     Davidson diagonalization with overlap
     ethr =  2.73E-12,  avg # of iterations =  1.0

[...]

     End of self-consistent calculation

          k = 0.0000 0.0000 0.0000 ( 69231 PWs)   bands (ev):

   -39.2252 -37.9621 -36.6919 -35.5888 -22.7584 -22.6341 -22.6301 -22.6075
   -22.5074 -22.4727 -22.4628 -22.3157 -19.3656 -19.3168 -19.1708 -18.4375
   -18.3335 -17.9653 -17.8050 -17.7822 -17.7013 -16.9369 -16.8019 -16.6183
   -15.3498 -15.3287 -14.9244 -14.8943 -14.8394 -14.8357 -14.7390 -14.6290
   -14.5908 -14.5830 -14.4931 -14.4162 -14.3955 -14.3952 -14.3347 -14.2447
   -14.2004 -14.0405 -13.9605 -13.9384 -13.9295 -13.9260 -13.9201 -13.9095
   -13.8580 -13.8221 -13.6050 -13.5564 -13.4956 -13.4265  -7.9962  -7.9519
    -7.8874  -7.8327  -7.8080  -7.8071  -7.7315  -7.7002  -7.6997  -7.6698
    -7.6368  -7.5973  -7.5734  -7.5572  -7.4821  -7.4744  -7.4684  -7.4317
    -7.4075  -7.3446  -7.3178  -7.2682  -7.2660  -7.1213  -2.9694  -2.9250
    -2.7462  -2.7122  -2.1463  -2.1154  -2.0815  -2.0292  -2.0129  -2.0125
    -2.0081  -1.9800  -1.9433  -1.8205  -1.7743  -1.7356  -1.7275  -1.6805
    -1.6033  -1.5663  -1.5311  -1.4674  -1.3929  -1.3622  -1.3183  -1.3046
    -1.2683  -1.2201  -1.1608  -1.1085  -1.0899  -1.0725  -1.0436  -0.8792
    -0.8654  -0.8639  -0.8638  -0.8624  -0.8127  -0.8099  -0.7919  -0.7506
    -0.7138  -0.7119  -0.7059  -0.6377  -0.6367  -0.6132  -0.5641  -0.4977
    -0.4537  -0.4055  -0.3538  -0.2662  -0.2387  -0.1975  -0.1788  -0.1760
    -0.1183  -0.1011  -0.0781  -0.0734  -0.0508  -0.0182   0.0281   0.0640
     0.0683   0.0982   0.1035   0.1126   0.1150   0.1436   0.1835   0.1900
     0.2094   0.2350   0.2373   0.2646   0.2838   0.3254   0.3307   0.3647
     0.3699   0.4081   0.4222   0.4251   0.4561   0.4592   0.4657   0.4740
     0.4839   0.5272   0.5987   0.6418   0.6619   0.6630   0.6925   0.6927
     0.7462   0.8080   0.8750   0.8884   1.0049   1.0404   1.0630   1.1004
     1.1039   1.1492   1.1494   1.1579   1.1917   1.2332   1.2823   1.3254
     1.3294   1.3459   1.3502   1.3595   1.3829   1.4601   1.4796   1.4975
     1.5283   1.5418   1.5510   1.6342   1.6533   1.6629   1.6969   1.7090
     1.7521   1.7704   1.8210   1.8262   1.8473   1.9012   1.9136   1.9205
     1.9555   1.9561   2.0396   2.0481   2.0923   2.1734   2.2369   2.3104
     2.3269   2.3349   2.3645   2.4061   2.4253   2.4567   2.5285   2.5398
     2.6479   2.6918   2.6960   2.8204   2.9738   2.9998   5.0604   5.3392
     5.4695   5.8704   6.2415   6.5940   6.7472   6.8090   6.9502   7.0680
     7.2423   7.3884   7.3998   7.4416   7.4814   7.5609   7.5711   7.7275
     7.8222   8.1509   8.1656   8.2641   8.3038   8.3878   8.6122   8.6199
     8.6748   8.7063   8.7214   8.7707   9.0100   9.0130   9.0299   9.0974
     9.1650   9.2116

[...]

          k = 0.3750-1.0472 0.0000 ( 69214 PWs)   bands (ev):

[...]

          k =-0.5000 0.0000 0.0000 ( 69240 PWs)   bands (ev):

[...]

          k =-0.5000-1.0472 0.0000 ( 69164 PWs)   bands (ev):

   -39.2101 -37.9437 -36.6821 -35.5772 -22.5554 -22.5259 -22.4229 -22.4219
   -22.4105 -22.3541 -22.2878 -22.1999 -19.5737 -19.3276 -19.1544 -18.6057
   -18.2633 -18.1425 -17.9370 -17.7997 -17.6721 -17.0096 -16.8334 -16.7289
   -14.7555 -14.6658 -14.6119 -14.6033 -14.5801 -14.5556 -14.5434 -14.4400
   -14.4294 -14.3658 -14.3208 -14.2486 -14.1750 -14.1722 -14.1430 -14.1384
   -14.1382 -14.1096 -14.0211 -13.9885 -13.9736 -13.9637 -13.8595 -13.8423
   -13.8119 -13.8111 -13.8075 -13.8068 -13.6855 -13.6748  -8.3408  -8.2901
    -8.2281  -8.2053  -8.1905  -8.0875  -8.0511  -8.0157  -7.9922  -7.9550
    -7.9482  -7.9133  -7.9108  -7.9012  -7.8866  -7.8753  -7.8334  -7.8072
    -7.7509  -7.7269  -7.6887  -7.6568  -7.5355  -7.4999  -3.7245  -3.7067
    -3.5095  -3.4827  -3.3121  -3.2863  -3.2449  -3.2012  -3.1272  -3.1266
    -2.9389  -2.9382  -2.9326  -2.9302  -2.2805  -2.2128  -2.2017  -2.1935
    -2.1700  -2.1142  -2.0996  -2.0632  -2.0415  -2.0178  -1.9616  -1.9495
    -1.9348  -1.8602  -1.8582  -1.8371  -1.8366  -1.7281  -1.7100  -1.6743
    -1.6047  -1.5759  -1.4278  -1.3798  -1.3642  -1.2717  -1.2674  -1.1996
    -1.1050  -1.0782  -1.0591  -1.0312  -0.9468  -0.9341  -0.8665  -0.8511
    -0.8314  -0.7775  -0.7187  -0.6990  -0.6917  -0.6784  -0.6427  -0.6178
    -0.6168  -0.6133  -0.5979  -0.5843  -0.5722  -0.5346  -0.4792  -0.4341
    -0.4263  -0.3500  -0.2407  -0.2282  -0.2281  -0.2089   0.2221   0.2306
     0.3705   0.3766   0.4554   0.4577   0.5410   0.5679   0.6119   0.6177
     0.6707   0.6765   0.7091   0.8157   0.8534   0.9832   1.0294   1.0870
     1.1585   1.1689   1.2015   1.2539   1.2624   1.2936   1.2990   1.3236
     1.3548   1.3640   1.3720   1.4178   1.4272   1.4316   1.4529   1.4794
     1.4921   1.5092   1.5325   1.5709   1.5751   1.5980   1.6311   1.6435
     1.6614   1.7068   1.7729   1.7806   1.8141   1.8547   1.8599   1.9110
     1.9305   1.9359   1.9691   1.9900   1.9903   2.0330   2.0417   2.0479
     2.1437   2.1463   2.2171   2.2195   2.2889   2.3041   2.3106   2.3108
     2.3369   2.3559   2.4968   2.6296   2.6585   2.6633   2.6674   2.6739
     2.8297   2.8446   2.8542   2.8662   3.5746   3.6073   3.6081   3.6894
     3.7707   3.7888   3.8698   3.9235   4.1931   4.2918   5.8565   6.2961
     6.7107   6.8424   6.8872   6.8939   6.9617   6.9821   7.1194   7.5747
     7.7358   8.1078   8.2966   8.3814   8.4702   8.4874   8.6069   8.7138
     8.9121   9.0194   9.2235   9.2239   9.3223   9.3437   9.4129   9.5133
     9.5650   9.5781   9.6987   9.7008   9.7435   9.7714   9.7915   9.8643
     9.8708   9.9492

     the Fermi energy is     2.8385 ev

!    total energy              =   -3711.67282822 Ry
     Harris-Foulkes estimate   =   -3711.67282824 Ry
     estimated scf accuracy    <          7.2E-09 Ry

     The total energy is the sum of the following terms:

     one-electron contribution =  -63959.66374347 Ry
     hartree contribution      =   32287.20808073 Ry
     xc contribution           =   -1263.85914271 Ry
     ewald contribution        =   29224.65509597 Ry
     smearing contrib. (-TS)   =      -0.01311874 Ry

     convergence has been achieved in  33 iterations

     negative rho (up, down):  9.198E-02 0.000E+00

     Forces acting on atoms (cartesian axes, Ry/au):

     atom    1 type  4   force =    -0.00001312    0.00000000   -0.00007929
     atom    2 type  4   force =     0.00001312    0.00000000   -0.00007929
     atom    3 type  3   force =    -0.00001805    0.00000000   -0.00009864
     atom    4 type  3   force =     0.00001805    0.00000000   -0.00009864
     atom    5 type  4   force =    -0.00000399    0.00000000   -0.00005324
     atom    6 type  4   force =     0.00000399    0.00000000   -0.00005324
     atom    7 type  1   force =     0.00000000    0.00000000   -0.00005387
     atom    8 type  1   force =     0.00000000    0.00000000   -0.00005092
     atom    9 type  3   force =     0.00000628    0.00000000   -0.00008368
     atom   10 type  3   force =    -0.00000628    0.00000000   -0.00008368
     atom   11 type  4   force =     0.00000000    0.00000000   -0.00000085
     atom   12 type  4   force =    -0.00001611    0.00000000   -0.00005007
     atom   13 type  4   force =     0.00001611    0.00000000   -0.00005007
     atom   14 type  4   force =     0.00000000    0.00000000   -0.00001417
     atom   15 type  2   force =     0.00000000    0.00000000   -0.00009138
     atom   16 type  5   force =     0.00000000    0.00000000   -0.00013592
     atom   17 type  4   force =     0.00003643    0.00000000    0.00011953
     atom   18 type  4   force =    -0.00003643    0.00000000    0.00011953
     atom   19 type  4   force =     0.00000000    0.00000000    0.00012580
     atom   20 type  4   force =     0.00000000    0.00000000    0.00022417
     atom   21 type  3   force =    -0.00003818    0.00000000   -0.00033326
     atom   22 type  3   force =     0.00003818    0.00000000   -0.00033326
     atom   23 type  1   force =     0.00000000    0.00000000   -0.00042846
     atom   24 type  1   force =     0.00000000    0.00000000   -0.00048589
     atom   25 type  4   force =    -0.00004204    0.00000000    0.00126635
     atom   26 type  4   force =     0.00004204    0.00000000    0.00126635
     atom   27 type  4   force =     0.00027532    0.00000000    0.00165228
     atom   28 type  4   force =    -0.00027532    0.00000000    0.00165228
     atom   29 type  3   force =     0.00027156    0.00000000   -0.00280732
     atom   30 type  3   force =    -0.00027156    0.00000000   -0.00280732
     atom   31 type  4   force =     0.00029506    0.00000000    0.00310999
     atom   32 type  4   force =    -0.00029506    0.00000000    0.00310999
     atom   33 type  1   force =     0.00000000    0.00000000   -0.00932098
     atom   34 type  1   force =     0.00000000    0.00000000   -0.00652666
     atom   35 type  3   force =    -0.00268517    0.00000000    0.00182503
     atom   36 type  3   force =     0.00268517    0.00000000    0.00182503
     atom   37 type  4   force =     0.00000000    0.00000000    0.02173509
     atom   38 type  4   force =     0.00000000    0.00000000    0.03938945
     atom   39 type  4   force =     0.00899765    0.00000000    0.03319926
     atom   40 type  4   force =    -0.00899765    0.00000000    0.03319926
     atom   41 type  5   force =     0.00000000    0.00000000    0.03567256
     atom   42 type  2   force =     0.00000000    0.00000000    0.02652596
     atom   43 type  4   force =     0.00000000    0.00000000   -0.04300558
     atom   44 type  4   force =    -0.00250981    0.00000000   -0.03253422
     atom   45 type  4   force =     0.00250981    0.00000000   -0.03253422
     atom   46 type  4   force =     0.00000000    0.00000000   -0.01796623
     atom   47 type  3   force =    -0.00051334    0.00000000   -0.01054739
     atom   48 type  3   force =     0.00051334    0.00000000   -0.01054739
     atom   49 type  1   force =     0.00000000    0.00000000   -0.01559474
     atom   50 type  1   force =     0.00000000    0.00000000   -0.01999648
     atom   51 type  4   force =     0.00040786    0.00000000    0.00041989
     atom   52 type  4   force =    -0.00040786    0.00000000    0.00041989
     atom   53 type  3   force =    -0.00010758    0.00000000   -0.00101438
     atom   54 type  3   force =     0.00010758    0.00000000   -0.00101438
     atom   55 type  4   force =    -0.00001184    0.00000000    0.00100870
     atom   56 type  4   force =     0.00001184    0.00000000    0.00100870

     Total force =     0.108327     Total SCF correction =     0.000398

     Computing stress (Cartesian axis) and pressure

     negative rho (up, down):  9.198E-02 0.000E+00
          total   stress  (Ry/bohr**3)                   (kbar)     P=       -7.41
  -0.00001451   0.00000000   0.00000000           -2.13        0.00        0.00
   0.00000000  -0.00001018   0.00000000            0.00       -1.50        0.00
   0.00000000   0.00000000  -0.00012646            0.00        0.00      -18.60

     General routines

     Parallel routines

   This run was terminated on:   0:30:25  28May2021

   JOB DONE.
[1622176225.409011] [holy7c06209:48205:0]          mpool.c:43   UCX  WARN  object 0x425d040 was not returned to mpool ucp_requests
[1622176225.419478] [holy7c06209:48206:0]          mpool.c:43   UCX  WARN  object 0x35fd180 was not returned to mpool ucp_requests
[1622176225.418577] [holy7c06209:48201:0]          mpool.c:43   UCX  WARN  object 0x3baa040 was not returned to mpool ucp_requests
[1622176225.418255] [holy7c06207:185184:0]          mpool.c:43   UCX  WARN  object 0x3287dc0 was not returned to mpool ucp_requests
[1622176225.418286] [holy7c06207:185184:0]          mpool.c:43   UCX  WARN  object 0x3288300 was not returned to mpool ucp_requests
[1622176225.417712] [holy7c06207:185196:0]          mpool.c:43   UCX  WARN  object 0x4610f40 was not returned to mpool ucp_requests
[1622176225.419632] [holy7c06207:185194:0]          mpool.c:43   UCX  WARN  object 0x39f8c00 was not returned to mpool ucp_requests
[1622176225.419654] [holy7c06207:185194:0]          mpool.c:43   UCX  WARN  object 0x39f8f80 was not returned to mpool ucp_requests
[1622176225.418769] [holy7c06207:185187:0]          mpool.c:43   UCX  WARN  object 0x3660100 was not returned to mpool ucp_requests
[1622176225.422340] [holy7c06207:185188:0]          mpool.c:43   UCX  WARN  object 0x3296440 was not returned to mpool ucp_requests
[1622176225.425664] [holy7c06207:185192:0]          mpool.c:43   UCX  WARN  object 0x32b6a40 was not returned to mpool ucp_requests
[1622176225.426205] [holy7c06207:185182:0]          mpool.c:43   UCX  WARN  object 0x3c57780 was not returned to mpool ucp_requests
[1622176225.422236] [holy7c06207:185189:0]          mpool.c:43   UCX  WARN  object 0x4295b00 was not returned to mpool ucp_requests
[1622176225.422262] [holy7c06207:185189:0]          mpool.c:43   UCX  WARN  object 0x4296040 was not returned to mpool ucp_requests
[1622176225.422266] [holy7c06207:185189:0]          mpool.c:43   UCX  WARN  object 0x4296200 was not returned to mpool ucp_requests
[1622176225.417151] [holy7c06207:185183:0]          mpool.c:43   UCX  WARN  object 0x42c1cc0 was not returned to mpool ucp_requests
[1622176225.420234] [holy7c06209:48203:0]          mpool.c:43   UCX  WARN  object 0x399f280 was not returned to mpool ucp_requests
[1622176225.420263] [holy7c06209:48203:0]          mpool.c:43   UCX  WARN  object 0x399f980 was not returned to mpool ucp_requests