     Program PWSCF v.6.5 starts on 28May2021 at 10: 0:21

     R & G space division:  proc/nbgrp/npool/nimage =      32
     Reading input from YCBCO50_212_CuO_cleave_2.5_sep.pwi
Warning: card &IONS ignored
Warning: card     ION_DYNAMICS = 'BFGS' ignored
Warning: card / ignored
Warning: card &CELL ignored
Warning: card     CELL_DYNAMICS = 'BFGS' ignored
Warning: card     PRESS_CONV_THR = 5 ignored
Warning: card / ignored

     Current dimensions of program PWSCF are:
     Max number of different atomic species (ntypx) = 10
     Max number of k-points (npk) =  40000
     Max angular momentum in pseudopotentials (lmaxx) =  3

     Message from routine setup:
     using ibrav=0 with symmetry is DISCOURAGED, use correct ibrav instead

     bravais-lattice index     =            0
     lattice parameter (alat)  =      14.8133  a.u.
     unit-cell volume          =    9212.2223 (a.u.)^3
     number of atoms/cell      =           56
     number of atomic types    =            5
     number of electrons       =       456.00
     number of Kohn-Sham states=          274
     kinetic-energy cutoff     =      60.0000  Ry
     charge density cutoff     =     720.0000  Ry
     convergence threshold     =      1.0E-08
     mixing beta               =       0.5000
     number of iterations used =           10  local-TF  mixing
     Exchange-correlation= SLA PW PBE PBE
                           (   1   4   3   4   0   0   0)

     celldm(1)=  14.813271  celldm(2)=   0.000000  celldm(3)=   0.000000
     celldm(4)=   0.000000  celldm(5)=   0.000000  celldm(6)=   0.000000

     crystal axes: (cart. coord. in units of alat)
               a(1) = (   1.000000   0.000000   0.000000 )
               a(2) = (   0.000000   0.477453   0.000000 )
               a(3) = (   0.000000   0.000000   5.935826 )

     reciprocal axes: (cart. coord. in units 2 pi/alat)
               b(1) = (  1.000000  0.000000  0.000000 )
               b(2) = (  0.000000  2.094448  0.000000 )
               b(3) = (  0.000000  0.000000  0.168469 )

     PseudoPot. # 1 for Ba read from file:
     ./pseudo/Ba.pbe-nsp-van.UPF
     MD5 check sum: 2b9c31dd849566dd297d80989662b7a0
     Pseudo is Ultrasoft + core correction, Zval = 10.0
     Generated by new atomic code, or converted to UPF format
     Using radial grid of  907 points,  6 beta functions with:
                l(1) =   0
                l(2) =   0
                l(3) =   1
                l(4) =   1
                l(5) =   2
                l(6) =   2
     Q(r) pseudized with  6 coefficients,  rinner =    1.200   1.200   1.200
                                                       1.200   1.200

     PseudoPot. # 2 for Ca read from file:
     ./pseudo/Ca.pbe-nsp-van.UPF
     MD5 check sum: 6471098428ff4fa451746d08035ff179
     Pseudo is Ultrasoft + core correction, Zval = 10.0
     Generated by new atomic code, or converted to UPF format
     Using radial grid of  845 points,  6 beta functions with:
                l(1) =   0
                l(2) =   0
                l(3) =   1
                l(4) =   1
                l(5) =   2
                l(6) =   2
     Q(r) pseudized with  6 coefficients,  rinner =    1.200   1.200   1.200
                                                       1.200   1.200

     PseudoPot. # 3 for Cu read from file:
     ./pseudo/Cu.pbe-n-van_ak.UPF
     MD5 check sum: 34e3282627ffb533726feb647e090d62
     Pseudo is Ultrasoft + core correction, Zval = 11.0
     Generated by new atomic code, or converted to UPF format
     Using radial grid of  867 points,  6 beta functions with:
                l(1) =   0
                l(2) =   0
                l(3) =   1
                l(4) =   1
                l(5) =   2
                l(6) =   2
     Q(r) pseudized with  8 coefficients,  rinner =    1.400   1.400   1.400
                                                       1.400   1.400

     PseudoPot. # 4 for O  read from file:
     ./pseudo/O.pbe-van_ak.UPF
     MD5 check sum: 783ce7fe4c79b6a4916957118fed0856
     Pseudo is Ultrasoft, Zval =  6.0
     Generated by new atomic code, or converted to UPF format
     Using radial grid of  737 points,  4 beta functions with:
                l(1) =   0
                l(2) =   0
                l(3) =   1
                l(4) =   1
     Q(r) pseudized with  8 coefficients,  rinner =    0.800   0.800   0.800

     PseudoPot. # 5 for Y  read from file:
     ./pseudo/Y.pbe-nsp-van.UPF
     MD5 check sum: 4412fed3ab108fed87a1b7d6a69a4a38
     Pseudo is Ultrasoft + core correction, Zval = 11.0
     Generated by new atomic code, or converted to UPF format
     Using radial grid of  885 points,  6 beta functions with:
                l(1) =   0
                l(2) =   0
                l(3) =   1
                l(4) =   1
                l(5) =   2
                l(6) =   2
     Q(r) pseudized with  6 coefficients,  rinner =    1.200   1.200   1.200
                                                       1.200   1.200

     atomic species   valence    mass     pseudopotential
        Ba            10.00   137.32700     Ba( 1.00)
        Ca            10.00    40.07800     Ca( 1.00)
        Cu            11.00    63.54600     Cu( 1.00)
        O              6.00    15.99900     O ( 1.00)
        Y             11.00    88.90584     Y ( 1.00)

      4 Sym. Ops. (no inversion) found ( 2 have fractional translation)

   Cartesian axes

     site n.     atom                  positions (alat units)
         1           O   tau(   1) = (  -0.0008343   0.2387265  -0.0222443  )
         2           O   tau(   2) = (   0.5008340   0.2387265  -0.0222443  )
         3           Cu  tau(   3) = (   0.5017257   0.0000000   0.0109608  )
         4           Cu  tau(   4) = (  -0.0017260   0.0000000   0.0109608  )
         5           O   tau(   5) = (  -0.0028933   0.0000000   0.2506504  )
         6           O   tau(   6) = (   0.5028929   0.0000000   0.2506504  )
         7           Ba  tau(   7) = (   0.7499995   0.2387265   0.2749435  )
         8           Ba  tau(   8) = (   0.2499998   0.2387265   0.2755214  )
         9           Cu  tau(   9) = (   0.4980963   0.0000000   0.5208446  )
        10           Cu  tau(  10) = (   0.0019033   0.0000000   0.5208446  )
        11           O   tau(  11) = (   0.2499998   0.0000000   0.5341884  )
        12           O   tau(  12) = (   0.5083351   0.2387265   0.5569851  )
        13           O   tau(  13) = (  -0.0083354   0.2387265   0.5569851  )
        14           O   tau(  14) = (   0.7499995   0.0000000   0.5573831  )
        15           Ca  tau(  15) = (   0.2499998   0.2387265   0.7436937  )
        16           Y   tau(  16) = (   0.7499995   0.2387265   0.7469544  )
        17           O   tau(  17) = (  -0.0063798   0.2387265   0.9248530  )
        18           O   tau(  18) = (   0.5063794   0.2387265   0.9248530  )
        19           O   tau(  19) = (   0.7499995   0.0000000   0.9338544  )
        20           O   tau(  20) = (   0.2499998   0.0000000   0.9461329  )
        21           Cu  tau(  21) = (   0.0015717   0.0000000   0.9686860  )
        22           Cu  tau(  22) = (   0.4984280   0.0000000   0.9686860  )
        23           Ba  tau(  23) = (   0.2499998   0.2387265   1.2085224  )
        24           Ba  tau(  24) = (   0.7499995   0.2387265   1.2233294  )
        25           O   tau(  25) = (   0.0063772   0.0000000   1.2547537  )
        26           O   tau(  26) = (   0.4936224   0.0000000   1.2547537  )
        27           O   tau(  27) = (   0.5384045   0.2387265   1.4952521  )
        28           O   tau(  28) = (  -0.0384049   0.2387265   1.4952521  )
        29           Cu  tau(  29) = (   0.5006120   0.0000000   1.4952546  )
        30           Cu  tau(  30) = (  -0.0006123   0.0000000   1.4952546  )
        31           O   tau(  31) = (   0.4936212   0.0000000   2.0546776  )
        32           O   tau(  32) = (   0.0063785   0.0000000   2.0546776  )
        33           Ba  tau(  33) = (   0.7499995   0.2387265   2.0861069  )
        34           Ba  tau(  34) = (   0.2499998   0.2387265   2.1009165  )
        35           Cu  tau(  35) = (   0.4984280   0.0000000   2.3407478  )
        36           Cu  tau(  36) = (   0.0015717   0.0000000   2.3407478  )
        37           O   tau(  37) = (   0.2499998   0.0000000   2.3633059  )
        38           O   tau(  38) = (   0.7499995   0.0000000   2.3755756  )
        39           O   tau(  39) = (   0.5063781   0.2387265   2.3845807  )
        40           O   tau(  40) = (  -0.0063785   0.2387265   2.3845807  )
        41           Y   tau(  41) = (   0.7499995   0.2387265   2.5624743  )
        42           Ca  tau(  42) = (   0.2499998   0.2387265   2.5657439  )
        43           O   tau(  43) = (   0.7499995   0.0000000   2.7520417  )
        44           O   tau(  44) = (  -0.0083354   0.2387265   2.7524436  )
        45           O   tau(  45) = (   0.5083351   0.2387265   2.7524436  )
        46           O   tau(  46) = (   0.2499998   0.0000000   2.7752416  )
        47           Cu  tau(  47) = (   0.0019059   0.0000000   2.7885752  )
        48           Cu  tau(  48) = (   0.4980938   0.0000000   2.7885752  )
        49           Ba  tau(  49) = (   0.2499998   0.2387265   3.0339149  )
        50           Ba  tau(  50) = (   0.7499995   0.2387265   3.0344571  )
        51           O   tau(  51) = (  -0.0028895   0.0000000   3.0587642  )
        52           O   tau(  52) = (   0.5028891   0.0000000   3.0587642  )
        53           Cu  tau(  53) = (   0.5017844   0.0000000   3.2984487  )
        54           Cu  tau(  54) = (  -0.0017847   0.0000000   3.2984487  )
        55           O   tau(  55) = (   0.5008990   0.2387265   3.3316552  )
        56           O   tau(  56) = (  -0.0008994   0.2387265   3.3316552  )

     number of k points=    25  Gaussian smearing, width (Ry)=  0.0100
                       cart. coord. in units 2pi/alat
        k(    1) = (   0.0000000   0.0000000   0.0000000), wk =   0.0312500
        k(    2) = (   0.0000000   0.2618060   0.0000000), wk =   0.0625000
        k(    3) = (   0.0000000   0.5236121   0.0000000), wk =   0.0625000
        k(    4) = (   0.0000000   0.7854181   0.0000000), wk =   0.0625000
        k(    5) = (   0.0000000  -1.0472241   0.0000000), wk =   0.0312500
        k(    6) = (   0.1250000   0.0000000   0.0000000), wk =   0.0625000
        k(    7) = (   0.1250000   0.2618060   0.0000000), wk =   0.1250000
        k(    8) = (   0.1250000   0.5236121   0.0000000), wk =   0.1250000
        k(    9) = (   0.1250000   0.7854181   0.0000000), wk =   0.1250000
        k(   10) = (   0.1250000  -1.0472241   0.0000000), wk =   0.0625000
        k(   11) = (   0.2500000   0.0000000   0.0000000), wk =   0.0625000
        k(   12) = (   0.2500000   0.2618060   0.0000000), wk =   0.1250000
        k(   13) = (   0.2500000   0.5236121   0.0000000), wk =   0.1250000
        k(   14) = (   0.2500000   0.7854181   0.0000000), wk =   0.1250000
        k(   15) = (   0.2500000  -1.0472241   0.0000000), wk =   0.0625000
        k(   16) = (   0.3750000   0.0000000   0.0000000), wk =   0.0625000
        k(   17) = (   0.3750000   0.2618060   0.0000000), wk =   0.1250000
        k(   18) = (   0.3750000   0.5236121   0.0000000), wk =   0.1250000
        k(   19) = (   0.3750000   0.7854181   0.0000000), wk =   0.1250000
        k(   20) = (   0.3750000  -1.0472241   0.0000000), wk =   0.0625000
        k(   21) = (  -0.5000000   0.0000000   0.0000000), wk =   0.0312500
        k(   22) = (  -0.5000000   0.2618060   0.0000000), wk =   0.0625000
        k(   23) = (  -0.5000000   0.5236121   0.0000000), wk =   0.0625000
        k(   24) = (  -0.5000000   0.7854181   0.0000000), wk =   0.0625000
        k(   25) = (  -0.5000000  -1.0472241   0.0000000), wk =   0.0312500

     Initial potential from superposition of free atoms

     starting charge  455.69457, renormalised to  456.00000

     negative rho (up, down):  9.315E-02 0.000E+00
     Starting wfcs are  396 randomized atomic wfcs

     Self-consistent Calculation

     iteration #  1     ecut=    60.00 Ry     beta= 0.50
     Davidson diagonalization with overlap
     ethr =  1.00E-02,  avg # of iterations =  2.0

     negative rho (up, down):  8.616E-02 0.000E+00

     total energy              =   -3708.23569751 Ry
     Harris-Foulkes estimate   =   -3716.43493718 Ry
     estimated scf accuracy    <      31.44631275 Ry

[...]

     iteration # 10     ecut=    60.00 Ry     beta= 0.50
     Davidson diagonalization with overlap
     c_bands:  1 eigenvalues not converged
     c_bands:  5 eigenvalues not converged
     ethr =  4.86E-05,  avg # of iterations =  5.4

[...]

     iteration # 26     ecut=    60.00 Ry     beta= 0.50
     Davidson diagonalization with overlap
     c_bands:  1 eigenvalues not converged
     ethr =  6.68E-09,  avg # of iterations =  1.8

[...]

     total energy              =   -3711.52560001 Ry
     Harris-Foulkes estimate   =   -3711.52560002 Ry
     estimated scf accuracy    <       0.00000002 Ry

     iteration # 35     ecut=    60.00 Ry     beta= 0.50
     Davidson diagonalization with overlap
     ethr =  4.07E-12,  avg # of iterations =  1.0

[...]

     End of self-consistent calculation

          k = 0.0000 0.0000 0.0000 ( 72345 PWs)   bands (ev):

   -38.3951 -38.3319 -36.0300 -35.9585 -23.1391 -23.1369 -23.1282 -23.0108
   -23.0000 -22.9895 -22.8242 -22.5901 -18.8682 -18.8141 -18.7680 -18.7065
   -18.3991 -18.3346 -17.3761 -17.3074 -17.2425 -17.1752 -17.0614 -16.9865
   -15.7724 -15.7311 -15.3133 -15.2943 -15.1052 -14.9854 -14.9324 -14.9206
   -14.8767 -14.8468 -14.7872 -14.7771 -14.7654 -14.7612 -14.6362 -14.6236
   -14.4586 -14.4155 -14.3464 -14.3145 -14.3065 -14.3034 -14.2989 -14.2892
   -14.2620 -14.1886 -14.1263 -14.0710 -13.1739 -12.7044  -8.4676  -8.3780
    -8.3637  -8.2706  -8.2571  -8.2262  -8.1882  -8.1779  -8.0942  -8.0501
    -8.0396  -8.0005  -7.9885  -7.9536  -7.9434  -7.8895  -7.8748  -7.8605
    -7.8245  -7.8122  -7.8016  -7.6423  -7.4310  -7.3284  -3.3182  -3.2946
    -3.2057  -3.1087  -2.4922  -2.4860  -2.4052  -2.4033  -2.3988  -2.3685
    -2.2591  -2.2084  -2.1981  -2.1728  -2.1680  -2.1476  -2.1070  -2.1031
    -2.0408  -2.0040  -1.9971  -1.9437  -1.8912  -1.8352  -1.6980  -1.6695
    -1.5130  -1.4627  -1.4515  -1.4232  -1.3611  -1.2882  -1.2601  -1.2449
    -1.2375  -1.2361  -1.2289  -1.2267  -1.2056  -1.2040  -1.1414  -1.0677
    -1.0125  -1.0053  -0.7646  -0.7242  -0.6497  -0.5868  -0.5763  -0.5664
    -0.5663  -0.5507  -0.5407  -0.5225  -0.5093  -0.4911  -0.4540  -0.4492
    -0.4474  -0.4471  -0.4360  -0.3981  -0.3678  -0.2971  -0.2727  -0.2620
    -0.2612  -0.2523  -0.2386  -0.1931  -0.1921  -0.1768  -0.1702  -0.1435
    -0.1414  -0.1406  -0.1377  -0.0634  -0.0425  -0.0349  -0.0233  -0.0029
     0.0042   0.0044   0.0463   0.0793   0.0912   0.1081   0.1591   0.2028
     0.2339   0.2390   0.2667   0.2679   0.2752   0.2912   0.2951   0.2977
     0.4552   0.4840   0.5535   0.6055   0.6312   0.6699   0.7202   0.7324
     0.7436   0.7654   0.7706   0.8046   0.8781   0.9134   0.9259   0.9485
     0.9535   0.9574   0.9584   0.9594   1.0389   1.0630   1.0752   1.1096
     1.1126   1.1189   1.1348   1.1633   1.1944   1.2204   1.2844   1.3379
     1.3472   1.3799   1.4490   1.4535   1.4575   1.5211   1.5230   1.5304
     1.5495   1.5821   1.5929   1.6431   1.6827   1.7912   1.8046   1.8572
     1.9625   1.9698   2.0880   2.1356   2.1369   2.2143   2.2304   2.3172
     2.3255   2.3482   2.3516   2.3990   2.5947   2.6486   4.6690   4.9700
     4.9838   5.6274   5.7186   6.3247   6.3606   6.4354   6.6080   6.6499
     6.6764   7.0103   7.0207   7.1077   7.1149   7.2159   7.2869   7.5158
     7.7665   7.8269   7.8331   7.8874   7.8985   8.0702   8.1453   8.1788
     8.2156   8.2741   8.3142   8.3949   8.6592   8.7692   8.8165   8.8185
     8.8770   8.9916

[...]

          k = 0.3750-1.0472 0.0000 ( 72290 PWs)   bands (ev):

[...]

          k =-0.5000 0.0000 0.0000 ( 72396 PWs)   bands (ev):

[...]

          k =-0.5000-1.0472 0.0000 ( 72268 PWs)   bands (ev):

   -38.3766 -38.3135 -36.0184 -35.9469 -23.0029 -22.9363 -22.9251 -22.9065
   -22.8959 -22.8074 -22.7057 -22.4485 -19.0389 -18.9764 -18.6977 -18.6357
   -18.5738 -18.5184 -17.4527 -17.3781 -17.2740 -17.2078 -17.1682 -17.1002
   -15.0689 -15.0372 -14.9872 -14.9723 -14.8476 -14.8100 -14.7815 -14.7643
   -14.7500 -14.7242 -14.7012 -14.6209 -14.5978 -14.5803 -14.5724 -14.5610
   -14.5576 -14.5235 -14.3180 -14.3142 -14.3110 -14.3069 -14.2450 -14.2014
   -14.1885 -14.1877 -14.1761 -14.1753 -12.9834 -12.9728  -8.7211  -8.7106
    -8.6704  -8.6599  -8.5821  -8.5510  -8.5045  -8.4075  -8.3961  -8.3855
    -8.3726  -8.3620  -8.2949  -8.2925  -8.2823  -8.2807  -8.2736  -8.2662
    -8.2545  -8.0832  -8.0070  -7.9438  -7.9292  -7.8610  -4.1372  -4.0968
    -3.9086  -3.8721  -3.7489  -3.6820  -3.6467  -3.5573  -3.3139  -3.3130
    -3.3042  -3.3032  -3.2726  -3.2194  -2.6610  -2.6512  -2.5575  -2.5431
    -2.5072  -2.4486  -2.4306  -2.3949  -2.3925  -2.3816  -2.3081  -2.2944
    -2.2904  -2.2569  -2.2309  -2.2093  -2.1602  -2.0781  -2.0760  -2.0656
    -2.0459  -2.0181  -1.8028  -1.7585  -1.6828  -1.6341  -1.4711  -1.4447
    -1.4342  -1.4261  -1.3987  -1.3923  -1.2308  -1.1925  -1.1448  -1.1201
    -1.1143  -1.0870  -1.0401  -1.0141  -0.9969  -0.9965  -0.9856  -0.9773
    -0.8981  -0.8640  -0.8456  -0.8187  -0.8180  -0.7163  -0.6359  -0.6333
    -0.6158  -0.5930  -0.5503  -0.5282  -0.3522  -0.3210  -0.0941  -0.0572
     0.1326   0.1384   0.1990   0.2061   0.2425   0.2513   0.2655   0.2849
     0.2857   0.3337   0.4065   0.5190   0.5202   0.7336   0.7405   0.7856
     0.7948   0.8145   0.8345   0.8702   0.8733   0.9008   0.9030   0.9540
     0.9541   0.9580   1.0202   1.0506   1.0631   1.0833   1.0980   1.1227
     1.1334   1.1738   1.1792   1.1966   1.2063   1.2190   1.2444   1.2492
     1.2879   1.3293   1.3431   1.4454   1.5205   1.5358   1.5874   1.6028
     1.6056   1.6366   1.7041   1.7345   1.7500   1.7637   1.8308   1.8328
     1.8605   1.8962   1.9039   1.9348   1.9356   1.9476   1.9491   2.0566
     2.1552   2.1688   2.2030   2.2191   2.2832   2.2921   2.2923   2.3016
     2.4273   2.4370   2.4871   2.5089   2.6194   2.6877   3.1981   3.2315
     3.2617   3.2969   3.3584   3.3921   3.4706   3.4927   5.9874   6.4649
     6.4738   6.4833   6.5151   6.6703   6.7300   7.1186   7.2723   7.3366
     7.6121   7.8549   7.9551   7.9592   8.1580   8.4669   8.5445   8.5879
     8.8721   8.8937   8.9172   8.9351   9.0136   9.0994   9.1286   9.1470
     9.1917   9.2216   9.2792   9.2923   9.4810   9.5094   9.5181   9.5255
     9.5305   9.5409

     the Fermi energy is     2.4635 ev

!    total energy              =   -3711.52560001 Ry
     Harris-Foulkes estimate   =   -3711.52560001 Ry
     estimated scf accuracy    <          2.3E-09 Ry

     The total energy is the sum of the following terms:

     one-electron contribution =  -55148.73838610 Ry
     hartree contribution      =   27876.55656958 Ry
     xc contribution           =   -1263.80431343 Ry
     ewald contribution        =   24824.48066872 Ry
     smearing contrib. (-TS)   =      -0.02013878 Ry

     convergence has been achieved in  35 iterations

     negative rho (up, down):  9.218E-02 0.000E+00

     Forces acting on atoms (cartesian axes, Ry/au):

     atom    1 type  4   force =    -0.00001036    0.00000000   -0.00050844
     atom    2 type  4   force =     0.00001036    0.00000000   -0.00050844
     atom    3 type  3   force =    -0.00000158    0.00000000    0.00010168
     atom    4 type  3   force =     0.00000158    0.00000000    0.00010168
     atom    5 type  4   force =     0.00000624    0.00000000    0.00013833
     atom    6 type  4   force =    -0.00000624    0.00000000    0.00013833
     atom    7 type  1   force =     0.00000000    0.00000000   -0.00037461
     atom    8 type  1   force =     0.00000000    0.00000000   -0.00033877
     atom    9 type  3   force =     0.00010665    0.00000000   -0.00028151
     atom   10 type  3   force =    -0.00010665    0.00000000   -0.00028151
     atom   11 type  4   force =     0.00000000    0.00000000    0.00108332
     atom   12 type  4   force =     0.00005382    0.00000000    0.00135654
     atom   13 type  4   force =    -0.00005382    0.00000000    0.00135654
     atom   14 type  4   force =     0.00000000    0.00000000    0.00141796
     atom   15 type  2   force =     0.00000000    0.00000000   -0.00323712
     atom   16 type  5   force =     0.00000000    0.00000000   -0.00477592
     atom   17 type  4   force =     0.00093096    0.00000000    0.00620576
     atom   18 type  4   force =    -0.00093096    0.00000000    0.00620576
     atom   19 type  4   force =     0.00000000    0.00000000    0.00396920
     atom   20 type  4   force =     0.00000000    0.00000000    0.00516022
     atom   21 type  3   force =     0.00055196    0.00000000   -0.00180462
     atom   22 type  3   force =    -0.00055196    0.00000000   -0.00180462
     atom   23 type  1   force =     0.00000000    0.00000000    0.00731170
     atom   24 type  1   force =     0.00000000    0.00000000    0.01370530
     atom   25 type  4   force =     0.00244156    0.00000000   -0.01826923
     atom   26 type  4   force =    -0.00244156    0.00000000   -0.01826923
     atom   27 type  4   force =    -0.01296986    0.00000000    0.02845581
     atom   28 type  4   force =     0.01296986    0.00000000    0.02845581
     atom   29 type  3   force =     0.01249829    0.00000000   -0.02444654
     atom   30 type  3   force =    -0.01249829    0.00000000   -0.02444654
     atom   31 type  4   force =     0.01482093    0.00000000    0.02621852
     atom   32 type  4   force =    -0.01482093    0.00000000    0.02621852
     atom   33 type  1   force =     0.00000000    0.00000000   -0.00559550
     atom   34 type  1   force =     0.00000000    0.00000000   -0.01576101
     atom   35 type  3   force =    -0.00346199    0.00000000   -0.02098495
     atom   36 type  3   force =     0.00346199    0.00000000   -0.02098495
     atom   37 type  4   force =     0.00000000    0.00000000    0.00312629
     atom   38 type  4   force =     0.00000000    0.00000000    0.00077368
     atom   39 type  4   force =     0.00280391    0.00000000    0.00043088
     atom   40 type  4   force =    -0.00280391    0.00000000    0.00043088
     atom   41 type  5   force =     0.00000000    0.00000000    0.00207629
     atom   42 type  2   force =     0.00000000    0.00000000    0.00041194
     atom   43 type  4   force =     0.00000000    0.00000000    0.00022229
     atom   44 type  4   force =     0.00002477    0.00000000   -0.00138293
     atom   45 type  4   force =    -0.00002477    0.00000000   -0.00138293
     atom   46 type  4   force =     0.00000000    0.00000000   -0.00008858
     atom   47 type  3   force =    -0.00004049    0.00000000    0.00031259
     atom   48 type  3   force =     0.00004049    0.00000000    0.00031259
     atom   49 type  1   force =     0.00000000    0.00000000    0.00016940
     atom   50 type  1   force =     0.00000000    0.00000000    0.00022810
     atom   51 type  4   force =    -0.00004168    0.00000000   -0.00081280
     atom   52 type  4   force =     0.00004168    0.00000000   -0.00081280
     atom   53 type  3   force =    -0.00003526    0.00000000    0.00090507
     atom   54 type  3   force =     0.00003526    0.00000000    0.00090507
     atom   55 type  4   force =     0.00002183    0.00000000   -0.00037626
     atom   56 type  4   force =    -0.00002183    0.00000000   -0.00037626

     Total force =     0.087125     Total SCF correction =     0.000285

     Computing stress (Cartesian axis) and pressure

     negative rho (up, down):  9.218E-02 0.000E+00
          total   stress  (Ry/bohr**3)                   (kbar)     P=       -6.02
  -0.00000229   0.00000000   0.00000000           -0.34        0.00        0.00
   0.00000000  -0.00008894   0.00000000            0.00      -13.08        0.00
   0.00000000   0.00000000  -0.00003153            0.00        0.00       -4.64

     General routines

     Parallel routines

   This run was terminated on:  10:34: 5  28May2021

   JOB DONE.
[1622212445.438857] [holy7c04211:175007:0]          mpool.c:43   UCX  WARN  object 0x35f59c0 was not returned to mpool ucp_requests
[1622212445.442440] [holy7c04301:105585:0]          mpool.c:43   UCX  WARN  object 0x29ec180 was not returned to mpool ucp_requests
[1622212445.443801] [holy7c04301:105590:0]          mpool.c:43   UCX  WARN  object 0x2954380 was not returned to mpool ucp_requests
[1622212445.446472] [holy7c04302:151055:0]          mpool.c:43   UCX  WARN  object 0x4321b00 was not returned to mpool ucp_requests
[1622212445.446171] [holy7c04301:105586:0]          mpool.c:43   UCX  WARN  object 0x467c880 was not returned to mpool ucp_requests
[1622212445.448417] [holy7c04301:105588:0]          mpool.c:43   UCX  WARN  object 0x2ec9f80 was not returned to mpool ucp_requests
[1622212445.448444] [holy7c04301:105588:0]          mpool.c:43   UCX  WARN  object 0x2eca140 was not returned to mpool ucp_requests
[1622212445.447072] [holy7c04301:105581:0]          mpool.c:43   UCX  WARN  object 0x2d66580 was not returned to mpool ucp_requests
[1622212445.449595] [holy7c04211:175006:0]          mpool.c:43   UCX  WARN  object 0x3d670c0 was not returned to mpool ucp_requests
[1622212445.451169] [holy7c04301:105583:0]          mpool.c:43   UCX  WARN  object 0x33e3440 was not returned to mpool ucp_requests
[1622212445.451199] [holy7c04301:105583:0]          mpool.c:43   UCX  WARN  object 0x33e3b40 was not returned to mpool ucp_requests
[1622212445.452349] [holy7c04210:233461:0]          mpool.c:43   UCX  WARN  object 0x2f57580 was not returned to mpool ucp_requests
[1622212445.453587] [holy7c04210:233460:0]          mpool.c:43   UCX  WARN  object 0x44a8400 was not returned to mpool ucp_requests
[1622212445.449396] [holy7c04211:175008:0]          mpool.c:43   UCX  WARN  object 0x42b8900 was not returned to mpool ucp_requests
[1622212445.449420] [holy7c04211:175008:0]          mpool.c:43   UCX  WARN  object 0x42b8e40 was not returned to mpool ucp_requests
[1622212445.449505] [holy7c04210:233462:0]          mpool.c:43   UCX  WARN  object 0x3fff480 was not returned to mpool ucp_requests
[1622212445.449531] [holy7c04210:233462:0]          mpool.c:43   UCX  WARN  object 0x3fff640 was not returned to mpool ucp_requests