     Program PWSCF v.6.5 starts on 28May2021 at 10: 0:55

     R & G space division:  proc/nbgrp/npool/nimage =      32
     Reading input from YCBCO50_212_CuO_cleave_3.0_sep.pwi
Warning: card &IONS ignored
Warning: card     ION_DYNAMICS = 'BFGS' ignored
Warning: card / ignored
Warning: card &CELL ignored
Warning: card     CELL_DYNAMICS = 'BFGS' ignored
Warning: card     PRESS_CONV_THR = 5 ignored
Warning: card / ignored

     Current dimensions of program PWSCF are:
     Max number of different atomic species (ntypx) = 10
     Max number of k-points (npk) =  40000
     Max angular momentum in pseudopotentials (lmaxx) =  3

     Message from routine setup:
     using ibrav=0 with symmetry is DISCOURAGED, use correct ibrav instead

     bravais-lattice index     =            0
     lattice parameter (alat)  =      14.8133  a.u.
     unit-cell volume          =    9311.2145 (a.u.)^3
     number of atoms/cell      =           56
     number of atomic types    =            5
     number of electrons       =       456.00
     number of Kohn-Sham states=          274
     kinetic-energy cutoff     =      60.0000  Ry
     charge density cutoff     =     720.0000  Ry
     convergence threshold     =      1.0E-08
     mixing beta               =       0.5000
     number of iterations used =           10  local-TF  mixing
     Exchange-correlation= SLA PW PBE PBE
                           (   1   4   3   4   0   0   0)

     celldm(1)=  14.813271  celldm(2)=   0.000000  celldm(3)=   0.000000
     celldm(4)=   0.000000  celldm(5)=   0.000000  celldm(6)=   0.000000

     crystal axes: (cart. coord. in units of alat)
               a(1) = (   1.000000   0.000000   0.000000 )
               a(2) = (   0.000000   0.477453   0.000000 )
               a(3) = (   0.000000   0.000000   5.999610 )

     reciprocal axes: (cart. coord. in units 2 pi/alat)
               b(1) = (  1.000000  0.000000  0.000000 )
               b(2) = (  0.000000  2.094448  0.000000 )
               b(3) = (  0.000000  0.000000  0.166677 )

     PseudoPot. # 1 for Ba read from file:
     ./pseudo/Ba.pbe-nsp-van.UPF
     MD5 check sum: 2b9c31dd849566dd297d80989662b7a0
     Pseudo is Ultrasoft + core correction, Zval = 10.0
     Generated by new atomic code, or converted to UPF format
     Using radial grid of  907 points,  6 beta functions with:
                l(1) =   0
                l(2) =   0
                l(3) =   1
                l(4) =   1
                l(5) =   2
                l(6) =   2
     Q(r) pseudized with  6 coefficients,  rinner =    1.200   1.200   1.200
                                                       1.200   1.200

     PseudoPot. # 2 for Ca read from file:
     ./pseudo/Ca.pbe-nsp-van.UPF
     MD5 check sum: 6471098428ff4fa451746d08035ff179
     Pseudo is Ultrasoft + core correction, Zval = 10.0
     Generated by new atomic code, or converted to UPF format
     Using radial grid of  845 points,  6 beta functions with:
                l(1) =   0
                l(2) =   0
                l(3) =   1
                l(4) =   1
                l(5) =   2
                l(6) =   2
     Q(r) pseudized with  6 coefficients,  rinner =    1.200   1.200   1.200
                                                       1.200   1.200

     PseudoPot. # 3 for Cu read from file:
     ./pseudo/Cu.pbe-n-van_ak.UPF
     MD5 check sum: 34e3282627ffb533726feb647e090d62
     Pseudo is Ultrasoft + core correction, Zval = 11.0
     Generated by new atomic code, or converted to UPF format
     Using radial grid of  867 points,  6 beta functions with:
                l(1) =   0
                l(2) =   0
                l(3) =   1
                l(4) =   1
                l(5) =   2
                l(6) =   2
     Q(r) pseudized with  8 coefficients,  rinner =    1.400   1.400   1.400
                                                       1.400   1.400

     PseudoPot. # 4 for O  read from file:
     ./pseudo/O.pbe-van_ak.UPF
     MD5 check sum: 783ce7fe4c79b6a4916957118fed0856
     Pseudo is Ultrasoft, Zval =  6.0
     Generated by new atomic code, or converted to UPF format
     Using radial grid of  737 points,  4 beta functions with:
                l(1) =   0
                l(2) =   0
                l(3) =   1
                l(4) =   1
     Q(r) pseudized with  8 coefficients,  rinner =    0.800   0.800   0.800

     PseudoPot. # 5 for Y  read from file:
     ./pseudo/Y.pbe-nsp-van.UPF
     MD5 check sum: 4412fed3ab108fed87a1b7d6a69a4a38
     Pseudo is Ultrasoft + core correction, Zval = 11.0
     Generated by new atomic code, or converted to UPF format
     Using radial grid of  885 points,  6 beta functions with:
                l(1) =   0
                l(2) =   0
                l(3) =   1
                l(4) =   1
                l(5) =   2
                l(6) =   2
     Q(r) pseudized with  6 coefficients,  rinner =    1.200   1.200   1.200
                                                       1.200   1.200

     atomic species   valence    mass     pseudopotential
        Ba            10.00   137.32700     Ba( 1.00)
        Ca            10.00    40.07800     Ca( 1.00)
        Cu            11.00    63.54600     Cu( 1.00)
        O              6.00    15.99900     O ( 1.00)
        Y             11.00    88.90584     Y ( 1.00)

      4 Sym. Ops. (no inversion) found ( 2 have fractional translation)

   Cartesian axes

     site n.     atom                  positions (alat units)
         1           O   tau(   1) = (  -0.0008343   0.2387265  -0.0222443  )
         2           O   tau(   2) = (   0.5008340   0.2387265  -0.0222443  )
         3           Cu  tau(   3) = (   0.5017257   0.0000000   0.0109608  )
         4           Cu  tau(   4) = (  -0.0017260   0.0000000   0.0109608  )
         5           O   tau(   5) = (  -0.0028933   0.0000000   0.2506504  )
         6           O   tau(   6) = (   0.5028929   0.0000000   0.2506504  )
         7           Ba  tau(   7) = (   0.7499995   0.2387265   0.2749435  )
         8           Ba  tau(   8) = (   0.2499998   0.2387265   0.2755214  )
         9           Cu  tau(   9) = (   0.4980963   0.0000000   0.5208446  )
        10           Cu  tau(  10) = (   0.0019033   0.0000000   0.5208446  )
        11           O   tau(  11) = (   0.2499998   0.0000000   0.5341884  )
        12           O   tau(  12) = (   0.5083351   0.2387265   0.5569851  )
        13           O   tau(  13) = (  -0.0083354   0.2387265   0.5569851  )
        14           O   tau(  14) = (   0.7499995   0.0000000   0.5573831  )
        15           Ca  tau(  15) = (   0.2499998   0.2387265   0.7436937  )
        16           Y   tau(  16) = (   0.7499995   0.2387265   0.7469544  )
        17           O   tau(  17) = (  -0.0063798   0.2387265   0.9248530  )
        18           O   tau(  18) = (   0.5063794   0.2387265   0.9248530  )
        19           O   tau(  19) = (   0.7499995   0.0000000   0.9338544  )
        20           O   tau(  20) = (   0.2499998   0.0000000   0.9461329  )
        21           Cu  tau(  21) = (   0.0015717   0.0000000   0.9686860  )
        22           Cu  tau(  22) = (   0.4984280   0.0000000   0.9686860  )
        23           Ba  tau(  23) = (   0.2499998   0.2387265   1.2085224  )
        24           Ba  tau(  24) = (   0.7499995   0.2387265   1.2233294  )
        25           O   tau(  25) = (   0.0063772   0.0000000   1.2547537  )
        26           O   tau(  26) = (   0.4936224   0.0000000   1.2547537  )
        27           O   tau(  27) = (   0.5384045   0.2387265   1.4952521  )
        28           O   tau(  28) = (  -0.0384049   0.2387265   1.4952521  )
        29           Cu  tau(  29) = (   0.5006120   0.0000000   1.4952546  )
        30           Cu  tau(  30) = (  -0.0006123   0.0000000   1.4952546  )
        31           O   tau(  31) = (   0.4936212   0.0000000   2.1184625  )
        32           O   tau(  32) = (   0.0063785   0.0000000   2.1184625  )
        33           Ba  tau(  33) = (   0.7499995   0.2387265   2.1498918  )
        34           Ba  tau(  34) = (   0.2499998   0.2387265   2.1647014  )
        35           Cu  tau(  35) = (   0.4984280   0.0000000   2.4045327  )
        36           Cu  tau(  36) = (   0.0015717   0.0000000   2.4045327  )
        37           O   tau(  37) = (   0.2499998   0.0000000   2.4270908  )
        38           O   tau(  38) = (   0.7499995   0.0000000   2.4393605  )
        39           O   tau(  39) = (   0.5063781   0.2387265   2.4483656  )
        40           O   tau(  40) = (  -0.0063785   0.2387265   2.4483656  )
        41           Y   tau(  41) = (   0.7499995   0.2387265   2.6262592  )
        42           Ca  tau(  42) = (   0.2499998   0.2387265   2.6295288  )
        43           O   tau(  43) = (   0.7499995   0.0000000   2.8158266  )
        44           O   tau(  44) = (  -0.0083354   0.2387265   2.8162285  )
        45           O   tau(  45) = (   0.5083351   0.2387265   2.8162285  )
        46           O   tau(  46) = (   0.2499998   0.0000000   2.8390265  )
        47           Cu  tau(  47) = (   0.0019059   0.0000000   2.8523601  )
        48           Cu  tau(  48) = (   0.4980938   0.0000000   2.8523601  )
        49           Ba  tau(  49) = (   0.2499998   0.2387265   3.0976998  )
        50           Ba  tau(  50) = (   0.7499995   0.2387265   3.0982420  )
        51           O   tau(  51) = (  -0.0028895   0.0000000   3.1225491  )
        52           O   tau(  52) = (   0.5028891   0.0000000   3.1225491  )
        53           Cu  tau(  53) = (   0.5017844   0.0000000   3.3622336  )
        54           Cu  tau(  54) = (  -0.0017847   0.0000000   3.3622336  )
        55           O   tau(  55) = (   0.5008990   0.2387265   3.3954401  )
        56           O   tau(  56) = (  -0.0008994   0.2387265   3.3954401  )

     number of k points=    25  Gaussian smearing, width (Ry)=  0.0100
                       cart. coord. in units 2pi/alat
        k(    1) = (   0.0000000   0.0000000   0.0000000), wk =   0.0312500
        k(    2) = (   0.0000000   0.2618060   0.0000000), wk =   0.0625000
        k(    3) = (   0.0000000   0.5236121   0.0000000), wk =   0.0625000
        k(    4) = (   0.0000000   0.7854181   0.0000000), wk =   0.0625000
        k(    5) = (   0.0000000  -1.0472241   0.0000000), wk =   0.0312500
        k(    6) = (   0.1250000   0.0000000   0.0000000), wk =   0.0625000
        k(    7) = (   0.1250000   0.2618060   0.0000000), wk =   0.1250000
        k(    8) = (   0.1250000   0.5236121   0.0000000), wk =   0.1250000
        k(    9) = (   0.1250000   0.7854181   0.0000000), wk =   0.1250000
        k(   10) = (   0.1250000  -1.0472241   0.0000000), wk =   0.0625000
        k(   11) = (   0.2500000   0.0000000   0.0000000), wk =   0.0625000
        k(   12) = (   0.2500000   0.2618060   0.0000000), wk =   0.1250000
        k(   13) = (   0.2500000   0.5236121   0.0000000), wk =   0.1250000
        k(   14) = (   0.2500000   0.7854181   0.0000000), wk =   0.1250000
        k(   15) = (   0.2500000  -1.0472241   0.0000000), wk =   0.0625000
        k(   16) = (   0.3750000   0.0000000   0.0000000), wk =   0.0625000
        k(   17) = (   0.3750000   0.2618060   0.0000000), wk =   0.1250000
        k(   18) = (   0.3750000   0.5236121   0.0000000), wk =   0.1250000
        k(   19) = (   0.3750000   0.7854181   0.0000000), wk =   0.1250000
        k(   20) = (   0.3750000  -1.0472241   0.0000000), wk =   0.0625000
        k(   21) = (  -0.5000000   0.0000000   0.0000000), wk =   0.0312500
        k(   22) = (  -0.5000000   0.2618060   0.0000000), wk =   0.0625000
        k(   23) = (  -0.5000000   0.5236121   0.0000000), wk =   0.0625000
        k(   24) = (  -0.5000000   0.7854181   0.0000000), wk =   0.0625000
        k(   25) = (  -0.5000000  -1.0472241   0.0000000), wk =   0.0312500

     Initial potential from superposition of free atoms

     starting charge  455.69457, renormalised to  456.00000

     negative rho (up, down):  9.308E-02 0.000E+00
     Starting wfcs are  396 randomized atomic wfcs

     Self-consistent Calculation

     iteration #  1     ecut=    60.00 Ry     beta= 0.50
     Davidson diagonalization with overlap
     ethr =  1.00E-02,  avg # of iterations =  2.0

     negative rho (up, down):  8.599E-02 0.000E+00

     total energy              =   -3708.24682141 Ry
     Harris-Foulkes estimate   =   -3716.44615592 Ry
     estimated scf accuracy    <      31.57926228 Ry

[...]

     iteration # 20     ecut=    60.00 Ry     beta= 0.50
     Davidson diagonalization with overlap
     c_bands:  1 eigenvalues not converged
     ethr =  1.39E-06,  avg # of iterations =  6.4

[...]

     iteration # 26     ecut=    60.00 Ry     beta= 0.50
     Davidson diagonalization with overlap
     c_bands:  1 eigenvalues not converged
     ethr =  9.23E-09,  avg # of iterations =  1.8

[...]

     total energy              =   -3711.52186305 Ry
     Harris-Foulkes estimate   =   -3711.52186304 Ry
     estimated scf accuracy    <       0.00000003 Ry

     iteration # 34     ecut=    60.00 Ry     beta= 0.50
     Davidson diagonalization with overlap
     ethr =  5.61E-12,  avg # of iterations =  2.8

[...]

     End of self-consistent calculation

          k = 0.0000 0.0000 0.0000 ( 73127 PWs)   bands (ev):

   -38.4713 -38.4079 -36.1065 -36.0345 -23.2324 -23.2150 -23.2040 -23.0866
   -23.0758 -23.0663 -22.9008 -22.6731 -18.9444 -18.8903 -18.8443 -18.7825
   -18.4753 -18.4106 -17.4525 -17.3834 -17.3189 -17.2512 -17.1378 -17.0624
   -15.8486 -15.8073 -15.3893 -15.3702 -15.1819 -15.0616 -15.0086 -14.9968
   -14.9529 -14.9232 -14.8633 -14.8529 -14.8412 -14.8368 -14.7123 -14.6998
   -14.5349 -14.4914 -14.4226 -14.3903 -14.3824 -14.3792 -14.3749 -14.3651
   -14.3382 -14.2647 -14.2019 -14.1478 -13.2477 -12.7767  -8.5683  -8.4538
    -8.4399  -8.3464  -8.3328  -8.3027  -8.2640  -8.2537  -8.1702  -8.1260
    -8.1154  -8.0806  -8.0774  -8.0294  -8.0192  -7.9743  -7.9535  -7.9517
    -7.9015  -7.8881  -7.8774  -7.7191  -7.5131  -7.4105  -3.3942  -3.3704
    -3.2822  -3.1846  -2.5680  -2.5618  -2.4815  -2.4791  -2.4746  -2.4447
    -2.3356  -2.2847  -2.2741  -2.2489  -2.2444  -2.2254  -2.1832  -2.1813
    -2.1172  -2.0800  -2.0733  -2.0196  -1.9675  -1.9111  -1.7742  -1.7454
    -1.5896  -1.5390  -1.5261  -1.4992  -1.4347  -1.3642  -1.3366  -1.3212
    -1.3133  -1.3119  -1.3046  -1.3024  -1.2817  -1.2800  -1.2177  -1.1437
    -1.0883  -1.0811  -0.8406  -0.7999  -0.7254  -0.6621  -0.6524  -0.6424
    -0.6421  -0.6227  -0.6164  -0.5985  -0.5838  -0.5671  -0.5298  -0.5251
    -0.5232  -0.5228  -0.5119  -0.4748  -0.4434  -0.3732  -0.3485  -0.3380
    -0.3370  -0.3279  -0.3141  -0.2688  -0.2638  -0.2523  -0.2465  -0.2185
    -0.2172  -0.2155  -0.2135  -0.1360  -0.1183  -0.1106  -0.0991  -0.0787
    -0.0724  -0.0713  -0.0288   0.0035   0.0154   0.0323   0.0834   0.1269
     0.1575   0.1615   0.1909   0.1921   0.2006   0.2153   0.2195   0.2220
     0.3799   0.4078   0.4790   0.5314   0.5563   0.5979   0.6443   0.6566
     0.6675   0.6894   0.6947   0.7287   0.8030   0.8374   0.8505   0.8724
     0.8778   0.8813   0.8826   0.8834   0.9626   0.9870   0.9995   1.0336
     1.0376   1.0426   1.0585   1.0871   1.1194   1.1435   1.2081   1.2620
     1.2709   1.3035   1.3726   1.3772   1.3818   1.4448   1.4472   1.4546
     1.4724   1.5061   1.5164   1.5668   1.6069   1.7153   1.7289   1.7800
     1.8863   1.8941   2.0128   2.0595   2.0610   2.1374   2.1553   2.2414
     2.2499   2.2720   2.2755   2.3236   2.5186   2.5733   4.5837   4.8944
     4.9060   5.5466   5.6323   6.2380   6.2817   6.3395   6.5228   6.5500
     6.5774   6.9337   6.9442   7.0319   7.0392   7.0629   7.2001   7.3306
     7.6827   7.7200   7.7506   7.7972   7.8114   7.9322   8.0132   8.1017
     8.1335   8.1817   8.2335   8.3161   8.5485   8.5601   8.7176   8.7424
     8.7953   8.8844

[...]

          k = 0.3750-1.0472 0.0000 ( 73070 PWs)   bands (ev):

[...]

          k =-0.5000 0.0000 0.0000 ( 73132 PWs)   bands (ev):

[...]

          k =-0.5000-1.0472 0.0000 ( 73020 PWs)   bands (ev):

   -38.4528 -38.3895 -36.0949 -36.0229 -23.0987 -23.0121 -23.0010 -22.9823
   -22.9717 -22.8843 -22.7823 -22.5315 -19.1151 -19.0524 -18.7739 -18.7117
   -18.6501 -18.5946 -17.5292 -17.4540 -17.3504 -17.2838 -17.2447 -17.1763
   -15.1450 -15.1131 -15.0632 -15.0481 -14.9238 -14.8860 -14.8577 -14.8418
   -14.8262 -14.8003 -14.7772 -14.6973 -14.6741 -14.6561 -14.6490 -14.6392
   -14.6341 -14.6004 -14.3944 -14.3911 -14.3869 -14.3831 -14.3187 -14.2752
   -14.2643 -14.2636 -14.2518 -14.2510 -13.0560 -13.0461  -8.7969  -8.7864
    -8.7462  -8.7357  -8.6588  -8.6424  -8.5816  -8.5084  -8.4720  -8.4613
    -8.4485  -8.4378  -8.3707  -8.3684  -8.3671  -8.3582  -8.3564  -8.3433
    -8.3310  -8.1600  -8.0830  -8.0246  -8.0141  -7.9436  -4.2134  -4.1728
    -3.9848  -3.9480  -3.8252  -3.7582  -3.7231  -3.6335  -3.3897  -3.3888
    -3.3799  -3.3789  -3.3466  -3.2935  -2.7368  -2.7269  -2.6335  -2.6189
    -2.5840  -2.5250  -2.5067  -2.4713  -2.4683  -2.4573  -2.3839  -2.3702
    -2.3664  -2.3327  -2.3070  -2.2852  -2.2366  -2.1547  -2.1539  -2.1418
    -2.1237  -2.0947  -1.8790  -1.8346  -1.7589  -1.7100  -1.5459  -1.5203
    -1.5100  -1.5018  -1.4745  -1.4676  -1.3070  -1.2685  -1.2210  -1.1963
    -1.1903  -1.1629  -1.1162  -1.0899  -1.0727  -1.0723  -1.0613  -1.0530
    -0.9747  -0.9372  -0.9188  -0.8955  -0.8942  -0.7919  -0.7118  -0.7094
    -0.6915  -0.6685  -0.6266  -0.6044  -0.4259  -0.3947  -0.1706  -0.1337
     0.0574   0.0632   0.1235   0.1306   0.1680   0.1750   0.1900   0.2094
     0.2099   0.2584   0.3303   0.4435   0.4439   0.6572   0.6655   0.7097
     0.7186   0.7384   0.7581   0.7939   0.7976   0.8244   0.8272   0.8777
     0.8784   0.8821   0.9440   0.9747   0.9868   1.0073   1.0222   1.0465
     1.0569   1.0979   1.1026   1.1200   1.1305   1.1429   1.1677   1.1730
     1.2105   1.2533   1.2674   1.3683   1.4442   1.4597   1.5111   1.5266
     1.5293   1.5604   1.6279   1.6584   1.6738   1.6874   1.7552   1.7561
     1.7834   1.8205   1.8326   1.8589   1.8597   1.8719   1.8734   1.9828
     2.0892   2.0956   2.1357   2.1466   2.2074   2.2163   2.2166   2.2259
     2.3499   2.3606   2.4130   2.4353   2.5348   2.6018   3.1217   3.1556
     3.1854   3.2211   3.2822   3.3163   3.3945   3.4168   5.9191   6.3891
     6.3981   6.4079   6.4385   6.5947   6.6525   7.0583   7.1965   7.2629
     7.5389   7.7532   7.8810   7.8854   8.0824   8.3347   8.3411   8.4725
     8.7507   8.7951   8.8093   8.8342   8.9203   9.0170   9.0529   9.0710
     9.1152   9.1419   9.1621   9.1970   9.4016   9.4302   9.4410   9.4447
     9.4520   9.4627

     the Fermi energy is     2.3877 ev

!    total energy              =   -3711.52186304 Ry
     Harris-Foulkes estimate   =   -3711.52186305 Ry
     estimated scf accuracy    <          9.6E-09 Ry

     The total energy is the sum of the following terms:

     one-electron contribution =  -53550.39874622 Ry
     hartree contribution      =   27076.11361485 Ry
     xc contribution           =   -1263.80582180 Ry
     ewald contribution        =   24026.58933333 Ry
     smearing contrib. (-TS)   =      -0.02024320 Ry

     convergence has been achieved in  34 iterations

     negative rho (up, down):  9.195E-02 0.000E+00

     Forces acting on atoms (cartesian axes, Ry/au):

     atom    1 type  4   force =    -0.00000595    0.00000000   -0.00050164
     atom    2 type  4   force =     0.00000595    0.00000000   -0.00050164
     atom    3 type  3   force =    -0.00000595    0.00000000    0.00018582
     atom    4 type  3   force =     0.00000595    0.00000000    0.00018582
     atom    5 type  4   force =    -0.00000001    0.00000000    0.00013638
     atom    6 type  4   force =     0.00000001    0.00000000    0.00013638
     atom    7 type  1   force =     0.00000000    0.00000000   -0.00037123
     atom    8 type  1   force =     0.00000000    0.00000000   -0.00033798
     atom    9 type  3   force =     0.00012063    0.00000000   -0.00035153
     atom   10 type  3   force =    -0.00012063    0.00000000   -0.00035153
     atom   11 type  4   force =     0.00000000    0.00000000    0.00108999
     atom   12 type  4   force =     0.00005799    0.00000000    0.00137439
     atom   13 type  4   force =    -0.00005799    0.00000000    0.00137439
     atom   14 type  4   force =     0.00000000    0.00000000    0.00143181
     atom   15 type  2   force =     0.00000000    0.00000000   -0.00325415
     atom   16 type  5   force =     0.00000000    0.00000000   -0.00481124
     atom   17 type  4   force =     0.00094429    0.00000000    0.00628655
     atom   18 type  4   force =    -0.00094429    0.00000000    0.00628655
     atom   19 type  4   force =     0.00000000    0.00000000    0.00398914
     atom   20 type  4   force =     0.00000000    0.00000000    0.00519754
     atom   21 type  3   force =     0.00053593    0.00000000   -0.00186885
     atom   22 type  3   force =    -0.00053593    0.00000000   -0.00186885
     atom   23 type  1   force =     0.00000000    0.00000000    0.00738146
     atom   24 type  1   force =     0.00000000    0.00000000    0.01384880
     atom   25 type  4   force =     0.00249888    0.00000000   -0.01850609
     atom   26 type  4   force =    -0.00249888    0.00000000   -0.01850609
     atom   27 type  4   force =    -0.01330209    0.00000000    0.02831656
     atom   28 type  4   force =     0.01330209    0.00000000    0.02831656
     atom   29 type  3   force =     0.01277886    0.00000000   -0.02598662
     atom   30 type  3   force =    -0.01277886    0.00000000   -0.02598662
     atom   31 type  4   force =     0.01522013    0.00000000    0.02636373
     atom   32 type  4   force =    -0.01522013    0.00000000    0.02636373
     atom   33 type  1   force =     0.00000000    0.00000000   -0.00323450
     atom   34 type  1   force =     0.00000000    0.00000000   -0.01485101
     atom   35 type  3   force =    -0.00346111    0.00000000   -0.02088414
     atom   36 type  3   force =     0.00346111    0.00000000   -0.02088414
     atom   37 type  4   force =     0.00000000    0.00000000    0.00302458
     atom   38 type  4   force =     0.00000000    0.00000000    0.00065316
     atom   39 type  4   force =     0.00284365    0.00000000    0.00034381
     atom   40 type  4   force =    -0.00284365    0.00000000    0.00034381
     atom   41 type  5   force =     0.00000000    0.00000000    0.00210361
     atom   42 type  2   force =     0.00000000    0.00000000    0.00040944
     atom   43 type  4   force =     0.00000000    0.00000000    0.00023863
     atom   44 type  4   force =     0.00002413    0.00000000   -0.00139465
     atom   45 type  4   force =    -0.00002413    0.00000000   -0.00139465
     atom   46 type  4   force =     0.00000000    0.00000000   -0.00007958
     atom   47 type  3   force =    -0.00005685    0.00000000    0.00041043
     atom   48 type  3   force =     0.00005685    0.00000000    0.00041043
     atom   49 type  1   force =     0.00000000    0.00000000    0.00017943
     atom   50 type  1   force =     0.00000000    0.00000000    0.00023599
     atom   51 type  4   force =    -0.00004981    0.00000000   -0.00080912
     atom   52 type  4   force =     0.00004981    0.00000000   -0.00080912
     atom   53 type  3   force =    -0.00003745    0.00000000    0.00084121
     atom   54 type  3   force =     0.00003745    0.00000000    0.00084121
     atom   55 type  4   force =     0.00001744    0.00000000   -0.00037818
     atom   56 type  4   force =    -0.00001744    0.00000000   -0.00037818

     Total force =     0.088149     Total SCF correction =     0.000481

     Computing stress (Cartesian axis) and pressure

     negative rho (up, down):  9.195E-02 0.000E+00
          total   stress  (Ry/bohr**3)                   (kbar)     P=       -5.86
  -0.00000184   0.00000000   0.00000000           -0.27        0.00        0.00
   0.00000000  -0.00008926   0.00000000            0.00      -13.13        0.00
   0.00000000   0.00000000  -0.00002834            0.00        0.00       -4.17

     General routines

     Parallel routines

   This run was terminated on:  10:33:48  28May2021

   JOB DONE.
[1622212428.901429] [holy7c04310:5602 :0]          mpool.c:43   UCX  WARN  object 0x3ae7d00 was not returned to mpool ucp_requests
[1622212428.897152] [holy7c04309:31607:0]          mpool.c:43   UCX  WARN  object 0x3f6f940 was not returned to mpool ucp_requests
[1622212428.902971] [holy7c04401:11388:0]          mpool.c:43   UCX  WARN  object 0x3c04b40 was not returned to mpool ucp_requests
[1622212428.902505] [holy7c04309:31606:0]          mpool.c:43   UCX  WARN  object 0x3b5f4c0 was not returned to mpool ucp_requests
[1622212428.902395] [holy7c04309:31608:0]          mpool.c:43   UCX  WARN  object 0x2d34b40 was not returned to mpool ucp_requests
[1622212428.902421] [holy7c04309:31608:0]          mpool.c:43   UCX  WARN  object 0x2d34ec0 was not returned to mpool ucp_requests
[1622212428.911851] [holy7c04312:200297:0]          mpool.c:43   UCX  WARN  object 0x3b37840 was not returned to mpool ucp_requests
[1622212428.898893] [holy7c04310:5608 :0]          mpool.c:43   UCX  WARN  object 0x4293280 was not returned to mpool ucp_requests
[1622212428.898925] [holy7c04310:5608 :0]          mpool.c:43   UCX  WARN  object 0x4293440 was not returned to mpool ucp_requests
[1622212428.907606] [holy7c04310:5601 :0]          mpool.c:43   UCX  WARN  object 0x46a3c40 was not returned to mpool ucp_requests
[1622212428.902795] [holy7c04310:5606 :0]          mpool.c:43   UCX  WARN  object 0x3dfc240 was not returned to mpool ucp_requests
[1622212428.912864] [holy7c04310:5603 :0]          mpool.c:43   UCX  WARN  object 0x449c900 was not returned to mpool ucp_requests
[1622212428.912888] [holy7c04310:5603 :0]          mpool.c:43   UCX  WARN  object 0x449cac0 was not returned to mpool ucp_requests
[1622212428.911470] [holy7c04401:11389:0]          mpool.c:43   UCX  WARN  object 0x469aec0 was not returned to mpool ucp_requests
[1622212428.909373] [holy7c04312:200298:0]          mpool.c:43   UCX  WARN  object 0x300b100 was not returned to mpool ucp_requests
[1622212428.909549] [holy7c04312:200300:0]          mpool.c:43   UCX  WARN  object 0x3b35bc0 was not returned to mpool ucp_requests
[1622212428.909572] [holy7c04312:200300:0]          mpool.c:43   UCX  WARN  object 0x3b35f40 was not returned to mpool ucp_requests