     Program PWSCF v.6.5 starts on  1Jun2021 at 12:11:53

     R & G space division:  proc/nbgrp/npool/nimage =      32
     Reading input from YCBCO50_212_CuO_cleave_5.0_sep.pwi
Warning: card &IONS ignored
Warning: card     ION_DYNAMICS = 'BFGS' ignored
Warning: card / ignored
Warning: card &CELL ignored
Warning: card     CELL_DYNAMICS = 'BFGS' ignored
Warning: card     PRESS_CONV_THR = 5 ignored
Warning: card / ignored

     Current dimensions of program PWSCF are:
     Max number of different atomic species (ntypx) = 10
     Max number of k-points (npk) =  40000
     Max angular momentum in pseudopotentials (lmaxx) =  3

     Message from routine setup:
     using ibrav=0 with symmetry is DISCOURAGED, use correct ibrav instead

     bravais-lattice index     =            0
     lattice parameter (alat)  =      14.8133  a.u.
     unit-cell volume          =    9707.1835 (a.u.)^3
     number of atoms/cell      =           56
     number of atomic types    =            5
     number of electrons       =       456.00
     number of Kohn-Sham states=          274
     kinetic-energy cutoff     =      60.0000  Ry
     charge density cutoff     =     720.0000  Ry
     convergence threshold     =      1.0E-08
     mixing beta               =       0.5000
     number of iterations used =           10  local-TF  mixing
     Exchange-correlation= SLA PW PBE PBE
                           (   1   4   3   4   0   0   0)

     celldm(1)=  14.813271  celldm(2)=   0.000000  celldm(3)=   0.000000
     celldm(4)=   0.000000  celldm(5)=   0.000000  celldm(6)=   0.000000

     crystal axes: (cart. coord. in units of alat)
               a(1) = (   1.000000   0.000000   0.000000 )
               a(2) = (   0.000000   0.477453   0.000000 )
               a(3) = (   0.000000   0.000000   6.254750 )

     reciprocal axes: (cart. coord. in units 2 pi/alat)
               b(1) = (  1.000000  0.000000  0.000000 )
               b(2) = (  0.000000  2.094448  0.000000 )
               b(3) = (  0.000000  0.000000  0.159878 )

     PseudoPot. # 1 for Ba read from file:
     ./pseudo/Ba.pbe-nsp-van.UPF
     MD5 check sum: 2b9c31dd849566dd297d80989662b7a0
     Pseudo is Ultrasoft + core correction, Zval = 10.0
     Generated by new atomic code, or converted to UPF format
     Using radial grid of  907 points,  6 beta functions with:
                l(1) =   0
                l(2) =   0
                l(3) =   1
                l(4) =   1
                l(5) =   2
                l(6) =   2
     Q(r) pseudized with  6 coefficients,  rinner =    1.200   1.200   1.200
                                                       1.200   1.200

     PseudoPot. # 2 for Ca read from file:
     ./pseudo/Ca.pbe-nsp-van.UPF
     MD5 check sum: 6471098428ff4fa451746d08035ff179
     Pseudo is Ultrasoft + core correction, Zval = 10.0
     Generated by new atomic code, or converted to UPF format
     Using radial grid of  845 points,  6 beta functions with:
                l(1) =   0
                l(2) =   0
                l(3) =   1
                l(4) =   1
                l(5) =   2
                l(6) =   2
     Q(r) pseudized with  6 coefficients,  rinner =    1.200   1.200   1.200
                                                       1.200   1.200

     PseudoPot. # 3 for Cu read from file:
     ./pseudo/Cu.pbe-n-van_ak.UPF
     MD5 check sum: 34e3282627ffb533726feb647e090d62
     Pseudo is Ultrasoft + core correction, Zval = 11.0
     Generated by new atomic code, or converted to UPF format
     Using radial grid of  867 points,  6 beta functions with:
                l(1) =   0
                l(2) =   0
                l(3) =   1
                l(4) =   1
                l(5) =   2
                l(6) =   2
     Q(r) pseudized with  8 coefficients,  rinner =    1.400   1.400   1.400
                                                       1.400   1.400

     PseudoPot. # 4 for O  read from file:
     ./pseudo/O.pbe-van_ak.UPF
     MD5 check sum: 783ce7fe4c79b6a4916957118fed0856
     Pseudo is Ultrasoft, Zval =  6.0
     Generated by new atomic code, or converted to UPF format
     Using radial grid of  737 points,  4 beta functions with:
                l(1) =   0
                l(2) =   0
                l(3) =   1
                l(4) =   1
     Q(r) pseudized with  8 coefficients,  rinner =    0.800   0.800   0.800

     PseudoPot. # 5 for Y  read from file:
     ./pseudo/Y.pbe-nsp-van.UPF
     MD5 check sum: 4412fed3ab108fed87a1b7d6a69a4a38
     Pseudo is Ultrasoft + core correction, Zval = 11.0
     Generated by new atomic code, or converted to UPF format
     Using radial grid of  885 points,  6 beta functions with:
                l(1) =   0
                l(2) =   0
                l(3) =   1
                l(4) =   1
                l(5) =   2
                l(6) =   2
     Q(r) pseudized with  6 coefficients,  rinner =    1.200   1.200   1.200
                                                       1.200   1.200

     atomic species   valence    mass     pseudopotential
        Ba            10.00   137.32700     Ba( 1.00)
        Ca            10.00    40.07800     Ca( 1.00)
        Cu            11.00    63.54600     Cu( 1.00)
        O              6.00    15.99900     O ( 1.00)
        Y             11.00    88.90584     Y ( 1.00)

      4 Sym. Ops. (no inversion) found ( 2 have fractional translation)

   Cartesian axes

     site n.     atom                  positions (alat units)
         1           O   tau(   1) = (  -0.0008343   0.2387265  -0.0222443  )
         2           O   tau(   2) = (   0.5008340   0.2387265  -0.0222443  )
         3           Cu  tau(   3) = (   0.5017257   0.0000000   0.0109608  )
         4           Cu  tau(   4) = (  -0.0017260   0.0000000   0.0109608  )
         5           O   tau(   5) = (  -0.0028933   0.0000000   0.2506504  )
         6           O   tau(   6) = (   0.5028929   0.0000000   0.2506504  )
         7           Ba  tau(   7) = (   0.7499995   0.2387265   0.2749435  )
         8           Ba  tau(   8) = (   0.2499998   0.2387265   0.2755214  )
         9           Cu  tau(   9) = (   0.4980963   0.0000000   0.5208446  )
        10           Cu  tau(  10) = (   0.0019033   0.0000000   0.5208446  )
        11           O   tau(  11) = (   0.2499998   0.0000000   0.5341884  )
        12           O   tau(  12) = (   0.5083351   0.2387265   0.5569851  )
        13           O   tau(  13) = (  -0.0083354   0.2387265   0.5569851  )
        14           O   tau(  14) = (   0.7499995   0.0000000   0.5573831  )
        15           Ca  tau(  15) = (   0.2499998   0.2387265   0.7436937  )
        16           Y   tau(  16) = (   0.7499995   0.2387265   0.7469544  )
        17           O   tau(  17) = (  -0.0063798   0.2387265   0.9248530  )
        18           O   tau(  18) = (   0.5063794   0.2387265   0.9248530  )
        19           O   tau(  19) = (   0.7499995   0.0000000   0.9338544  )
        20           O   tau(  20) = (   0.2499998   0.0000000   0.9461329  )
        21           Cu  tau(  21) = (   0.0015717   0.0000000   0.9686860  )
        22           Cu  tau(  22) = (   0.4984280   0.0000000   0.9686860  )
        23           Ba  tau(  23) = (   0.2499998   0.2387265   1.2085224  )
        24           Ba  tau(  24) = (   0.7499995   0.2387265   1.2233294  )
        25           O   tau(  25) = (   0.0063772   0.0000000   1.2547537  )
        26           O   tau(  26) = (   0.4936224   0.0000000   1.2547537  )
        27           O   tau(  27) = (   0.5384045   0.2387265   1.4952521  )
        28           O   tau(  28) = (  -0.0384049   0.2387265   1.4952521  )
        29           Cu  tau(  29) = (   0.5006120   0.0000000   1.4952546  )
        30           Cu  tau(  30) = (  -0.0006123   0.0000000   1.4952546  )
        31           O   tau(  31) = (   0.4936212   0.0000000   2.3736021  )
        32           O   tau(  32) = (   0.0063785   0.0000000   2.3736021  )
        33           Ba  tau(  33) = (   0.7499995   0.2387265   2.4050315  )
        34           Ba  tau(  34) = (   0.2499998   0.2387265   2.4198410  )
        35           Cu  tau(  35) = (   0.4984280   0.0000000   2.6596723  )
        36           Cu  tau(  36) = (   0.0015717   0.0000000   2.6596723  )
        37           O   tau(  37) = (   0.2499998   0.0000000   2.6822304  )
        38           O   tau(  38) = (   0.7499995   0.0000000   2.6945001  )
        39           O   tau(  39) = (   0.5063781   0.2387265   2.7035053  )
        40           O   tau(  40) = (  -0.0063785   0.2387265   2.7035053  )
        41           Y   tau(  41) = (   0.7499995   0.2387265   2.8813988  )
        42           Ca  tau(  42) = (   0.2499998   0.2387265   2.8846684  )
        43           O   tau(  43) = (   0.7499995   0.0000000   3.0709663  )
        44           O   tau(  44) = (  -0.0083354   0.2387265   3.0713681  )
        45           O   tau(  45) = (   0.5083351   0.2387265   3.0713681  )
        46           O   tau(  46) = (   0.2499998   0.0000000   3.0941661  )
        47           Cu  tau(  47) = (   0.0019059   0.0000000   3.1074997  )
        48           Cu  tau(  48) = (   0.4980938   0.0000000   3.1074997  )
        49           Ba  tau(  49) = (   0.2499998   0.2387265   3.3528394  )
        50           Ba  tau(  50) = (   0.7499995   0.2387265   3.3533816  )
        51           O   tau(  51) = (  -0.0028895   0.0000000   3.3776887  )
        52           O   tau(  52) = (   0.5028891   0.0000000   3.3776887  )
        53           Cu  tau(  53) = (   0.5017844   0.0000000   3.6173733  )
        54           Cu  tau(  54) = (  -0.0017847   0.0000000   3.6173733  )
        55           O   tau(  55) = (   0.5008990   0.2387265   3.6505797  )
        56           O   tau(  56) = (  -0.0008994   0.2387265   3.6505797  )

     number of k points=    25  Gaussian smearing, width (Ry)=  0.0100
                       cart. coord. in units 2pi/alat
        k(    1) = (   0.0000000   0.0000000   0.0000000), wk =   0.0312500
        k(    2) = (   0.0000000   0.2618060   0.0000000), wk =   0.0625000
        k(    3) = (   0.0000000   0.5236121   0.0000000), wk =   0.0625000
        k(    4) = (   0.0000000   0.7854181   0.0000000), wk =   0.0625000
        k(    5) = (   0.0000000  -1.0472241   0.0000000), wk =   0.0312500
        k(    6) = (   0.1250000   0.0000000   0.0000000), wk =   0.0625000
        k(    7) = (   0.1250000   0.2618060   0.0000000), wk =   0.1250000
        k(    8) = (   0.1250000   0.5236121   0.0000000), wk =   0.1250000
        k(    9) = (   0.1250000   0.7854181   0.0000000), wk =   0.1250000
        k(   10) = (   0.1250000  -1.0472241   0.0000000), wk =   0.0625000
        k(   11) = (   0.2500000   0.0000000   0.0000000), wk =   0.0625000
        k(   12) = (   0.2500000   0.2618060   0.0000000), wk =   0.1250000
        k(   13) = (   0.2500000   0.5236121   0.0000000), wk =   0.1250000
        k(   14) = (   0.2500000   0.7854181   0.0000000), wk =   0.1250000
        k(   15) = (   0.2500000  -1.0472241   0.0000000), wk =   0.0625000
        k(   16) = (   0.3750000   0.0000000   0.0000000), wk =   0.0625000
        k(   17) = (   0.3750000   0.2618060   0.0000000), wk =   0.1250000
        k(   18) = (   0.3750000   0.5236121   0.0000000), wk =   0.1250000
        k(   19) = (   0.3750000   0.7854181   0.0000000), wk =   0.1250000
        k(   20) = (   0.3750000  -1.0472241   0.0000000), wk =   0.0625000
        k(   21) = (  -0.5000000   0.0000000   0.0000000), wk =   0.0312500
        k(   22) = (  -0.5000000   0.2618060   0.0000000), wk =   0.0625000
        k(   23) = (  -0.5000000   0.5236121   0.0000000), wk =   0.0625000
        k(   24) = (  -0.5000000   0.7854181   0.0000000), wk =   0.0625000
        k(   25) = (  -0.5000000  -1.0472241   0.0000000), wk =   0.0312500

     Initial potential from superposition of free atoms

     starting charge  455.69457, renormalised to  456.00000

     negative rho (up, down):  9.319E-02 0.000E+00
     Starting wfcs are  396 randomized atomic wfcs

     Self-consistent Calculation

     iteration #  1     ecut=    60.00 Ry     beta= 0.50
     Davidson diagonalization with overlap
     ethr =  1.00E-02,  avg # of iterations =  2.0

     negative rho (up, down):  8.622E-02 0.000E+00

     total energy              =   -3708.26494687 Ry
     Harris-Foulkes estimate   =   -3716.45619671 Ry
     estimated scf accuracy    <      31.95614304 Ry

[...]

     iteration # 13     ecut=    60.00 Ry     beta= 0.50
     Davidson diagonalization with overlap
     c_bands:  1 eigenvalues not converged
     c_bands:  1 eigenvalues not converged
     ethr =  8.32E-06,  avg # of iterations =  8.4

[...]

     iteration # 24     ecut=    60.00 Ry     beta= 0.50
     Davidson diagonalization with overlap
     c_bands:  1 eigenvalues not converged
     ethr =  5.49E-08,  avg # of iterations =  5.4

[...]

     total energy              =   -3711.51820868 Ry
     Harris-Foulkes estimate   =   -3711.51820867 Ry
     estimated scf accuracy    <       0.00000001 Ry

     iteration # 37     ecut=    60.00 Ry     beta= 0.50
     Davidson diagonalization with overlap
     ethr =  3.15E-12,  avg # of iterations =  2.0

[...]

     End of self-consistent calculation

          k = 0.0000 0.0000 0.0000 ( 76245 PWs)   bands (ev):

   -38.7615 -38.6983 -36.3966 -36.3243 -23.5502 -23.5052 -23.4942 -23.3769
   -23.3659 -23.3549 -23.1879 -22.9736 -19.2347 -19.1808 -19.1345 -19.0727
   -18.7656 -18.7010 -17.7427 -17.6733 -17.6091 -17.5410 -17.4280 -17.3522
   -16.1388 -16.0976 -15.6795 -15.6603 -15.4708 -15.3516 -15.2971 -15.2869
   -15.2433 -15.2133 -15.1536 -15.1431 -15.1314 -15.1199 -15.0018 -14.9898
   -14.8251 -14.7816 -14.7128 -14.6806 -14.6727 -14.6694 -14.6655 -14.6554
   -14.6285 -14.5544 -14.4850 -14.4342 -13.5379 -13.0651  -8.8945  -8.7441
    -8.7303  -8.6366  -8.6230  -8.5912  -8.5543  -8.5439  -8.4562  -8.4162
    -8.4055  -8.3934  -8.3659  -8.3197  -8.3094  -8.2781  -8.2683  -8.2401
    -8.1893  -8.1783  -8.1675  -8.0069  -7.8125  -7.7100  -3.6844  -3.6606
    -3.5725  -3.4740  -2.8583  -2.8521  -2.7717  -2.7694  -2.7649  -2.7347
    -2.6259  -2.5749  -2.5641  -2.5385  -2.5344  -2.5163  -2.4734  -2.4728
    -2.4075  -2.3693  -2.3636  -2.3095  -2.2577  -2.2009  -2.0644  -2.0348
    -1.8795  -1.8292  -1.8104  -1.7890  -1.7170  -1.6540  -1.6267  -1.6114
    -1.6036  -1.6022  -1.5948  -1.5926  -1.5710  -1.5695  -1.5078  -1.4332
    -1.3785  -1.3713  -1.1302  -1.0879  -1.0154  -0.9507  -0.9425  -0.9326
    -0.9323  -0.9058  -0.9055  -0.8877  -0.8697  -0.8563  -0.8201  -0.8153
    -0.8135  -0.8130  -0.8005  -0.7652  -0.7311  -0.6634  -0.6387  -0.6281
    -0.6273  -0.6182  -0.6036  -0.5595  -0.5531  -0.5414  -0.5368  -0.5081
    -0.5071  -0.5038  -0.5015  -0.4247  -0.4086  -0.4008  -0.3865  -0.3690
    -0.3627  -0.3615  -0.3153  -0.2850  -0.2748  -0.2579  -0.2063  -0.1633
    -0.1325  -0.1231  -0.0993  -0.0981  -0.0843  -0.0747  -0.0688  -0.0683
     0.0925   0.1175   0.1922   0.2486   0.2690   0.3209   0.3541   0.3664
     0.3776   0.3993   0.4049   0.4392   0.5185   0.5483   0.5648   0.5822
     0.5878   0.5910   0.5927   0.5943   0.6725   0.6971   0.7101   0.7434
     0.7507   0.7527   0.7681   0.7968   0.8329   0.8503   0.9180   0.9722
     0.9810   1.0135   1.0830   1.0875   1.0915   1.1547   1.1569   1.1645
     1.1830   1.2164   1.2262   1.2754   1.3173   1.4251   1.4387   1.4900
     1.5961   1.6044   1.7251   1.7699   1.7712   1.8436   1.8642   1.9512
     1.9588   1.9805   1.9867   2.0324   2.2285   2.2828   4.3362   4.6065
     4.6128   5.2476   5.3099   5.7866   5.9770   6.0017   6.1362   6.2150
     6.3290   6.5770   6.6465   6.6530   6.7416   6.7490   6.8894   6.9332
     7.2694   7.3738   7.4604   7.4679   7.5214   7.5483   7.6784   7.7796
     7.8150   7.8430   7.9284   7.9681   7.9698   8.0764   8.3344   8.4448
     8.4767   8.5090

[...]

          k = 0.3750-1.0472 0.0000 ( 76210 PWs)   bands (ev):

[...]

          k =-0.5000 0.0000 0.0000 ( 76308 PWs)   bands (ev):

[...]

          k =-0.5000-1.0472 0.0000 ( 76140 PWs)   bands (ev):

   -38.7431 -38.6799 -36.3850 -36.3127 -23.4168 -23.3024 -23.2911 -23.2726
   -23.2618 -23.1732 -23.0690 -22.8320 -19.4054 -19.3429 -19.0642 -19.0019
   -18.9403 -18.8850 -17.8194 -17.7437 -17.6405 -17.5736 -17.5348 -17.4661
   -15.4352 -15.4037 -15.3534 -15.3382 -15.2140 -15.1767 -15.1478 -15.1325
   -15.1162 -15.0905 -15.0673 -14.9874 -14.9642 -14.9460 -14.9389 -14.9303
   -14.9241 -14.8911 -14.6848 -14.6816 -14.6766 -14.6740 -14.5965 -14.5546
   -14.5539 -14.5531 -14.5420 -14.5412 -13.3447 -13.3358  -9.0872  -9.0765
    -9.0365  -9.0258  -8.9553  -8.9463  -8.8708  -8.8347  -8.7623  -8.7515
    -8.7387  -8.7280  -8.6818  -8.6610  -8.6586  -8.6485  -8.6465  -8.6322
    -8.6195  -8.4469  -8.3689  -8.3226  -8.3179  -8.2435  -4.5036  -4.4627
    -4.2750  -4.2379  -4.1155  -4.0478  -4.0131  -3.9227  -3.6800  -3.6791
    -3.6701  -3.6692  -3.6294  -3.5766  -3.0271  -3.0171  -2.9238  -2.9091
    -2.8743  -2.8154  -2.7968  -2.7621  -2.7580  -2.7461  -2.6742  -2.6603
    -2.6568  -2.6227  -2.5971  -2.5754  -2.5265  -2.4451  -2.4446  -2.4316
    -2.4149  -2.3852  -2.1690  -2.1247  -2.0489  -2.0000  -1.8315  -1.8090
    -1.7988  -1.7919  -1.7646  -1.7541  -1.5963  -1.5580  -1.5099  -1.4865
    -1.4795  -1.4531  -1.4064  -1.3799  -1.3629  -1.3623  -1.3515  -1.3430
    -1.2648  -1.2209  -1.2027  -1.1858  -1.1843  -1.0809  -1.0020  -0.9995
    -0.9816  -0.9576  -0.9158  -0.8936  -0.7129  -0.6822  -0.4608  -0.4238
    -0.2328  -0.2268  -0.1660  -0.1589  -0.1197  -0.1151  -0.1001  -0.0809
    -0.0786  -0.0318   0.0405   0.1540   0.1542   0.3670   0.3766   0.4199
     0.4285   0.4487   0.4674   0.5037   0.5073   0.5355   0.5380   0.5882
     0.5885   0.5922   0.6538   0.6848   0.6966   0.7171   0.7324   0.7566
     0.7667   0.8087   0.8127   0.8303   0.8403   0.8533   0.8778   0.8837
     0.9206   0.9631   0.9772   1.0787   1.1540   1.1700   1.2210   1.2366
     1.2391   1.2707   1.3378   1.3690   1.3839   1.3965   1.4636   1.4640
     1.4891   1.5277   1.5527   1.5686   1.5695   1.5817   1.5833   1.7020
     1.8012   1.8183   1.8481   1.8677   1.9171   1.9260   1.9264   1.9356
     2.0607   2.0706   2.1234   2.1458   2.2465   2.3133   2.8315   2.8660
     2.8951   2.9317   2.9919   3.0270   3.1042   3.1271   5.6494   6.0988
     6.1079   6.1190   6.1475   6.3056   6.3607   6.7882   6.9092   6.9786
     7.3010   7.4156   7.5889   7.6368   7.8307   7.8879   7.9728   8.0940
     8.1909   8.5042   8.5111   8.5323   8.5829   8.7155   8.7628   8.7797
     8.7909   8.8236   8.8465   8.8777   9.1002   9.1332   9.1429   9.1549
     9.1564   9.1681

     the Fermi energy is     2.0974 ev

!    total energy              =   -3711.51820870 Ry
     Harris-Foulkes estimate   =   -3711.51820868 Ry
     estimated scf accuracy    <          7.8E-09 Ry

     The total energy is the sum of the following terms:

     one-electron contribution =  -48284.08807244 Ry
     hartree contribution      =   24438.08647079 Ry
     xc contribution           =   -1263.80729009 Ry
     ewald contribution        =   21398.31082079 Ry
     smearing contrib. (-TS)   =      -0.02013776 Ry

     convergence has been achieved in  37 iterations

     negative rho (up, down):  9.214E-02 0.000E+00

     Forces acting on atoms (cartesian axes, Ry/au):

     atom    1 type  4   force =    -0.00000667    0.00000000   -0.00051346
     atom    2 type  4   force =     0.00000667    0.00000000   -0.00051346
     atom    3 type  3   force =    -0.00000343    0.00000000    0.00021303
     atom    4 type  3   force =     0.00000343    0.00000000    0.00021303
     atom    5 type  4   force =     0.00000664    0.00000000    0.00015179
     atom    6 type  4   force =    -0.00000664    0.00000000    0.00015179
     atom    7 type  1   force =     0.00000000    0.00000000   -0.00037617
     atom    8 type  1   force =     0.00000000    0.00000000   -0.00034133
     atom    9 type  3   force =     0.00010766    0.00000000   -0.00026493
     atom   10 type  3   force =    -0.00010766    0.00000000   -0.00026493
     atom   11 type  4   force =     0.00000000    0.00000000    0.00110104
     atom   12 type  4   force =     0.00005530    0.00000000    0.00137965
     atom   13 type  4   force =    -0.00005530    0.00000000    0.00137965
     atom   14 type  4   force =     0.00000000    0.00000000    0.00143726
     atom   15 type  2   force =     0.00000000    0.00000000   -0.00326956
     atom   16 type  5   force =     0.00000000    0.00000000   -0.00481557
     atom   17 type  4   force =     0.00095177    0.00000000    0.00627338
     atom   18 type  4   force =    -0.00095177    0.00000000    0.00627338
     atom   19 type  4   force =     0.00000000    0.00000000    0.00398123
     atom   20 type  4   force =     0.00000000    0.00000000    0.00517169
     atom   21 type  3   force =     0.00053692    0.00000000   -0.00173979
     atom   22 type  3   force =    -0.00053692    0.00000000   -0.00173979
     atom   23 type  1   force =     0.00000000    0.00000000    0.00755567
     atom   24 type  1   force =     0.00000000    0.00000000    0.01418821
     atom   25 type  4   force =     0.00256902    0.00000000   -0.01821897
     atom   26 type  4   force =    -0.00256902    0.00000000   -0.01821897
     atom   27 type  4   force =    -0.01348607    0.00000000    0.02762256
     atom   28 type  4   force =     0.01348607    0.00000000    0.02762256
     atom   29 type  3   force =     0.01302781    0.00000000   -0.02689509
     atom   30 type  3   force =    -0.01302781    0.00000000   -0.02689509
     atom   31 type  4   force =     0.01583381    0.00000000    0.02496189
     atom   32 type  4   force =    -0.01583381    0.00000000    0.02496189
     atom   33 type  1   force =     0.00000000    0.00000000    0.00033785
     atom   34 type  1   force =     0.00000000    0.00000000   -0.01331385
     atom   35 type  3   force =    -0.00351571    0.00000000   -0.02070602
     atom   36 type  3   force =     0.00351571    0.00000000   -0.02070602
     atom   37 type  4   force =     0.00000000    0.00000000    0.00293153
     atom   38 type  4   force =     0.00000000    0.00000000    0.00043338
     atom   39 type  4   force =     0.00292601    0.00000000    0.00023220
     atom   40 type  4   force =    -0.00292601    0.00000000    0.00023220
     atom   41 type  5   force =     0.00000000    0.00000000    0.00212880
     atom   42 type  2   force =     0.00000000    0.00000000    0.00041239
     atom   43 type  4   force =     0.00000000    0.00000000    0.00021321
     atom   44 type  4   force =     0.00002237    0.00000000   -0.00140454
     atom   45 type  4   force =    -0.00002237    0.00000000   -0.00140454
     atom   46 type  4   force =     0.00000000    0.00000000   -0.00008566
     atom   47 type  3   force =    -0.00003714    0.00000000    0.00029382
     atom   48 type  3   force =     0.00003714    0.00000000    0.00029382
     atom   49 type  1   force =     0.00000000    0.00000000    0.00017573
     atom   50 type  1   force =     0.00000000    0.00000000    0.00023665
     atom   51 type  4   force =    -0.00004476    0.00000000   -0.00082226
     atom   52 type  4   force =     0.00004476    0.00000000   -0.00082226
     atom   53 type  3   force =    -0.00003631    0.00000000    0.00076719
     atom   54 type  3   force =     0.00003631    0.00000000    0.00076719
     atom   55 type  4   force =     0.00002052    0.00000000   -0.00038170
     atom   56 type  4   force =    -0.00002052    0.00000000   -0.00038170

     Total force =     0.087339     Total SCF correction =     0.000451

     Computing stress (Cartesian axis) and pressure

     negative rho (up, down):  9.214E-02 0.000E+00
          total   stress  (Ry/bohr**3)                   (kbar)     P=       -5.74
  -0.00000291   0.00000000   0.00000000           -0.43        0.00        0.00
   0.00000000  -0.00008827   0.00000000            0.00      -12.99        0.00
   0.00000000   0.00000000  -0.00002583            0.00        0.00       -3.80

     General routines

     Parallel routines

   This run was terminated on:  12:48: 4   1Jun2021

   JOB DONE.
[1622566084.994580] [holy7c04210:109287:0]          mpool.c:43   UCX  WARN  object 0x3b3fa40 was not returned to mpool ucp_requests
[1622566084.996328] [holy7c04306:228830:0]          mpool.c:43   UCX  WARN  object 0x28dc640 was not returned to mpool ucp_requests
[1622566085.000210] [holy7c04302:66961:0]          mpool.c:43   UCX  WARN  object 0x4431340 was not returned to mpool ucp_requests
[1622566085.000231] [holy7c04302:66961:0]          mpool.c:43   UCX  WARN  object 0x4431dc0 was not returned to mpool ucp_requests
[1622566084.993809] [holy7c04210:109289:0]          mpool.c:43   UCX  WARN  object 0x3c7af80 was not returned to mpool ucp_requests
[1622566084.993833] [holy7c04210:109289:0]          mpool.c:43   UCX  WARN  object 0x3c7b4c0 was not returned to mpool ucp_requests
[1622566085.005217] [holy7c04109:178213:0]          mpool.c:43   UCX  WARN  object 0x33048c0 was not returned to mpool ucp_requests
[1622566085.012663] [holy7c04109:178212:0]          mpool.c:43   UCX  WARN  object 0x459bc40 was not returned to mpool ucp_requests
[1622566084.994468] [holy7c04210:109288:0]          mpool.c:43   UCX  WARN  object 0x4464680 was not returned to mpool ucp_requests
[1622566085.006358] [holy7c04109:178214:0]          mpool.c:43   UCX  WARN  object 0x375e8c0 was not returned to mpool ucp_requests
[1622566085.006377] [holy7c04109:178214:0]          mpool.c:43   UCX  WARN  object 0x375efc0 was not returned to mpool ucp_requests
[1622566085.005399] [holy7c04306:228829:0]          mpool.c:43   UCX  WARN  object 0x4332f00 was not returned to mpool ucp_requests
[1622566085.006145] [holy7c04306:228827:0]          mpool.c:43   UCX  WARN  object 0x4547980 was not returned to mpool ucp_requests
[1622566085.006163] [holy7c04306:228827:0]          mpool.c:43   UCX  WARN  object 0x4547b40 was not returned to mpool ucp_requests
[1622566085.005197] [holy7c04302:66963:0]          mpool.c:43   UCX  WARN  object 0x38c8a80 was not returned to mpool ucp_requests
[1622566085.005356] [holy7c04302:66959:0]          mpool.c:43   UCX  WARN  object 0x37c50c0 was not returned to mpool ucp_requests
[1622566085.016118] [holy7c04302:66964:0]          mpool.c:43   UCX  WARN  object 0x3b14840 was not returned to mpool ucp_requests