     Program PWSCF v.6.5 starts on 25May2021 at 14:24:48

     R & G space division:  proc/nbgrp/npool/nimage =      32
     Reading input from YCBCO50_212_BaO_cleave_1.0_sep.pwi
Warning: card &IONS ignored
Warning: card     ION_DYNAMICS = 'BFGS' ignored
Warning: card / ignored
Warning: card &CELL ignored
Warning: card     CELL_DYNAMICS = 'BFGS' ignored
Warning: card     PRESS_CONV_THR = 5 ignored
Warning: card / ignored

     Current dimensions of program PWSCF are:
     Max number of different atomic species (ntypx) = 10
     Max number of k-points (npk) =  40000
     Max angular momentum in pseudopotentials (lmaxx) =  3

     Message from routine setup:
     using ibrav=0 with symmetry is DISCOURAGED, use correct ibrav instead

     bravais-lattice index     =            0
     lattice parameter (alat)  =      14.8133  a.u.
     unit-cell volume          =    8915.2456 (a.u.)^3
     number of atoms/cell      =           56
     number of atomic types    =            5
     number of electrons       =       456.00
     number of Kohn-Sham states=          274
     kinetic-energy cutoff     =      60.0000  Ry
     charge density cutoff     =     720.0000  Ry
     convergence threshold     =      1.0E-08
     mixing beta               =       0.5000
     number of iterations used =           10  local-TF  mixing
     Exchange-correlation= SLA PW PBE PBE
                           (   1   4   3   4   0   0   0)

     celldm(1)=  14.813271  celldm(2)=   0.000000  celldm(3)=   0.000000
     celldm(4)=   0.000000  celldm(5)=   0.000000  celldm(6)=   0.000000

     crystal axes: (cart. coord. in units of alat)
               a(1) = (   1.000000   0.000000   0.000000 )
               a(2) = (   0.000000   0.477453   0.000000 )
               a(3) = (   0.000000   0.000000   5.744471 )

     reciprocal axes: (cart. coord. in units 2 pi/alat)
               b(1) = (  1.000000  0.000000  0.000000 )
               b(2) = (  0.000000  2.094448  0.000000 )
               b(3) = (  0.000000  0.000000  0.174080 )

     PseudoPot. # 1 for Ba read from file:
     ./pseudo/Ba.pbe-nsp-van.UPF
     MD5 check sum: 2b9c31dd849566dd297d80989662b7a0
     Pseudo is Ultrasoft + core correction, Zval = 10.0
     Generated by new atomic code, or converted to UPF format
     Using radial grid of  907 points,  6 beta functions with:
                l(1) =   0
                l(2) =   0
                l(3) =   1
                l(4) =   1
                l(5) =   2
                l(6) =   2
     Q(r) pseudized with  6 coefficients,  rinner =    1.200   1.200   1.200
                                                       1.200   1.200

     PseudoPot. # 2 for Ca read from file:
     ./pseudo/Ca.pbe-nsp-van.UPF
     MD5 check sum: 6471098428ff4fa451746d08035ff179
     Pseudo is Ultrasoft + core correction, Zval = 10.0
     Generated by new atomic code, or converted to UPF format
     Using radial grid of  845 points,  6 beta functions with:
                l(1) =   0
                l(2) =   0
                l(3) =   1
                l(4) =   1
                l(5) =   2
                l(6) =   2
     Q(r) pseudized with  6 coefficients,  rinner =    1.200   1.200   1.200
                                                       1.200   1.200

     PseudoPot. # 3 for Cu read from file:
     ./pseudo/Cu.pbe-n-van_ak.UPF
     MD5 check sum: 34e3282627ffb533726feb647e090d62
     Pseudo is Ultrasoft + core correction, Zval = 11.0
     Generated by new atomic code, or converted to UPF format
     Using radial grid of  867 points,  6 beta functions with:
                l(1) =   0
                l(2) =   0
                l(3) =   1
                l(4) =   1
                l(5) =   2
                l(6) =   2
     Q(r) pseudized with  8 coefficients,  rinner =    1.400   1.400   1.400
                                                       1.400   1.400

     PseudoPot. # 4 for O  read from file:
     ./pseudo/O.pbe-van_ak.UPF
     MD5 check sum: 783ce7fe4c79b6a4916957118fed0856
     Pseudo is Ultrasoft, Zval =  6.0
     Generated by new atomic code, or converted to UPF format
     Using radial grid of  737 points,  4 beta functions with:
                l(1) =   0
                l(2) =   0
                l(3) =   1
                l(4) =   1
     Q(r) pseudized with  8 coefficients,  rinner =    0.800   0.800   0.800

     PseudoPot. # 5 for Y  read from file:
     ./pseudo/Y.pbe-nsp-van.UPF
     MD5 check sum: 4412fed3ab108fed87a1b7d6a69a4a38
     Pseudo is Ultrasoft + core correction, Zval = 11.0
     Generated by new atomic code, or converted to UPF format
     Using radial grid of  885 points,  6 beta functions with:
                l(1) =   0
                l(2) =   0
                l(3) =   1
                l(4) =   1
                l(5) =   2
                l(6) =   2
     Q(r) pseudized with  6 coefficients,  rinner =    1.200   1.200   1.200
                                                       1.200   1.200

     atomic species   valence    mass     pseudopotential
        Ba            10.00   137.32700     Ba( 1.00)
        Ca            10.00    40.07800     Ca( 1.00)
        Cu            11.00    63.54600     Cu( 1.00)
        O              6.00    15.99900     O ( 1.00)
        Y             11.00    88.90584     Y ( 1.00)

      4 Sym. Ops. (no inversion) found ( 2 have fractional translation)

   Cartesian axes

     site n.     atom                  positions (alat units)
         1           O   tau(   1) = (  -0.0008343   0.2387265  -0.0222443  )
         2           O   tau(   2) = (   0.5008340   0.2387265  -0.0222443  )
         3           Cu  tau(   3) = (   0.5017257   0.0000000   0.0109608  )
         4           Cu  tau(   4) = (  -0.0017260   0.0000000   0.0109608  )
         5           O   tau(   5) = (  -0.0028933   0.0000000   0.2506504  )
         6           O   tau(   6) = (   0.5028929   0.0000000   0.2506504  )
         7           Ba  tau(   7) = (   0.7499995   0.2387265   0.2749435  )
         8           Ba  tau(   8) = (   0.2499998   0.2387265   0.2755214  )
         9           Cu  tau(   9) = (   0.4980963   0.0000000   0.5208446  )
        10           Cu  tau(  10) = (   0.0019033   0.0000000   0.5208446  )
        11           O   tau(  11) = (   0.2499998   0.0000000   0.5341884  )
        12           O   tau(  12) = (   0.5083351   0.2387265   0.5569851  )
        13           O   tau(  13) = (  -0.0083354   0.2387265   0.5569851  )
        14           O   tau(  14) = (   0.7499995   0.0000000   0.5573831  )
        15           Ca  tau(  15) = (   0.2499998   0.2387265   0.7436937  )
        16           Y   tau(  16) = (   0.7499995   0.2387265   0.7469544  )
        17           O   tau(  17) = (  -0.0063798   0.2387265   0.9248530  )
        18           O   tau(  18) = (   0.5063794   0.2387265   0.9248530  )
        19           O   tau(  19) = (   0.7499995   0.0000000   0.9338544  )
        20           O   tau(  20) = (   0.2499998   0.0000000   0.9461329  )
        21           Cu  tau(  21) = (   0.0015717   0.0000000   0.9686860  )
        22           Cu  tau(  22) = (   0.4984280   0.0000000   0.9686860  )
        23           Ba  tau(  23) = (   0.2499998   0.2387265   1.2085224  )
        24           Ba  tau(  24) = (   0.7499995   0.2387265   1.2233294  )
        25           O   tau(  25) = (   0.0063772   0.0000000   1.2547537  )
        26           O   tau(  26) = (   0.4936224   0.0000000   1.2547537  )
        27           O   tau(  27) = (   0.5384045   0.2387265   1.4952521  )
        28           O   tau(  28) = (  -0.0384049   0.2387265   1.4952521  )
        29           Cu  tau(  29) = (   0.5006120   0.0000000   1.4952546  )
        30           Cu  tau(  30) = (  -0.0006123   0.0000000   1.4952546  )
        31           O   tau(  31) = (   0.4936212   0.0000000   1.7357531  )
        32           O   tau(  32) = (   0.0063785   0.0000000   1.7357531  )
        33           Ba  tau(  33) = (   0.7499995   0.2387265   1.7671824  )
        34           Ba  tau(  34) = (   0.2499998   0.2387265   1.7819920  )
        35           Cu  tau(  35) = (   0.4984280   0.0000000   2.1493930  )
        36           Cu  tau(  36) = (   0.0015717   0.0000000   2.1493930  )
        37           O   tau(  37) = (   0.2499998   0.0000000   2.1719512  )
        38           O   tau(  38) = (   0.7499995   0.0000000   2.1842209  )
        39           O   tau(  39) = (   0.5063781   0.2387265   2.1932260  )
        40           O   tau(  40) = (  -0.0063785   0.2387265   2.1932260  )
        41           Y   tau(  41) = (   0.7499995   0.2387265   2.3711196  )
        42           Ca  tau(  42) = (   0.2499998   0.2387265   2.3743892  )
        43           O   tau(  43) = (   0.7499995   0.0000000   2.5606870  )
        44           O   tau(  44) = (  -0.0083354   0.2387265   2.5610889  )
        45           O   tau(  45) = (   0.5083351   0.2387265   2.5610889  )
        46           O   tau(  46) = (   0.2499998   0.0000000   2.5838869  )
        47           Cu  tau(  47) = (   0.0019059   0.0000000   2.5972205  )
        48           Cu  tau(  48) = (   0.4980938   0.0000000   2.5972205  )
        49           Ba  tau(  49) = (   0.2499998   0.2387265   2.8425602  )
        50           Ba  tau(  50) = (   0.7499995   0.2387265   2.8431023  )
        51           O   tau(  51) = (  -0.0028895   0.0000000   2.8674095  )
        52           O   tau(  52) = (   0.5028891   0.0000000   2.8674095  )
        53           Cu  tau(  53) = (   0.5017844   0.0000000   3.1070940  )
        54           Cu  tau(  54) = (  -0.0017847   0.0000000   3.1070940  )
        55           O   tau(  55) = (   0.5008990   0.2387265   3.1403004  )
        56           O   tau(  56) = (  -0.0008994   0.2387265   3.1403004  )

     number of k points=    25  Gaussian smearing, width (Ry)=  0.0100
                       cart. coord. in units 2pi/alat
        k(    1) = (   0.0000000   0.0000000   0.0000000), wk =   0.0312500
        k(    2) = (   0.0000000   0.2618060   0.0000000), wk =   0.0625000
        k(    3) = (   0.0000000   0.5236121   0.0000000), wk =   0.0625000
        k(    4) = (   0.0000000   0.7854181   0.0000000), wk =   0.0625000
        k(    5) = (   0.0000000  -1.0472241   0.0000000), wk =   0.0312500
        k(    6) = (   0.1250000   0.0000000   0.0000000), wk =   0.0625000
        k(    7) = (   0.1250000   0.2618060   0.0000000), wk =   0.1250000
        k(    8) = (   0.1250000   0.5236121   0.0000000), wk =   0.1250000
        k(    9) = (   0.1250000   0.7854181   0.0000000), wk =   0.1250000
        k(   10) = (   0.1250000  -1.0472241   0.0000000), wk =   0.0625000
        k(   11) = (   0.2500000   0.0000000   0.0000000), wk =   0.0625000
        k(   12) = (   0.2500000   0.2618060   0.0000000), wk =   0.1250000
        k(   13) = (   0.2500000   0.5236121   0.0000000), wk =   0.1250000
        k(   14) = (   0.2500000   0.7854181   0.0000000), wk =   0.1250000
        k(   15) = (   0.2500000  -1.0472241   0.0000000), wk =   0.0625000
        k(   16) = (   0.3750000   0.0000000   0.0000000), wk =   0.0625000
        k(   17) = (   0.3750000   0.2618060   0.0000000), wk =   0.1250000
        k(   18) = (   0.3750000   0.5236121   0.0000000), wk =   0.1250000
        k(   19) = (   0.3750000   0.7854181   0.0000000), wk =   0.1250000
        k(   20) = (   0.3750000  -1.0472241   0.0000000), wk =   0.0625000
        k(   21) = (  -0.5000000   0.0000000   0.0000000), wk =   0.0312500
        k(   22) = (  -0.5000000   0.2618060   0.0000000), wk =   0.0625000
        k(   23) = (  -0.5000000   0.5236121   0.0000000), wk =   0.0625000
        k(   24) = (  -0.5000000   0.7854181   0.0000000), wk =   0.0625000
        k(   25) = (  -0.5000000  -1.0472241   0.0000000), wk =   0.0312500

     Initial potential from superposition of free atoms

     starting charge  455.69457, renormalised to  456.00000

     negative rho (up, down):  9.336E-02 0.000E+00
     Starting wfcs are  396 randomized atomic wfcs

     Self-consistent Calculation

     iteration #  1     ecut=    60.00 Ry     beta= 0.50
     Davidson diagonalization with overlap
     ethr =  1.00E-02,  avg # of iterations =  2.0

     negative rho (up, down):  8.620E-02 0.000E+00

     total energy              =   -3708.32450726 Ry
     Harris-Foulkes estimate   =   -3716.48125455 Ry
     estimated scf accuracy    <      31.05704898 Ry

[...]

     iteration # 15     ecut=    60.00 Ry     beta= 0.50
     Davidson diagonalization with overlap
     c_bands:  4 eigenvalues not converged
     ethr =  9.19E-06,  avg # of iterations =  5.7

[...]

     iteration # 24     ecut=    60.00 Ry     beta= 0.50
     Davidson diagonalization with overlap
     c_bands:  1 eigenvalues not converged
     ethr =  1.36E-08,  avg # of iterations =  5.9

[...]

     total energy              =   -3711.69815155 Ry
     Harris-Foulkes estimate   =   -3711.69815155 Ry
     estimated scf accuracy    <       0.00000002 Ry

     iteration # 35     ecut=    60.00 Ry     beta= 0.50
     Davidson diagonalization with overlap
     ethr =  3.48E-12,  avg # of iterations =  1.0

[...]

     End of self-consistent calculation

          k = 0.0000 0.0000 0.0000 ( 70025 PWs)   bands (ev):

   -38.0620 -37.8594 -35.6891 -35.4553 -23.4892 -23.2104 -22.8507 -22.8354
   -22.7224 -22.7075 -22.6277 -22.4769 -18.5373 -18.4330 -18.3073 -18.2443
   -18.0651 -17.8706 -17.0372 -16.9019 -16.7752 -16.7187 -16.6844 -16.4957
   -15.4481 -15.2749 -15.0287 -14.9888 -14.9802 -14.8590 -14.6944 -14.5931
   -14.5826 -14.5158 -14.5073 -14.4882 -14.3822 -14.3480 -14.2768 -14.1371
   -14.0803 -14.0639 -14.0305 -14.0220 -14.0155 -14.0111 -14.0037 -13.9723
   -13.9241 -13.7284 -13.7018 -13.6195 -13.5221 -13.5129  -8.8154  -8.4898
    -8.3122  -8.2435  -8.0887  -8.0700  -8.0559  -7.9810  -7.9805  -7.9641
    -7.9002  -7.9002  -7.8863  -7.8102  -7.7620  -7.7471  -7.6657  -7.6517
    -7.6214  -7.5240  -7.5091  -7.5021  -7.4355  -7.2801  -3.0187  -2.9902
    -2.8485  -2.5689  -2.2072  -2.1992  -2.1202  -2.1162  -2.0766  -1.9840
    -1.9780  -1.9651  -1.9073  -1.8724  -1.8356  -1.8116  -1.7355  -1.6989
    -1.6654  -1.6490  -1.6121  -1.5775  -1.5651  -1.5295  -1.4981  -1.3805
    -1.3641  -1.2340  -1.2125  -1.1394  -1.0639  -1.0423  -0.9564  -0.9558
    -0.9551  -0.9536  -0.9528  -0.9466  -0.9119  -0.8522  -0.8199  -0.8034
    -0.7872  -0.7537  -0.7282  -0.7249  -0.6670  -0.6532  -0.6401  -0.5803
    -0.4969  -0.3893  -0.3643  -0.3162  -0.2888  -0.2859  -0.2182  -0.1879
    -0.1696  -0.1658  -0.1652  -0.1619  -0.1322  -0.1009  -0.0357  -0.0274
     0.0139   0.0193   0.0236   0.0275   0.0580   0.0669   0.0793   0.1431
     0.1437   0.1491   0.1564   0.1757   0.2109   0.2378   0.2395   0.2640
     0.2655   0.2768   0.2787   0.3528   0.3798   0.3821   0.3917   0.4886
     0.5306   0.5503   0.5541   0.5552   0.5658   0.5715   0.5813   0.5913
     0.6384   0.7046   0.7079   0.7972   0.9001   0.9315   0.9907   1.0083
     1.0208   1.0602   1.0636   1.0812   1.0980   1.1575   1.1700   1.2153
     1.2319   1.2412   1.2544   1.2979   1.3150   1.3573   1.3584   1.4137
     1.4193   1.4284   1.4369   1.4458   1.5204   1.5737   1.6073   1.6347
     1.6360   1.7346   1.7378   1.7875   1.7988   1.8093   1.8231   1.8518
     1.8754   1.9208   1.9535   2.0009   2.0295   2.0331   2.0817   2.0838
     2.1631   2.1896   2.2786   2.2904   2.3184   2.3286   2.3508   2.4703
     2.5973   2.6014   2.6273   2.6328   2.8788   2.8908   5.1590   5.2501
     5.3471   5.9082   5.9656   6.1968   6.6398   6.6701   6.7260   7.1154
     7.2685   7.2978   7.3089   7.3901   7.3914   7.5660   7.7680   7.9962
     8.0811   8.1262   8.1621   8.1652   8.3182   8.3358   8.4525   8.5015
     8.5216   8.6020   8.6423   8.7179   8.8492   8.9985   9.0521   9.1758
     9.1905   9.2254

[...]

          k = 0.3750-1.0472 0.0000 ( 69970 PWs)   bands (ev):

[...]

          k =-0.5000 0.0000 0.0000 ( 70044 PWs)   bands (ev):

[...]

          k =-0.5000-1.0472 0.0000 ( 69948 PWs)   bands (ev):

   -38.0436 -37.8409 -35.6775 -35.4436 -23.3488 -23.0904 -22.6478 -22.6314
   -22.6182 -22.6043 -22.4448 -22.3624 -18.7054 -18.5116 -18.3628 -18.2424
   -18.1743 -18.0104 -17.1100 -16.9333 -16.8865 -16.8292 -16.7161 -16.5654
   -14.7612 -14.6968 -14.6960 -14.6754 -14.5367 -14.4640 -14.4152 -14.4050
   -14.3946 -14.3788 -14.3596 -14.3580 -14.3573 -14.2733 -14.2582 -14.1907
   -14.1364 -14.0895 -13.9573 -13.9505 -13.9488 -13.9379 -13.9045 -13.9036
   -13.9032 -13.9024 -13.8055 -13.7876 -13.7378 -13.5969  -8.9139  -8.8395
    -8.6806  -8.6250  -8.4330  -8.4172  -8.3824  -8.3684  -8.3499  -8.3379
    -8.2128  -8.1123  -8.1079  -8.0929  -8.0845  -8.0709  -8.0057  -8.0032
    -7.9878  -7.9874  -7.9251  -7.8718  -7.7187  -7.7031  -3.8176  -3.7378
    -3.5981  -3.5400  -3.4251  -3.4203  -3.3237  -3.2590  -3.1535  -3.0364
    -3.0302  -3.0295  -3.0293  -2.9984  -2.3729  -2.3600  -2.2626  -2.2452
    -2.1786  -2.1237  -2.1235  -2.0333  -2.0251  -2.0193  -2.0141  -2.0063
    -1.9327  -1.9125  -1.9104  -1.8940  -1.8546  -1.8186  -1.8107  -1.8066
    -1.6073  -1.6021  -1.5640  -1.5266  -1.4738  -1.4155  -1.3734  -1.3137
    -1.1854  -1.1669  -1.1340  -1.1191  -1.1117  -1.0950  -0.8427  -0.8190
    -0.8075  -0.8062  -0.7548  -0.7540  -0.7399  -0.7360  -0.7347  -0.7086
    -0.7074  -0.6940  -0.6401  -0.6336  -0.5387  -0.4540  -0.3807  -0.3782
    -0.3778  -0.3464  -0.3192  -0.2502  -0.2223  -0.1686   0.0544   0.0740
     0.2222   0.2611   0.3235   0.3258   0.5026   0.5165   0.5183   0.5577
     0.5772   0.7118   0.7239   0.7488   0.7678   0.7980   1.0076   1.0298
     1.0566   1.0905   1.1510   1.1539   1.1652   1.1939   1.1947   1.2321
     1.2395   1.2455   1.2860   1.3160   1.3320   1.3446   1.3695   1.3866
     1.3951   1.4531   1.4690   1.4751   1.5049   1.5367   1.5494   1.5743
     1.6095   1.6160   1.6511   1.6911   1.7003   1.7029   1.7588   1.7645
     1.7725   1.8522   1.8579   1.9060   1.9283   1.9397   1.9454   2.0148
     2.0436   2.0722   2.0980   2.1261   2.1629   2.2176   2.2193   2.2199
     2.2227   2.2872   2.2967   2.4129   2.5664   2.5672   2.5758   2.5761
     2.7370   2.7394   2.7511   2.7551   3.5083   3.5567   3.5937   3.6599
     3.6920   3.7732   3.8330   3.8878   4.0430   4.1335   5.8848   6.2946
     6.7225   6.7507   6.7571   6.7953   6.9005   7.0098   7.3486   7.6347
     7.6421   7.7389   7.9487   7.9705   8.2761   8.3761   8.6166   8.8666
     8.8868   8.8912   9.1134   9.2499   9.2767   9.4189   9.4204   9.4442
     9.4855   9.5175   9.5454   9.6809   9.8133   9.8433   9.8468   9.8691
     9.8856   9.9415

     the Fermi energy is     2.7477 ev

!    total energy              =   -3711.69815157 Ry
     Harris-Foulkes estimate   =   -3711.69815155 Ry
     estimated scf accuracy    <          4.8E-09 Ry

     The total energy is the sum of the following terms:

     one-electron contribution =  -61017.93436612 Ry
     hartree contribution      =   30815.37245583 Ry
     xc contribution           =   -1263.82945329 Ry
     ewald contribution        =   27754.70563639 Ry
     smearing contrib. (-TS)   =      -0.01242438 Ry

     convergence has been achieved in  35 iterations

     negative rho (up, down):  9.198E-02 0.000E+00

     Forces acting on atoms (cartesian axes, Ry/au):

     atom    1 type  4   force =    -0.00000660    0.00000000   -0.00009893
     atom    2 type  4   force =     0.00000660    0.00000000   -0.00009893
     atom    3 type  3   force =    -0.00001307    0.00000000   -0.00008892
     atom    4 type  3   force =     0.00001307    0.00000000   -0.00008892
     atom    5 type  4   force =    -0.00000077    0.00000000   -0.00003443
     atom    6 type  4   force =     0.00000077    0.00000000   -0.00003443
     atom    7 type  1   force =     0.00000000    0.00000000   -0.00011965
     atom    8 type  1   force =     0.00000000    0.00000000   -0.00011046
     atom    9 type  3   force =     0.00003548    0.00000000    0.00003349
     atom   10 type  3   force =    -0.00003548    0.00000000    0.00003349
     atom   11 type  4   force =     0.00000000    0.00000000    0.00008300
     atom   12 type  4   force =    -0.00000057    0.00000000    0.00003534
     atom   13 type  4   force =     0.00000057    0.00000000    0.00003534
     atom   14 type  4   force =     0.00000000    0.00000000    0.00013233
     atom   15 type  2   force =     0.00000000    0.00000000   -0.00048606
     atom   16 type  5   force =     0.00000000    0.00000000   -0.00076389
     atom   17 type  4   force =     0.00007456    0.00000000    0.00069946
     atom   18 type  4   force =    -0.00007456    0.00000000    0.00069946
     atom   19 type  4   force =     0.00000000    0.00000000    0.00085893
     atom   20 type  4   force =     0.00000000    0.00000000    0.00110350
     atom   21 type  3   force =    -0.00008801    0.00000000   -0.00095068
     atom   22 type  3   force =     0.00008801    0.00000000   -0.00095068
     atom   23 type  1   force =     0.00000000    0.00000000   -0.00326556
     atom   24 type  1   force =     0.00000000    0.00000000   -0.00377496
     atom   25 type  4   force =    -0.00056331    0.00000000    0.00410858
     atom   26 type  4   force =     0.00056331    0.00000000    0.00410858
     atom   27 type  4   force =     0.00082849    0.00000000    0.00864301
     atom   28 type  4   force =    -0.00082849    0.00000000    0.00864301
     atom   29 type  3   force =     0.00080263    0.00000000   -0.00518724
     atom   30 type  3   force =    -0.00080263    0.00000000   -0.00518724
     atom   31 type  4   force =    -0.00622788    0.00000000    0.00771565
     atom   32 type  4   force =     0.00622788    0.00000000    0.00771565
     atom   33 type  1   force =     0.00000000    0.00000000    0.00336015
     atom   34 type  1   force =     0.00000000    0.00000000    0.01846214
     atom   35 type  3   force =    -0.00608772    0.00000000    0.00266358
     atom   36 type  3   force =     0.00608772    0.00000000    0.00266358
     atom   37 type  4   force =     0.00000000    0.00000000   -0.00752713
     atom   38 type  4   force =     0.00000000    0.00000000    0.00199421
     atom   39 type  4   force =     0.00146439    0.00000000   -0.00214730
     atom   40 type  4   force =    -0.00146439    0.00000000   -0.00214730
     atom   41 type  5   force =     0.00000000    0.00000000   -0.02890997
     atom   42 type  2   force =     0.00000000    0.00000000   -0.02358279
     atom   43 type  4   force =     0.00000000    0.00000000    0.00356829
     atom   44 type  4   force =     0.00023098    0.00000000    0.00192537
     atom   45 type  4   force =    -0.00023098    0.00000000    0.00192537
     atom   46 type  4   force =     0.00000000    0.00000000    0.00281982
     atom   47 type  3   force =     0.00048202    0.00000000    0.00079607
     atom   48 type  3   force =    -0.00048202    0.00000000    0.00079607
     atom   49 type  1   force =     0.00000000    0.00000000   -0.00064374
     atom   50 type  1   force =     0.00000000    0.00000000   -0.00073768
     atom   51 type  4   force =     0.00005572    0.00000000    0.00063665
     atom   52 type  4   force =    -0.00005572    0.00000000    0.00063665
     atom   53 type  3   force =    -0.00003171    0.00000000   -0.00026249
     atom   54 type  3   force =     0.00003171    0.00000000   -0.00026249
     atom   55 type  4   force =     0.00000110    0.00000000    0.00028256
     atom   56 type  4   force =    -0.00000110    0.00000000    0.00028256

     Total force =     0.049052     Total SCF correction =     0.000263

     Computing stress (Cartesian axis) and pressure

     negative rho (up, down):  9.198E-02 0.000E+00
          total   stress  (Ry/bohr**3)                   (kbar)     P=       -6.73
  -0.00005690   0.00000000   0.00000000           -8.37        0.00        0.00
   0.00000000  -0.00003597   0.00000000            0.00       -5.29        0.00
   0.00000000   0.00000000  -0.00004440            0.00        0.00       -6.53

     General routines

     Parallel routines

   This run was terminated on:  14:56:58  25May2021

   JOB DONE.
[1621969018.193604] [holy7c04405:157287:0]          mpool.c:43   UCX  WARN  object 0x46ba040 was not returned to mpool ucp_requests
[1621969018.195507] [holy7c04403:188266:0]          mpool.c:43   UCX  WARN  object 0x41595c0 was not returned to mpool ucp_requests
[1621969018.202776] [holy7c04312:88763:0]          mpool.c:43   UCX  WARN  object 0x3c5c040 was not returned to mpool ucp_requests
[1621969018.200926] [holy7c04405:157286:0]          mpool.c:43   UCX  WARN  object 0x2a14e00 was not returned to mpool ucp_requests
[1621969018.200458] [holy7c04405:157284:0]          mpool.c:43   UCX  WARN  object 0x47eb700 was not returned to mpool ucp_requests
[1621969018.200477] [holy7c04405:157284:0]          mpool.c:43   UCX  WARN  object 0x47eb8c0 was not returned to mpool ucp_requests
[1621969018.211949] [holy7c04403:188261:0]          mpool.c:43   UCX  WARN  object 0x418fa00 was not returned to mpool ucp_requests
[1621969018.211848] [holy7c04403:188263:0]          mpool.c:43   UCX  WARN  object 0x3dc90c0 was not returned to mpool ucp_requests
[1621969018.211880] [holy7c04403:188263:0]          mpool.c:43   UCX  WARN  object 0x3dc9600 was not returned to mpool ucp_requests
[1621969018.212120] [holy7c04403:188265:0]          mpool.c:43   UCX  WARN  object 0x338f640 was not returned to mpool ucp_requests
[1621969018.202726] [holy7c04312:88769:0]          mpool.c:43   UCX  WARN  object 0x3d67d80 was not returned to mpool ucp_requests
[1621969018.202888] [holy7c04312:88765:0]          mpool.c:43   UCX  WARN  object 0x37c4d80 was not returned to mpool ucp_requests
[1621969018.202914] [holy7c04312:88765:0]          mpool.c:43   UCX  WARN  object 0x37c4f40 was not returned to mpool ucp_requests
[1621969018.210185] [holy7c04312:88770:0]          mpool.c:43   UCX  WARN  object 0x36cc180 was not returned to mpool ucp_requests
[1621969018.210203] [holy7c04312:88770:0]          mpool.c:43   UCX  WARN  object 0x36cc340 was not returned to mpool ucp_requests
[1621969018.212574] [holy7c04312:88764:0]          mpool.c:43   UCX  WARN  object 0x42235c0 was not returned to mpool ucp_requests
[1621969018.215348] [holy7c04312:88768:0]          mpool.c:43   UCX  WARN  object 0x2f48080 was not returned to mpool ucp_requests
[1621969018.215369] [holy7c04312:88768:0]          mpool.c:43   UCX  WARN  object 0x2f48780 was not returned to mpool ucp_requests