     Program PWSCF v.6.5 starts on 28May2021 at 10: 0:21

     R & G space division:  proc/nbgrp/npool/nimage =      32
     Reading input from YCBCO50_212_CuO_cleave_2.75_sep.pwi
Warning: card &IONS ignored
Warning: card     ION_DYNAMICS = 'BFGS' ignored
Warning: card / ignored
Warning: card &CELL ignored
Warning: card     CELL_DYNAMICS = 'BFGS' ignored
Warning: card     PRESS_CONV_THR = 5 ignored
Warning: card / ignored

     Current dimensions of program PWSCF are:
     Max number of different atomic species (ntypx) = 10
     Max number of k-points (npk) =  40000
     Max angular momentum in pseudopotentials (lmaxx) =  3

     Message from routine setup:
     using ibrav=0 with symmetry is DISCOURAGED, use correct ibrav instead

     bravais-lattice index     =            0
     lattice parameter (alat)  =      14.8133  a.u.
     unit-cell volume          =    9261.7184 (a.u.)^3
     number of atoms/cell      =           56
     number of atomic types    =            5
     number of electrons       =       456.00
     number of Kohn-Sham states=          274
     kinetic-energy cutoff     =      60.0000  Ry
     charge density cutoff     =     720.0000  Ry
     convergence threshold     =      1.0E-08
     mixing beta               =       0.5000
     number of iterations used =           10  local-TF  mixing
     Exchange-correlation= SLA PW PBE PBE
                           (   1   4   3   4   0   0   0)

     celldm(1)=  14.813271  celldm(2)=   0.000000  celldm(3)=   0.000000
     celldm(4)=   0.000000  celldm(5)=   0.000000  celldm(6)=   0.000000

     crystal axes: (cart. coord. in units of alat)
               a(1) = (   1.000000   0.000000   0.000000 )
               a(2) = (   0.000000   0.477453   0.000000 )
               a(3) = (   0.000000   0.000000   5.967718 )

     reciprocal axes: (cart. coord. in units 2 pi/alat)
               b(1) = (  1.000000  0.000000  0.000000 )
               b(2) = (  0.000000  2.094448  0.000000 )
               b(3) = (  0.000000  0.000000  0.167568 )

     PseudoPot. # 1 for Ba read from file:
     ./pseudo/Ba.pbe-nsp-van.UPF
     MD5 check sum: 2b9c31dd849566dd297d80989662b7a0
     Pseudo is Ultrasoft + core correction, Zval = 10.0
     Generated by new atomic code, or converted to UPF format
     Using radial grid of  907 points,  6 beta functions with:
                l(1) =   0
                l(2) =   0
                l(3) =   1
                l(4) =   1
                l(5) =   2
                l(6) =   2
     Q(r) pseudized with  6 coefficients,  rinner =    1.200   1.200   1.200
                                                       1.200   1.200

     PseudoPot. # 2 for Ca read from file:
     ./pseudo/Ca.pbe-nsp-van.UPF
     MD5 check sum: 6471098428ff4fa451746d08035ff179
     Pseudo is Ultrasoft + core correction, Zval = 10.0
     Generated by new atomic code, or converted to UPF format
     Using radial grid of  845 points,  6 beta functions with:
                l(1) =   0
                l(2) =   0
                l(3) =   1
                l(4) =   1
                l(5) =   2
                l(6) =   2
     Q(r) pseudized with  6 coefficients,  rinner =    1.200   1.200   1.200
                                                       1.200   1.200

     PseudoPot. # 3 for Cu read from file:
     ./pseudo/Cu.pbe-n-van_ak.UPF
     MD5 check sum: 34e3282627ffb533726feb647e090d62
     Pseudo is Ultrasoft + core correction, Zval = 11.0
     Generated by new atomic code, or converted to UPF format
     Using radial grid of  867 points,  6 beta functions with:
                l(1) =   0
                l(2) =   0
                l(3) =   1
                l(4) =   1
                l(5) =   2
                l(6) =   2
     Q(r) pseudized with  8 coefficients,  rinner =    1.400   1.400   1.400
                                                       1.400   1.400

     PseudoPot. # 4 for O  read from file:
     ./pseudo/O.pbe-van_ak.UPF
     MD5 check sum: 783ce7fe4c79b6a4916957118fed0856
     Pseudo is Ultrasoft, Zval =  6.0
     Generated by new atomic code, or converted to UPF format
     Using radial grid of  737 points,  4 beta functions with:
                l(1) =   0
                l(2) =   0
                l(3) =   1
                l(4) =   1
     Q(r) pseudized with  8 coefficients,  rinner =    0.800   0.800   0.800

     PseudoPot. # 5 for Y  read from file:
     ./pseudo/Y.pbe-nsp-van.UPF
     MD5 check sum: 4412fed3ab108fed87a1b7d6a69a4a38
     Pseudo is Ultrasoft + core correction, Zval = 11.0
     Generated by new atomic code, or converted to UPF format
     Using radial grid of  885 points,  6 beta functions with:
                l(1) =   0
                l(2) =   0
                l(3) =   1
                l(4) =   1
                l(5) =   2
                l(6) =   2
     Q(r) pseudized with  6 coefficients,  rinner =    1.200   1.200   1.200
                                                       1.200   1.200

     atomic species   valence    mass     pseudopotential
        Ba            10.00   137.32700     Ba( 1.00)
        Ca            10.00    40.07800     Ca( 1.00)
        Cu            11.00    63.54600     Cu( 1.00)
        O              6.00    15.99900     O ( 1.00)
        Y             11.00    88.90584     Y ( 1.00)

      4 Sym. Ops. (no inversion) found ( 2 have fractional translation)

   Cartesian axes

     site n.     atom                  positions (alat units)
         1           O   tau(   1) = (  -0.0008343   0.2387265  -0.0222443  )
         2           O   tau(   2) = (   0.5008340   0.2387265  -0.0222443  )
         3           Cu  tau(   3) = (   0.5017257   0.0000000   0.0109608  )
         4           Cu  tau(   4) = (  -0.0017260   0.0000000   0.0109608  )
         5           O   tau(   5) = (  -0.0028933   0.0000000   0.2506504  )
         6           O   tau(   6) = (   0.5028929   0.0000000   0.2506504  )
         7           Ba  tau(   7) = (   0.7499995   0.2387265   0.2749435  )
         8           Ba  tau(   8) = (   0.2499998   0.2387265   0.2755214  )
         9           Cu  tau(   9) = (   0.4980963   0.0000000   0.5208446  )
        10           Cu  tau(  10) = (   0.0019033   0.0000000   0.5208446  )
        11           O   tau(  11) = (   0.2499998   0.0000000   0.5341884  )
        12           O   tau(  12) = (   0.5083351   0.2387265   0.5569851  )
        13           O   tau(  13) = (  -0.0083354   0.2387265   0.5569851  )
        14           O   tau(  14) = (   0.7499995   0.0000000   0.5573831  )
        15           Ca  tau(  15) = (   0.2499998   0.2387265   0.7436937  )
        16           Y   tau(  16) = (   0.7499995   0.2387265   0.7469544  )
        17           O   tau(  17) = (  -0.0063798   0.2387265   0.9248530  )
        18           O   tau(  18) = (   0.5063794   0.2387265   0.9248530  )
        19           O   tau(  19) = (   0.7499995   0.0000000   0.9338544  )
        20           O   tau(  20) = (   0.2499998   0.0000000   0.9461329  )
        21           Cu  tau(  21) = (   0.0015717   0.0000000   0.9686860  )
        22           Cu  tau(  22) = (   0.4984280   0.0000000   0.9686860  )
        23           Ba  tau(  23) = (   0.2499998   0.2387265   1.2085224  )
        24           Ba  tau(  24) = (   0.7499995   0.2387265   1.2233294  )
        25           O   tau(  25) = (   0.0063772   0.0000000   1.2547537  )
        26           O   tau(  26) = (   0.4936224   0.0000000   1.2547537  )
        27           O   tau(  27) = (   0.5384045   0.2387265   1.4952521  )
        28           O   tau(  28) = (  -0.0384049   0.2387265   1.4952521  )
        29           Cu  tau(  29) = (   0.5006120   0.0000000   1.4952546  )
        30           Cu  tau(  30) = (  -0.0006123   0.0000000   1.4952546  )
        31           O   tau(  31) = (   0.4936212   0.0000000   2.0865700  )
        32           O   tau(  32) = (   0.0063785   0.0000000   2.0865700  )
        33           Ba  tau(  33) = (   0.7499995   0.2387265   2.1179994  )
        34           Ba  tau(  34) = (   0.2499998   0.2387265   2.1328090  )
        35           Cu  tau(  35) = (   0.4984280   0.0000000   2.3726402  )
        36           Cu  tau(  36) = (   0.0015717   0.0000000   2.3726402  )
        37           O   tau(  37) = (   0.2499998   0.0000000   2.3951984  )
        38           O   tau(  38) = (   0.7499995   0.0000000   2.4074680  )
        39           O   tau(  39) = (   0.5063781   0.2387265   2.4164732  )
        40           O   tau(  40) = (  -0.0063785   0.2387265   2.4164732  )
        41           Y   tau(  41) = (   0.7499995   0.2387265   2.5943667  )
        42           Ca  tau(  42) = (   0.2499998   0.2387265   2.5976364  )
        43           O   tau(  43) = (   0.7499995   0.0000000   2.7839342  )
        44           O   tau(  44) = (  -0.0083354   0.2387265   2.7843360  )
        45           O   tau(  45) = (   0.5083351   0.2387265   2.7843360  )
        46           O   tau(  46) = (   0.2499998   0.0000000   2.8071340  )
        47           Cu  tau(  47) = (   0.0019059   0.0000000   2.8204676  )
        48           Cu  tau(  48) = (   0.4980938   0.0000000   2.8204676  )
        49           Ba  tau(  49) = (   0.2499998   0.2387265   3.0658073  )
        50           Ba  tau(  50) = (   0.7499995   0.2387265   3.0663495  )
        51           O   tau(  51) = (  -0.0028895   0.0000000   3.0906567  )
        52           O   tau(  52) = (   0.5028891   0.0000000   3.0906567  )
        53           Cu  tau(  53) = (   0.5017844   0.0000000   3.3303412  )
        54           Cu  tau(  54) = (  -0.0017847   0.0000000   3.3303412  )
        55           O   tau(  55) = (   0.5008990   0.2387265   3.3635476  )
        56           O   tau(  56) = (  -0.0008994   0.2387265   3.3635476  )

     number of k points=    25  Gaussian smearing, width (Ry)=  0.0100
                       cart. coord. in units 2pi/alat
        k(    1) = (   0.0000000   0.0000000   0.0000000), wk =   0.0312500
        k(    2) = (   0.0000000   0.2618060   0.0000000), wk =   0.0625000
        k(    3) = (   0.0000000   0.5236121   0.0000000), wk =   0.0625000
        k(    4) = (   0.0000000   0.7854181   0.0000000), wk =   0.0625000
        k(    5) = (   0.0000000  -1.0472241   0.0000000), wk =   0.0312500
        k(    6) = (   0.1250000   0.0000000   0.0000000), wk =   0.0625000
        k(    7) = (   0.1250000   0.2618060   0.0000000), wk =   0.1250000
        k(    8) = (   0.1250000   0.5236121   0.0000000), wk =   0.1250000
        k(    9) = (   0.1250000   0.7854181   0.0000000), wk =   0.1250000
        k(   10) = (   0.1250000  -1.0472241   0.0000000), wk =   0.0625000
        k(   11) = (   0.2500000   0.0000000   0.0000000), wk =   0.0625000
        k(   12) = (   0.2500000   0.2618060   0.0000000), wk =   0.1250000
        k(   13) = (   0.2500000   0.5236121   0.0000000), wk =   0.1250000
        k(   14) = (   0.2500000   0.7854181   0.0000000), wk =   0.1250000
        k(   15) = (   0.2500000  -1.0472241   0.0000000), wk =   0.0625000
        k(   16) = (   0.3750000   0.0000000   0.0000000), wk =   0.0625000
        k(   17) = (   0.3750000   0.2618060   0.0000000), wk =   0.1250000
        k(   18) = (   0.3750000   0.5236121   0.0000000), wk =   0.1250000
        k(   19) = (   0.3750000   0.7854181   0.0000000), wk =   0.1250000
        k(   20) = (   0.3750000  -1.0472241   0.0000000), wk =   0.0625000
        k(   21) = (  -0.5000000   0.0000000   0.0000000), wk =   0.0312500
        k(   22) = (  -0.5000000   0.2618060   0.0000000), wk =   0.0625000
        k(   23) = (  -0.5000000   0.5236121   0.0000000), wk =   0.0625000
        k(   24) = (  -0.5000000   0.7854181   0.0000000), wk =   0.0625000
        k(   25) = (  -0.5000000  -1.0472241   0.0000000), wk =   0.0312500

     Initial potential from superposition of free atoms

     starting charge  455.69457, renormalised to  456.00000

     negative rho (up, down):  9.313E-02 0.000E+00
     Starting wfcs are  396 randomized atomic wfcs

     Self-consistent Calculation

     iteration #  1     ecut=    60.00 Ry     beta= 0.50
     Davidson diagonalization with overlap
     ethr =  1.00E-02,  avg # of iterations =  2.0

     negative rho (up, down):  8.606E-02 0.000E+00

     total energy              =   -3708.24127577 Ry
     Harris-Foulkes estimate   =   -3716.44142654 Ry
     estimated scf accuracy    <      31.51898220 Ry

[...]

     iteration # 10     ecut=    60.00 Ry     beta= 0.50
     Davidson diagonalization with overlap
     c_bands:  2 eigenvalues not converged
     ethr =  5.03E-05,  avg # of iterations =  6.2

[...]

     iteration # 25     ecut=    60.00 Ry     beta= 0.50
     Davidson diagonalization with overlap
     c_bands:  1 eigenvalues not converged
     ethr =  1.50E-08,  avg # of iterations =  2.2

[...]

     total energy              =   -3711.52336893 Ry
     Harris-Foulkes estimate   =   -3711.52336897 Ry
     estimated scf accuracy    <       0.00000003 Ry

     iteration # 35     ecut=    60.00 Ry     beta= 0.50
     Davidson diagonalization with overlap
     ethr =  5.83E-12,  avg # of iterations =  1.0

[...]

     End of self-consistent calculation

          k = 0.0000 0.0000 0.0000 ( 72781 PWs)   bands (ev):

   -38.4334 -38.3701 -36.0685 -35.9966 -23.1861 -23.1772 -23.1663 -23.0488
   -23.0380 -23.0283 -22.8629 -22.6322 -18.9066 -18.8524 -18.8064 -18.7447
   -18.4375 -18.3727 -17.4145 -17.3455 -17.2809 -17.2133 -17.0998 -17.0246
   -15.8107 -15.7694 -15.3515 -15.3324 -15.1439 -15.0237 -14.9708 -14.9589
   -14.9150 -14.8852 -14.8254 -14.8151 -14.8034 -14.7995 -14.6745 -14.6619
   -14.4970 -14.4536 -14.3847 -14.3525 -14.3446 -14.3414 -14.3370 -14.3273
   -14.3003 -14.2268 -14.1646 -14.1099 -13.2106 -12.7402  -8.5197  -8.4160
    -8.4020  -8.3087  -8.2951  -8.2648  -8.2263  -8.2160  -8.1326  -8.0882
    -8.0776  -8.0394  -8.0358  -7.9916  -7.9815  -7.9326  -7.9136  -7.9082
    -7.8634  -7.8503  -7.8396  -7.6811  -7.4726  -7.3700  -3.3563  -3.3326
    -3.2442  -3.1468  -2.5302  -2.5241  -2.4436  -2.4413  -2.4368  -2.4068
    -2.2976  -2.2467  -2.2362  -2.2111  -2.2064  -2.1869  -2.1453  -2.1427
    -2.0792  -2.0422  -2.0354  -1.9818  -1.9295  -1.8733  -1.7363  -1.7076
    -1.5515  -1.5010  -1.4891  -1.4614  -1.3981  -1.3264  -1.2986  -1.2833
    -1.2756  -1.2741  -1.2669  -1.2646  -1.2439  -1.2422  -1.1798  -1.1059
    -1.0505  -1.0433  -0.8028  -0.7623  -0.6877  -0.6246  -0.6145  -0.6046
    -0.6043  -0.5867  -0.5787  -0.5607  -0.5467  -0.5293  -0.4920  -0.4873
    -0.4854  -0.4850  -0.4742  -0.4368  -0.4058  -0.3353  -0.3107  -0.3001
    -0.2992  -0.2902  -0.2765  -0.2306  -0.2277  -0.2147  -0.2086  -0.1811
    -0.1795  -0.1783  -0.1757  -0.0993  -0.0805  -0.0728  -0.0616  -0.0409
    -0.0344  -0.0335   0.0086   0.0412   0.0532   0.0701   0.1211   0.1647
     0.1954   0.1995   0.2287   0.2299   0.2376   0.2531   0.2571   0.2598
     0.4173   0.4457   0.5161   0.5681   0.5935   0.6337   0.6821   0.6944
     0.7054   0.7272   0.7325   0.7664   0.8402   0.8751   0.8879   0.9103
     0.9155   0.9192   0.9203   0.9212   1.0006   1.0248   1.0372   1.0714
     1.0749   1.0805   1.0965   1.1250   1.1567   1.1819   1.2460   1.2998
     1.3088   1.3415   1.4105   1.4151   1.4195   1.4827   1.4849   1.4924
     1.5106   1.5439   1.5544   1.6049   1.6447   1.7531   1.7666   1.8182
     1.9242   1.9318   2.0502   2.0973   2.0988   2.1758   2.1929   2.2791
     2.2877   2.3100   2.3133   2.3613   2.5565   2.6109   4.6240   4.9321
     4.9446   5.5867   5.6751   6.2820   6.3211   6.3877   6.5650   6.6013
     6.6221   6.9720   6.9824   7.0697   7.0770   7.1442   7.2425   7.4159
     7.7254   7.7788   7.7885   7.8468   7.8493   8.0015   8.0728   8.1400
     8.1746   8.2258   8.2735   8.3562   8.6036   8.6628   8.7662   8.7810
     8.8360   8.9370

[...]

          k = 0.3750-1.0472 0.0000 ( 72674 PWs)   bands (ev):

[...]

          k =-0.5000 0.0000 0.0000 ( 72796 PWs)   bands (ev):

[...]

          k =-0.5000-1.0472 0.0000 ( 72660 PWs)   bands (ev):

   -38.4150 -38.3517 -36.0568 -35.9850 -23.0523 -22.9744 -22.9632 -22.9446
   -22.9339 -22.8463 -22.7444 -22.4906 -19.0772 -19.0146 -18.7360 -18.6739
   -18.6122 -18.5567 -17.4912 -17.4161 -17.3124 -17.2459 -17.2066 -17.1384
   -15.1071 -15.0753 -15.0254 -15.0103 -14.8859 -14.8481 -14.8198 -14.8034
   -14.7883 -14.7625 -14.7394 -14.6593 -14.6361 -14.6184 -14.6110 -14.6006
   -14.5961 -14.5622 -14.3564 -14.3530 -14.3491 -14.3451 -14.2824 -14.2388
   -14.2265 -14.2258 -14.2141 -14.2132 -13.0194 -13.0092  -8.7592  -8.7486
    -8.7085  -8.6979  -8.6209  -8.5978  -8.5435  -8.4597  -8.4342  -8.4236
    -8.4107  -8.4001  -8.3330  -8.3306  -8.3219  -8.3204  -8.3185  -8.3052
    -8.2931  -8.1220  -8.0454  -7.9847  -7.9724  -7.9029  -4.1755  -4.1350
    -3.9469  -3.9102  -3.7873  -3.7203  -3.6851  -3.5956  -3.3519  -3.3510
    -3.3422  -3.3412  -3.3099  -3.2567  -2.6990  -2.6891  -2.5957  -2.5811
    -2.5459  -2.4871  -2.4689  -2.4333  -2.4306  -2.4196  -2.3461  -2.3324
    -2.3286  -2.2949  -2.2691  -2.2474  -2.1986  -2.1166  -2.1153  -2.1039
    -2.0852  -2.0566  -1.8411  -1.7968  -1.7210  -1.6722  -1.5088  -1.4827
    -1.4723  -1.4641  -1.4367  -1.4302  -1.2691  -1.2307  -1.1831  -1.1584
    -1.1525  -1.1251  -1.0783  -1.0521  -1.0349  -1.0345  -1.0236  -1.0153
    -0.9367  -0.9007  -0.8823  -0.8574  -0.8563  -0.7543  -0.6740  -0.6715
    -0.6538  -0.6309  -0.5887  -0.5666  -0.3890  -0.3578  -0.1326  -0.0957
     0.0949   0.1008   0.1611   0.1682   0.2052   0.2129   0.2277   0.2473
     0.2473   0.2960   0.3682   0.4812   0.4818   0.6952   0.7030   0.7475
     0.7565   0.7762   0.7961   0.8319   0.8353   0.8623   0.8649   0.9156
     0.9161   0.9199   0.9819   1.0125   1.0247   1.0452   1.0600   1.0844
     1.0949   1.1357   1.1406   1.1580   1.1683   1.1807   1.2057   1.2109
     1.2487   1.2912   1.3051   1.4065   1.4821   1.4976   1.5490   1.5645
     1.5672   1.5983   1.6658   1.6963   1.7117   1.7254   1.7930   1.7944
     1.8220   1.8585   1.8682   1.8967   1.8975   1.9097   1.9112   2.0194
     2.1236   2.1317   2.1705   2.1825   2.2452   2.2541   2.2543   2.2636
     2.3882   2.3986   2.4501   2.4723   2.5754   2.6429   3.1596   3.1934
     3.2233   3.2589   3.3201   3.3540   3.4323   3.4546   5.9532   6.4269
     6.4358   6.4455   6.4766   6.6323   6.6910   7.0895   7.2341   7.2994
     7.5730   7.8032   7.9197   7.9202   8.1179   8.3975   8.4385   8.5292
     8.8336   8.8406   8.8509   8.8751   8.9664   9.0577   9.0908   9.1090
     9.1534   9.1815   9.2198   9.2434   9.4411   9.4694   9.4794   9.4844
     9.4909   9.5016

     the Fermi energy is     2.4255 ev

!    total energy              =   -3711.52336893 Ry
     Harris-Foulkes estimate   =   -3711.52336893 Ry
     estimated scf accuracy    <          3.8E-09 Ry

     The total energy is the sum of the following terms:

     one-electron contribution =  -54334.79889741 Ry
     hartree contribution      =   27468.94614817 Ry
     xc contribution           =   -1263.80522755 Ry
     ewald contribution        =   24418.15482235 Ry
     smearing contrib. (-TS)   =      -0.02021448 Ry

     convergence has been achieved in  35 iterations

     negative rho (up, down):  9.194E-02 0.000E+00

     Forces acting on atoms (cartesian axes, Ry/au):

     atom    1 type  4   force =    -0.00000839    0.00000000   -0.00051860
     atom    2 type  4   force =     0.00000839    0.00000000   -0.00051860
     atom    3 type  3   force =    -0.00000428    0.00000000    0.00007726
     atom    4 type  3   force =     0.00000428    0.00000000    0.00007726
     atom    5 type  4   force =     0.00000537    0.00000000    0.00013209
     atom    6 type  4   force =    -0.00000537    0.00000000    0.00013209
     atom    7 type  1   force =     0.00000000    0.00000000   -0.00037769
     atom    8 type  1   force =     0.00000000    0.00000000   -0.00034459
     atom    9 type  3   force =     0.00010635    0.00000000   -0.00027279
     atom   10 type  3   force =    -0.00010635    0.00000000   -0.00027279
     atom   11 type  4   force =     0.00000000    0.00000000    0.00108867
     atom   12 type  4   force =     0.00005454    0.00000000    0.00136817
     atom   13 type  4   force =    -0.00005454    0.00000000    0.00136817
     atom   14 type  4   force =     0.00000000    0.00000000    0.00142620
     atom   15 type  2   force =     0.00000000    0.00000000   -0.00326023
     atom   16 type  5   force =     0.00000000    0.00000000   -0.00481083
     atom   17 type  4   force =     0.00094242    0.00000000    0.00626220
     atom   18 type  4   force =    -0.00094242    0.00000000    0.00626220
     atom   19 type  4   force =     0.00000000    0.00000000    0.00398927
     atom   20 type  4   force =     0.00000000    0.00000000    0.00518953
     atom   21 type  3   force =     0.00054994    0.00000000   -0.00181752
     atom   22 type  3   force =    -0.00054994    0.00000000   -0.00181752
     atom   23 type  1   force =     0.00000000    0.00000000    0.00734236
     atom   24 type  1   force =     0.00000000    0.00000000    0.01376844
     atom   25 type  4   force =     0.00247426    0.00000000   -0.01841773
     atom   26 type  4   force =    -0.00247426    0.00000000   -0.01841773
     atom   27 type  4   force =    -0.01318724    0.00000000    0.02841256
     atom   28 type  4   force =     0.01318724    0.00000000    0.02841256
     atom   29 type  3   force =     0.01267548    0.00000000   -0.02528565
     atom   30 type  3   force =    -0.01267548    0.00000000   -0.02528565
     atom   31 type  4   force =     0.01503402    0.00000000    0.02637750
     atom   32 type  4   force =    -0.01503402    0.00000000    0.02637750
     atom   33 type  1   force =     0.00000000    0.00000000   -0.00427100
     atom   34 type  1   force =     0.00000000    0.00000000   -0.01525161
     atom   35 type  3   force =    -0.00347867    0.00000000   -0.02094841
     atom   36 type  3   force =     0.00347867    0.00000000   -0.02094841
     atom   37 type  4   force =     0.00000000    0.00000000    0.00305459
     atom   38 type  4   force =     0.00000000    0.00000000    0.00070958
     atom   39 type  4   force =     0.00281483    0.00000000    0.00037458
     atom   40 type  4   force =    -0.00281483    0.00000000    0.00037458
     atom   41 type  5   force =     0.00000000    0.00000000    0.00210005
     atom   42 type  2   force =     0.00000000    0.00000000    0.00042054
     atom   43 type  4   force =     0.00000000    0.00000000    0.00022173
     atom   44 type  4   force =     0.00002958    0.00000000   -0.00139717
     atom   45 type  4   force =    -0.00002958    0.00000000   -0.00139717
     atom   46 type  4   force =     0.00000000    0.00000000   -0.00009522
     atom   47 type  3   force =    -0.00003765    0.00000000    0.00030601
     atom   48 type  3   force =     0.00003765    0.00000000    0.00030601
     atom   49 type  1   force =     0.00000000    0.00000000    0.00017287
     atom   50 type  1   force =     0.00000000    0.00000000    0.00022912
     atom   51 type  4   force =    -0.00004878    0.00000000   -0.00080374
     atom   52 type  4   force =     0.00004878    0.00000000   -0.00080374
     atom   53 type  3   force =    -0.00003690    0.00000000    0.00088021
     atom   54 type  3   force =     0.00003690    0.00000000    0.00088021
     atom   55 type  4   force =     0.00002002    0.00000000   -0.00037985
     atom   56 type  4   force =    -0.00002002    0.00000000   -0.00037985

     Total force =     0.087766     Total SCF correction =     0.000364

     Computing stress (Cartesian axis) and pressure

     negative rho (up, down):  9.194E-02 0.000E+00
          total   stress  (Ry/bohr**3)                   (kbar)     P=       -5.94
  -0.00000210   0.00000000   0.00000000           -0.31        0.00        0.00
   0.00000000  -0.00008929   0.00000000            0.00      -13.14        0.00
   0.00000000   0.00000000  -0.00002978            0.00        0.00       -4.38

     General routines

     Parallel routines

   This run was terminated on:  10:33:49  28May2021

   JOB DONE.
[1622212429.986682] [holy7c04306:25372:0]          mpool.c:43   UCX  WARN  object 0x2f1d800 was not returned to mpool ucp_requests
[1622212429.987011] [holy7c04306:25374:0]          mpool.c:43   UCX  WARN  object 0x470dd80 was not returned to mpool ucp_requests
[1622212429.987031] [holy7c04306:25374:0]          mpool.c:43   UCX  WARN  object 0x470e2c0 was not returned to mpool ucp_requests
[1622212429.991450] [holy7c04304:121472:0]          mpool.c:43   UCX  WARN  object 0x3498e80 was not returned to mpool ucp_requests
[1622212429.994451] [holy7c04302:151049:0]          mpool.c:43   UCX  WARN  object 0x348f100 was not returned to mpool ucp_requests
[1622212429.996453] [holy7c04303:216826:0]          mpool.c:43   UCX  WARN  object 0x2e15940 was not returned to mpool ucp_requests
[1622212429.996473] [holy7c04303:216826:0]          mpool.c:43   UCX  WARN  object 0x2e15e80 was not returned to mpool ucp_requests
[1622212429.996047] [holy7c04302:151053:0]          mpool.c:43   UCX  WARN  object 0x2852340 was not returned to mpool ucp_requests
[1622212429.999229] [holy7c04309:31498:0]          mpool.c:43   UCX  WARN  object 0x4114780 was not returned to mpool ucp_requests
[1622212429.999938] [holy7c04302:151047:0]          mpool.c:43   UCX  WARN  object 0x475f300 was not returned to mpool ucp_requests
[1622212430.000165] [holy7c04302:151050:0]          mpool.c:43   UCX  WARN  object 0x2fb0c00 was not returned to mpool ucp_requests
[1622212430.000197] [holy7c04302:151050:0]          mpool.c:43   UCX  WARN  object 0x2fb0f80 was not returned to mpool ucp_requests
[1622212430.000563] [holy7c04303:216825:0]          mpool.c:43   UCX  WARN  object 0x352c780 was not returned to mpool ucp_requests
[1622212430.000941] [holy7c04303:216829:0]          mpool.c:43   UCX  WARN  object 0x3ebe500 was not returned to mpool ucp_requests
[1622212430.000924] [holy7c04303:216831:0]          mpool.c:43   UCX  WARN  object 0x40993c0 was not returned to mpool ucp_requests
[1622212430.000948] [holy7c04303:216831:0]          mpool.c:43   UCX  WARN  object 0x4099ac0 was not returned to mpool ucp_requests
[1622212430.008622] [holy7c04309:31497:0]          mpool.c:43   UCX  WARN  object 0x2ef3300 was not returned to mpool ucp_requests