     Program PWSCF v.6.5 starts on 27May2021 at 23:32:44

     R & G space division:  proc/nbgrp/npool/nimage =      32
     Reading input from YCBCO50_212_CuO_cleave_0.25_sep.pwi
Warning: card &IONS ignored
Warning: card     ION_DYNAMICS = 'BFGS' ignored
Warning: card / ignored
Warning: card &CELL ignored
Warning: card     CELL_DYNAMICS = 'BFGS' ignored
Warning: card     PRESS_CONV_THR = 5 ignored
Warning: card / ignored

     Current dimensions of program PWSCF are:
     Max number of different atomic species (ntypx) = 10
     Max number of k-points (npk) =  40000
     Max angular momentum in pseudopotentials (lmaxx) =  3

     Message from routine setup:
     using ibrav=0 with symmetry is DISCOURAGED, use correct ibrav instead

     bravais-lattice index     =            0
     lattice parameter (alat)  =      14.8133  a.u.
     unit-cell volume          =    8766.7572 (a.u.)^3
     number of atoms/cell      =           56
     number of atomic types    =            5
     number of electrons       =       456.00
     number of Kohn-Sham states=          274
     kinetic-energy cutoff     =      60.0000  Ry
     charge density cutoff     =     720.0000  Ry
     convergence threshold     =      1.0E-08
     mixing beta               =       0.5000
     number of iterations used =           10  local-TF  mixing
     Exchange-correlation= SLA PW PBE PBE
                           (   1   4   3   4   0   0   0)

     celldm(1)=  14.813271  celldm(2)=   0.000000  celldm(3)=   0.000000
     celldm(4)=   0.000000  celldm(5)=   0.000000  celldm(6)=   0.000000

     crystal axes: (cart. coord. in units of alat)
               a(1) = (   1.000000   0.000000   0.000000 )
               a(2) = (   0.000000   0.477453   0.000000 )
               a(3) = (   0.000000   0.000000   5.648794 )

     reciprocal axes: (cart. coord. in units 2 pi/alat)
               b(1) = (  1.000000  0.000000  0.000000 )
               b(2) = (  0.000000  2.094448  0.000000 )
               b(3) = (  0.000000  0.000000  0.177029 )

     PseudoPot. # 1 for Ba read from file:
     ./pseudo/Ba.pbe-nsp-van.UPF
     MD5 check sum: 2b9c31dd849566dd297d80989662b7a0
     Pseudo is Ultrasoft + core correction, Zval = 10.0
     Generated by new atomic code, or converted to UPF format
     Using radial grid of  907 points,  6 beta functions with:
                l(1) =   0
                l(2) =   0
                l(3) =   1
                l(4) =   1
                l(5) =   2
                l(6) =   2
     Q(r) pseudized with  6 coefficients,  rinner =    1.200   1.200   1.200
                                                       1.200   1.200

     PseudoPot. # 2 for Ca read from file:
     ./pseudo/Ca.pbe-nsp-van.UPF
     MD5 check sum: 6471098428ff4fa451746d08035ff179
     Pseudo is Ultrasoft + core correction, Zval = 10.0
     Generated by new atomic code, or converted to UPF format
     Using radial grid of  845 points,  6 beta functions with:
                l(1) =   0
                l(2) =   0
                l(3) =   1
                l(4) =   1
                l(5) =   2
                l(6) =   2
     Q(r) pseudized with  6 coefficients,  rinner =    1.200   1.200   1.200
                                                       1.200   1.200

     PseudoPot. # 3 for Cu read from file:
     ./pseudo/Cu.pbe-n-van_ak.UPF
     MD5 check sum: 34e3282627ffb533726feb647e090d62
     Pseudo is Ultrasoft + core correction, Zval = 11.0
     Generated by new atomic code, or converted to UPF format
     Using radial grid of  867 points,  6 beta functions with:
                l(1) =   0
                l(2) =   0
                l(3) =   1
                l(4) =   1
                l(5) =   2
                l(6) =   2
     Q(r) pseudized with  8 coefficients,  rinner =    1.400   1.400   1.400
                                                       1.400   1.400

     PseudoPot. # 4 for O  read from file:
     ./pseudo/O.pbe-van_ak.UPF
     MD5 check sum: 783ce7fe4c79b6a4916957118fed0856
     Pseudo is Ultrasoft, Zval =  6.0
     Generated by new atomic code, or converted to UPF format
     Using radial grid of  737 points,  4 beta functions with:
                l(1) =   0
                l(2) =   0
                l(3) =   1
                l(4) =   1
     Q(r) pseudized with  8 coefficients,  rinner =    0.800   0.800   0.800

     PseudoPot. # 5 for Y  read from file:
     ./pseudo/Y.pbe-nsp-van.UPF
     MD5 check sum: 4412fed3ab108fed87a1b7d6a69a4a38
     Pseudo is Ultrasoft + core correction, Zval = 11.0
     Generated by new atomic code, or converted to UPF format
     Using radial grid of  885 points,  6 beta functions with:
                l(1) =   0
                l(2) =   0
                l(3) =   1
                l(4) =   1
                l(5) =   2
                l(6) =   2
     Q(r) pseudized with  6 coefficients,  rinner =    1.200   1.200   1.200
                                                       1.200   1.200

     atomic species   valence    mass     pseudopotential
        Ba            10.00   137.32700     Ba( 1.00)
        Ca            10.00    40.07800     Ca( 1.00)
        Cu            11.00    63.54600     Cu( 1.00)
        O              6.00    15.99900     O ( 1.00)
        Y             11.00    88.90584     Y ( 1.00)

      4 Sym. Ops. (no inversion) found ( 2 have fractional translation)

   Cartesian axes

     site n.     atom                  positions (alat units)
         1           O   tau(   1) = (  -0.0008343   0.2387265  -0.0222443  )
         2           O   tau(   2) = (   0.5008340   0.2387265  -0.0222443  )
         3           Cu  tau(   3) = (   0.5017257   0.0000000   0.0109608  )
         4           Cu  tau(   4) = (  -0.0017260   0.0000000   0.0109608  )
         5           O   tau(   5) = (  -0.0028933   0.0000000   0.2506504  )
         6           O   tau(   6) = (   0.5028929   0.0000000   0.2506504  )
         7           Ba  tau(   7) = (   0.7499995   0.2387265   0.2749435  )
         8           Ba  tau(   8) = (   0.2499998   0.2387265   0.2755214  )
         9           Cu  tau(   9) = (   0.4980963   0.0000000   0.5208446  )
        10           Cu  tau(  10) = (   0.0019033   0.0000000   0.5208446  )
        11           O   tau(  11) = (   0.2499998   0.0000000   0.5341884  )
        12           O   tau(  12) = (   0.5083351   0.2387265   0.5569851  )
        13           O   tau(  13) = (  -0.0083354   0.2387265   0.5569851  )
        14           O   tau(  14) = (   0.7499995   0.0000000   0.5573831  )
        15           Ca  tau(  15) = (   0.2499998   0.2387265   0.7436937  )
        16           Y   tau(  16) = (   0.7499995   0.2387265   0.7469544  )
        17           O   tau(  17) = (  -0.0063798   0.2387265   0.9248530  )
        18           O   tau(  18) = (   0.5063794   0.2387265   0.9248530  )
        19           O   tau(  19) = (   0.7499995   0.0000000   0.9338544  )
        20           O   tau(  20) = (   0.2499998   0.0000000   0.9461329  )
        21           Cu  tau(  21) = (   0.0015717   0.0000000   0.9686860  )
        22           Cu  tau(  22) = (   0.4984280   0.0000000   0.9686860  )
        23           Ba  tau(  23) = (   0.2499998   0.2387265   1.2085224  )
        24           Ba  tau(  24) = (   0.7499995   0.2387265   1.2233294  )
        25           O   tau(  25) = (   0.0063772   0.0000000   1.2547537  )
        26           O   tau(  26) = (   0.4936224   0.0000000   1.2547537  )
        27           O   tau(  27) = (   0.5384045   0.2387265   1.4952521  )
        28           O   tau(  28) = (  -0.0384049   0.2387265   1.4952521  )
        29           Cu  tau(  29) = (   0.5006120   0.0000000   1.4952546  )
        30           Cu  tau(  30) = (  -0.0006123   0.0000000   1.4952546  )
        31           O   tau(  31) = (   0.4936212   0.0000000   1.7676455  )
        32           O   tau(  32) = (   0.0063785   0.0000000   1.7676455  )
        33           Ba  tau(  33) = (   0.7499995   0.2387265   1.7990749  )
        34           Ba  tau(  34) = (   0.2499998   0.2387265   1.8138845  )
        35           Cu  tau(  35) = (   0.4984280   0.0000000   2.0537157  )
        36           Cu  tau(  36) = (   0.0015717   0.0000000   2.0537157  )
        37           O   tau(  37) = (   0.2499998   0.0000000   2.0762739  )
        38           O   tau(  38) = (   0.7499995   0.0000000   2.0885435  )
        39           O   tau(  39) = (   0.5063781   0.2387265   2.0975487  )
        40           O   tau(  40) = (  -0.0063785   0.2387265   2.0975487  )
        41           Y   tau(  41) = (   0.7499995   0.2387265   2.2754422  )
        42           Ca  tau(  42) = (   0.2499998   0.2387265   2.2787118  )
        43           O   tau(  43) = (   0.7499995   0.0000000   2.4650097  )
        44           O   tau(  44) = (  -0.0083354   0.2387265   2.4654115  )
        45           O   tau(  45) = (   0.5083351   0.2387265   2.4654115  )
        46           O   tau(  46) = (   0.2499998   0.0000000   2.4882095  )
        47           Cu  tau(  47) = (   0.0019059   0.0000000   2.5015431  )
        48           Cu  tau(  48) = (   0.4980938   0.0000000   2.5015431  )
        49           Ba  tau(  49) = (   0.2499998   0.2387265   2.7468828  )
        50           Ba  tau(  50) = (   0.7499995   0.2387265   2.7474250  )
        51           O   tau(  51) = (  -0.0028895   0.0000000   2.7717321  )
        52           O   tau(  52) = (   0.5028891   0.0000000   2.7717321  )
        53           Cu  tau(  53) = (   0.5017844   0.0000000   3.0114167  )
        54           Cu  tau(  54) = (  -0.0017847   0.0000000   3.0114167  )
        55           O   tau(  55) = (   0.5008990   0.2387265   3.0446231  )
        56           O   tau(  56) = (  -0.0008994   0.2387265   3.0446231  )

     number of k points=    25  Gaussian smearing, width (Ry)=  0.0100
                       cart. coord. in units 2pi/alat
        k(    1) = (   0.0000000   0.0000000   0.0000000), wk =   0.0312500
        k(    2) = (   0.0000000   0.2618060   0.0000000), wk =   0.0625000
        k(    3) = (   0.0000000   0.5236121   0.0000000), wk =   0.0625000
        k(    4) = (   0.0000000   0.7854181   0.0000000), wk =   0.0625000
        k(    5) = (   0.0000000  -1.0472241   0.0000000), wk =   0.0312500
        k(    6) = (   0.1250000   0.0000000   0.0000000), wk =   0.0625000
        k(    7) = (   0.1250000   0.2618060   0.0000000), wk =   0.1250000
        k(    8) = (   0.1250000   0.5236121   0.0000000), wk =   0.1250000
        k(    9) = (   0.1250000   0.7854181   0.0000000), wk =   0.1250000
        k(   10) = (   0.1250000  -1.0472241   0.0000000), wk =   0.0625000
        k(   11) = (   0.2500000   0.0000000   0.0000000), wk =   0.0625000
        k(   12) = (   0.2500000   0.2618060   0.0000000), wk =   0.1250000
        k(   13) = (   0.2500000   0.5236121   0.0000000), wk =   0.1250000
        k(   14) = (   0.2500000   0.7854181   0.0000000), wk =   0.1250000
        k(   15) = (   0.2500000  -1.0472241   0.0000000), wk =   0.0625000
        k(   16) = (   0.3750000   0.0000000   0.0000000), wk =   0.0625000
        k(   17) = (   0.3750000   0.2618060   0.0000000), wk =   0.1250000
        k(   18) = (   0.3750000   0.5236121   0.0000000), wk =   0.1250000
        k(   19) = (   0.3750000   0.7854181   0.0000000), wk =   0.1250000
        k(   20) = (   0.3750000  -1.0472241   0.0000000), wk =   0.0625000
        k(   21) = (  -0.5000000   0.0000000   0.0000000), wk =   0.0312500
        k(   22) = (  -0.5000000   0.2618060   0.0000000), wk =   0.0625000
        k(   23) = (  -0.5000000   0.5236121   0.0000000), wk =   0.0625000
        k(   24) = (  -0.5000000   0.7854181   0.0000000), wk =   0.0625000
        k(   25) = (  -0.5000000  -1.0472241   0.0000000), wk =   0.0312500

     Initial potential from superposition of free atoms

     starting charge  455.69457, renormalised to  456.00000

     negative rho (up, down):  9.320E-02 0.000E+00
     Starting wfcs are  396 randomized atomic wfcs

     Self-consistent Calculation

     iteration #  1     ecut=    60.00 Ry     beta= 0.50
     Davidson diagonalization with overlap
     ethr =  1.00E-02,  avg # of iterations =  2.0

     negative rho (up, down):  8.604E-02 0.000E+00

     total energy              =   -3708.47773077 Ry
     Harris-Foulkes estimate   =   -3716.42174811 Ry
     estimated scf accuracy    <      29.98241381 Ry

[...]

     iteration # 14     ecut=    60.00 Ry     beta= 0.50
     Davidson diagonalization with overlap
     c_bands:  1 eigenvalues not converged
     ethr =  4.69E-06,  avg # of iterations = 10.6

[...]

     iteration # 23     ecut=    60.00 Ry     beta= 0.50
     Davidson diagonalization with overlap
     c_bands:  1 eigenvalues not converged
     c_bands:  1 eigenvalues not converged
     ethr =  5.83E-09,  avg # of iterations =  5.0

[...]

     total energy              =   -3711.74562271 Ry
     Harris-Foulkes estimate   =   -3711.74562273 Ry
     estimated scf accuracy    <       0.00000003 Ry

     iteration # 31     ecut=    60.00 Ry     beta= 0.50
     Davidson diagonalization with overlap
     ethr =  6.03E-12,  avg # of iterations =  1.0

[...]

     End of self-consistent calculation

          k = 0.0000 0.0000 0.0000 ( 68823 PWs)   bands (ev):

   -37.9851 -37.9726 -35.6123 -35.5937 -22.7718 -22.7695 -22.6435 -22.6412
   -22.4820 -22.4187 -22.3226 -22.2727 -18.4599 -18.4492 -18.3570 -18.3446
   -17.9883 -17.9758 -16.9599 -16.9414 -16.8256 -16.8086 -16.6421 -16.6226
   -15.3702 -15.3598 -14.9360 -14.9315 -14.6665 -14.6169 -14.5237 -14.5224
   -14.5091 -14.4377 -14.4223 -14.4145 -14.4077 -14.3927 -14.2608 -14.2361
   -14.0593 -14.0503 -13.9502 -13.9484 -13.9431 -13.9371 -13.9365 -13.9289
   -13.8465 -13.8215 -13.7005 -13.4953 -13.3036 -12.9738  -8.0098  -8.0072
    -7.9011  -7.8987  -7.8212  -7.8191  -7.7808  -7.6999  -7.6831  -7.6809
    -7.6349  -7.5867  -7.5846  -7.5675  -7.4805  -7.4451  -7.4429  -7.3961
    -7.3610  -7.2923  -7.2678  -7.1585  -7.1343  -7.0364  -2.9400  -2.9355
    -2.7728  -2.7416  -2.1279  -2.1269  -2.0408  -2.0402  -2.0004  -1.9932
    -1.8483  -1.8318  -1.7990  -1.7891  -1.7555  -1.7390  -1.6876  -1.6803
    -1.6271  -1.6198  -1.5878  -1.5729  -1.4863  -1.4720  -1.2928  -1.2856
    -1.1589  -1.1160  -1.0725  -1.0625  -1.0533  -0.9736  -0.8760  -0.8747
    -0.8746  -0.8731  -0.8683  -0.8359  -0.8260  -0.8224  -0.7734  -0.7285
    -0.7040  -0.6491  -0.6480  -0.5262  -0.5126  -0.4071  -0.3654  -0.3339
    -0.2649  -0.2097  -0.2087  -0.2057  -0.1663  -0.1467  -0.1384  -0.1145
    -0.0976  -0.0905  -0.0894  -0.0857  -0.0856   0.0368   0.0417   0.0433
     0.0821   0.0873   0.1024   0.1042   0.1131   0.1337   0.1955   0.2049
     0.2206   0.2224   0.2228   0.2250   0.3186   0.3198   0.3578   0.3590
     0.4028   0.4253   0.4455   0.4478   0.4553   0.4603   0.4684   0.4790
     0.5625   0.6239   0.6293   0.6298   0.6507   0.6521   0.7013   0.7353
     0.8110   0.8530   0.8845   0.9276   0.9882   1.0582   1.0874   1.0895
     1.1186   1.1384   1.1432   1.1734   1.2442   1.3010   1.3112   1.3144
     1.3170   1.3311   1.3377   1.3565   1.3965   1.4384   1.4488   1.4714
     1.4764   1.5142   1.5308   1.5346   1.5525   1.5915   1.6911   1.6993
     1.7378   1.7781   1.8138   1.8150   1.8882   1.8896   1.9109   1.9345
     1.9453   1.9493   1.9854   2.0196   2.0432   2.1606   2.1627   2.2922
     2.3518   2.3786   2.3845   2.4403   2.4571   2.4849   2.5570   2.5612
     2.6813   2.6845   2.6907   2.7976   2.9703   2.9981   5.3157   5.3332
     5.6908   6.0575   6.2739   6.7100   6.7349   6.8280   7.1175   7.3742
     7.3773   7.4691   7.4704   7.5223   7.6836   7.8218   8.1455   8.1771
     8.2401   8.2520   8.2804   8.3826   8.5857   8.6057   8.6379   8.7183
     8.7486   9.0490   9.1257   9.1475   9.1840   9.2246   9.3878   9.3958
     9.5295   9.5320

[...]

          k = 0.3750-1.0472 0.0000 ( 68774 PWs)   bands (ev):

[...]

          k =-0.5000 0.0000 0.0000 ( 68956 PWs)   bands (ev):

[...]

          k =-0.5000-1.0472 0.0000 ( 68772 PWs)   bands (ev):

   -37.9667 -37.9542 -35.6007 -35.5821 -22.5689 -22.5664 -22.5392 -22.5372
   -22.2998 -22.2555 -22.2049 -22.1469 -18.6286 -18.6166 -18.2868 -18.2743
   -18.1651 -18.1541 -17.0333 -17.0136 -16.8572 -16.8403 -16.7521 -16.7339
   -14.6822 -14.6763 -14.6167 -14.6135 -14.4572 -14.4485 -14.3849 -14.3776
   -14.3381 -14.3330 -14.2761 -14.2270 -14.1996 -14.1871 -14.1861 -14.1750
   -14.0477 -13.9991 -13.9651 -13.9571 -13.9481 -13.9073 -13.8243 -13.8236
   -13.8226 -13.8217 -13.8160 -13.7854 -13.2494 -13.2389  -8.3541  -8.3518
    -8.3033  -8.3013  -8.0707  -8.0291  -8.0267  -8.0075  -8.0055  -8.0035
    -7.9803  -7.9268  -7.9243  -7.9242  -7.9219  -7.7881  -7.7655  -7.7528
    -7.7002  -7.6305  -7.5861  -7.5745  -7.5115  -7.5033  -3.7415  -3.7308
    -3.5190  -3.5079  -3.3346  -3.3083  -3.2363  -3.1840  -3.0113  -2.9667
    -2.9512  -2.9504  -2.9497  -2.9489  -2.2938  -2.2920  -2.1841  -2.1818
    -2.0693  -2.0382  -2.0379  -2.0221  -2.0215  -2.0110  -1.9417  -1.9348
    -1.9096  -1.8921  -1.8518  -1.8470  -1.7432  -1.7036  -1.6779  -1.6643
    -1.6394  -1.6383  -1.4088  -1.3968  -1.2935  -1.2746  -1.1574  -1.1403
    -1.0770  -1.0672  -1.0491  -1.0410  -0.8510  -0.8387  -0.7640  -0.7342
    -0.7282  -0.7233  -0.6699  -0.6578  -0.6529  -0.6431  -0.6286  -0.6153
    -0.5995  -0.5979  -0.5528  -0.4792  -0.4603  -0.4410  -0.3769  -0.3508
    -0.2689  -0.2513  -0.2499  -0.2250  -0.2229  -0.1766   0.3026   0.3234
     0.4159   0.4161   0.4348   0.4531   0.5835   0.6044   0.6165   0.6547
     0.6565   0.6639   0.7930   0.8820   0.9170   1.0558   1.1393   1.1534
     1.1804   1.1914   1.1928   1.2088   1.2250   1.2727   1.2804   1.3103
     1.3160   1.3506   1.4085   1.4157   1.4592   1.4638   1.4646   1.4878
     1.5435   1.5444   1.5543   1.5582   1.5693   1.5941   1.6245   1.6661
     1.6703   1.6964   1.6984   1.8846   1.9027   1.9044   1.9252   1.9531
     1.9598   1.9919   2.0001   2.0138   2.0243   2.0296   2.0364   2.0970
     2.1181   2.1458   2.1566   2.1780   2.2391   2.2982   2.2994   2.3001
     2.3023   2.3485   2.4806   2.6461   2.6474   2.6551   2.6567   2.6782
     2.8132   2.8232   2.8253   2.8411   3.5699   3.5986   3.6653   3.6750
     3.7627   3.7753   3.8233   3.8640   3.9339   4.0675   6.2864   6.8296
     6.8310   6.8643   6.8899   7.0682   7.0746   7.1319   7.7040   7.7308
     8.3421   8.3698   8.3968   8.6721   8.9642   9.1917   9.2484   9.2680
     9.3160   9.4052   9.4984   9.5041   9.5623   9.5730   9.5872   9.8058
     9.8432   9.8683   9.9186   9.9234   9.9251   9.9321   9.9326  10.0104
    10.0638  10.1106

     the Fermi energy is     2.8264 ev

!    total energy              =   -3711.74562270 Ry
     Harris-Foulkes estimate   =   -3711.74562271 Ry
     estimated scf accuracy    <          6.3E-09 Ry

     The total energy is the sum of the following terms:

     one-electron contribution =  -63887.93860257 Ry
     hartree contribution      =   32252.45704601 Ry
     xc contribution           =   -1264.06568398 Ry
     ewald contribution        =   29187.81560556 Ry
     smearing contrib. (-TS)   =      -0.01398772 Ry

     convergence has been achieved in  31 iterations

     negative rho (up, down):  9.205E-02 0.000E+00

     Forces acting on atoms (cartesian axes, Ry/au):

     atom    1 type  4   force =    -0.00000178    0.00000000   -0.00011782
     atom    2 type  4   force =     0.00000178    0.00000000   -0.00011782
     atom    3 type  3   force =    -0.00002131    0.00000000   -0.00010743
     atom    4 type  3   force =     0.00002131    0.00000000   -0.00010743
     atom    5 type  4   force =    -0.00000598    0.00000000   -0.00006704
     atom    6 type  4   force =     0.00000598    0.00000000   -0.00006704
     atom    7 type  1   force =     0.00000000    0.00000000   -0.00013204
     atom    8 type  1   force =     0.00000000    0.00000000   -0.00011728
     atom    9 type  3   force =     0.00003485    0.00000000   -0.00007525
     atom   10 type  3   force =    -0.00003485    0.00000000   -0.00007525
     atom   11 type  4   force =     0.00000000    0.00000000    0.00024262
     atom   12 type  4   force =    -0.00001153    0.00000000    0.00019501
     atom   13 type  4   force =     0.00001153    0.00000000    0.00019501
     atom   14 type  4   force =     0.00000000    0.00000000    0.00028167
     atom   15 type  2   force =     0.00000000    0.00000000   -0.00063326
     atom   16 type  5   force =     0.00000000    0.00000000   -0.00096546
     atom   17 type  4   force =     0.00016786    0.00000000    0.00090924
     atom   18 type  4   force =    -0.00016786    0.00000000    0.00090924
     atom   19 type  4   force =     0.00000000    0.00000000    0.00074644
     atom   20 type  4   force =     0.00000000    0.00000000    0.00083582
     atom   21 type  3   force =     0.00014477    0.00000000   -0.00030584
     atom   22 type  3   force =    -0.00014477    0.00000000   -0.00030584
     atom   23 type  1   force =     0.00000000    0.00000000    0.00371982
     atom   24 type  1   force =     0.00000000    0.00000000    0.00664222
     atom   25 type  4   force =     0.00072747    0.00000000   -0.00241656
     atom   26 type  4   force =    -0.00072747    0.00000000   -0.00241656
     atom   27 type  4   force =     0.00099216    0.00000000    0.00954005
     atom   28 type  4   force =    -0.00099216    0.00000000    0.00954005
     atom   29 type  3   force =     0.00028196    0.00000000    0.04410980
     atom   30 type  3   force =    -0.00028196    0.00000000    0.04410980
     atom   31 type  4   force =     0.00475197    0.00000000   -0.03947473
     atom   32 type  4   force =    -0.00475197    0.00000000   -0.03947473
     atom   33 type  1   force =     0.00000000    0.00000000   -0.01803906
     atom   34 type  1   force =     0.00000000    0.00000000   -0.01044718
     atom   35 type  3   force =    -0.00118480    0.00000000   -0.00573050
     atom   36 type  3   force =     0.00118480    0.00000000   -0.00573050
     atom   37 type  4   force =     0.00000000    0.00000000    0.00268073
     atom   38 type  4   force =     0.00000000    0.00000000    0.00060188
     atom   39 type  4   force =     0.00108266    0.00000000    0.00035238
     atom   40 type  4   force =    -0.00108266    0.00000000    0.00035238
     atom   41 type  5   force =     0.00000000    0.00000000    0.00056949
     atom   42 type  2   force =     0.00000000    0.00000000   -0.00022545
     atom   43 type  4   force =     0.00000000    0.00000000    0.00003875
     atom   44 type  4   force =    -0.00000357    0.00000000   -0.00010820
     atom   45 type  4   force =     0.00000357    0.00000000   -0.00010820
     atom   46 type  4   force =     0.00000000    0.00000000    0.00009761
     atom   47 type  3   force =     0.00003437    0.00000000    0.00008414
     atom   48 type  3   force =    -0.00003437    0.00000000    0.00008414
     atom   49 type  1   force =     0.00000000    0.00000000    0.00005758
     atom   50 type  1   force =     0.00000000    0.00000000    0.00008597
     atom   51 type  4   force =    -0.00001333    0.00000000   -0.00004899
     atom   52 type  4   force =     0.00001333    0.00000000   -0.00004899
     atom   53 type  3   force =    -0.00003676    0.00000000    0.00024569
     atom   54 type  3   force =     0.00003676    0.00000000    0.00024569
     atom   55 type  4   force =     0.00000497    0.00000000   -0.00000439
     atom   56 type  4   force =    -0.00000497    0.00000000   -0.00000439

     Total force =     0.088467     Total SCF correction =     0.000361

     Computing stress (Cartesian axis) and pressure

     negative rho (up, down):  9.205E-02 0.000E+00
          total   stress  (Ry/bohr**3)                   (kbar)     P=       -4.16
  -0.00000025   0.00000000   0.00000000           -0.04        0.00        0.00
   0.00000000  -0.00002486   0.00000000            0.00       -3.66        0.00
   0.00000000   0.00000000  -0.00005970            0.00        0.00       -8.78

     General routines

     Parallel routines

   This run was terminated on:   0:10:13  28May2021

   JOB DONE.
[1622175014.205825] [holy7c16610:221972:0]          mpool.c:43   UCX  WARN  object 0x41cfcc0 was not returned to mpool ucp_requests
[1622175014.206605] [holy7c18104:265427:0]          mpool.c:43   UCX  WARN  object 0x2bb4200 was not returned to mpool ucp_requests
[1622175014.206628] [holy7c18104:265427:0]          mpool.c:43   UCX  WARN  object 0x2bb4900 was not returned to mpool ucp_requests
[1622175014.211117] [holy7c16611:219704:0]          mpool.c:43   UCX  WARN  object 0x2eeaa80 was not returned to mpool ucp_requests
[1622175014.212172] [holy7c16611:219703:0]          mpool.c:43   UCX  WARN  object 0x3b66700 was not returned to mpool ucp_requests
[1622175014.213690] [holy7c18105:154180:0]          mpool.c:43   UCX  WARN  object 0x33635c0 was not returned to mpool ucp_requests
[1622175014.215490] [holy7c16603:248744:0]          mpool.c:43   UCX  WARN  object 0x39ffec0 was not returned to mpool ucp_requests
[1622175014.217176] [holy7c16602:267921:0]          mpool.c:43   UCX  WARN  object 0x3253640 was not returned to mpool ucp_requests
[1622175014.217201] [holy7c16602:267921:0]          mpool.c:43   UCX  WARN  object 0x3253b80 was not returned to mpool ucp_requests
[1622175014.217205] [holy7c16602:267921:0]          mpool.c:43   UCX  WARN  object 0x32540c0 was not returned to mpool ucp_requests
[1622175014.218845] [holy7c18105:154181:0]          mpool.c:43   UCX  WARN  object 0x3d2d140 was not returned to mpool ucp_requests
[1622175014.221660] [holy7c16602:267915:0]          mpool.c:43   UCX  WARN  object 0x4062d00 was not returned to mpool ucp_requests
[1622175014.222684] [holy7c16602:267919:0]          mpool.c:43   UCX  WARN  object 0x2e78040 was not returned to mpool ucp_requests
[1622175014.222708] [holy7c16602:267919:0]          mpool.c:43   UCX  WARN  object 0x2e78580 was not returned to mpool ucp_requests
[1622175014.222950] [holy7c16602:267920:0]          mpool.c:43   UCX  WARN  object 0x4286700 was not returned to mpool ucp_requests
[1622175014.224013] [holy7c16611:219701:0]          mpool.c:43   UCX  WARN  object 0x47e4ac0 was not returned to mpool ucp_requests
[1622175014.224037] [holy7c16611:219701:0]          mpool.c:43   UCX  WARN  object 0x47e5540 was not returned to mpool ucp_requests
[1622175014.236004] [holy7c16602:267914:0]          mpool.c:43   UCX  WARN  object 0x2cbee80 was not returned to mpool ucp_requests
[1622175014.234572] [holy7c16602:267916:0]          mpool.c:43   UCX  WARN  object 0x2e350c0 was not returned to mpool ucp_requests
[1622175014.234598] [holy7c16602:267916:0]          mpool.c:43   UCX  WARN  object 0x2e35280 was not returned to mpool ucp_requests