     Program PWSCF v.6.5 starts on 27May2021 at 23:53: 9

     R & G space division:  proc/nbgrp/npool/nimage =      32
     Reading input from YCBCO50_212_CuO_cleave_1.5_sep.pwi
Warning: card &IONS ignored
Warning: card     ION_DYNAMICS = 'BFGS' ignored
Warning: card / ignored
Warning: card &CELL ignored
Warning: card     CELL_DYNAMICS = 'BFGS' ignored
Warning: card     PRESS_CONV_THR = 5 ignored
Warning: card / ignored

     Current dimensions of program PWSCF are:
     Max number of different atomic species (ntypx) = 10
     Max number of k-points (npk) =  40000
     Max angular momentum in pseudopotentials (lmaxx) =  3

     Message from routine setup:
     using ibrav=0 with symmetry is DISCOURAGED, use correct ibrav instead

     bravais-lattice index     =            0
     lattice parameter (alat)  =      14.8133  a.u.
     unit-cell volume          =    9014.2378 (a.u.)^3
     number of atoms/cell      =           56
     number of atomic types    =            5
     number of electrons       =       456.00
     number of Kohn-Sham states=          274
     kinetic-energy cutoff     =      60.0000  Ry
     charge density cutoff     =     720.0000  Ry
     convergence threshold     =      1.0E-08
     mixing beta               =       0.5000
     number of iterations used =           10  local-TF  mixing
     Exchange-correlation= SLA PW PBE PBE
                           (   1   4   3   4   0   0   0)

     celldm(1)=  14.813271  celldm(2)=   0.000000  celldm(3)=   0.000000
     celldm(4)=   0.000000  celldm(5)=   0.000000  celldm(6)=   0.000000

     crystal axes: (cart. coord. in units of alat)
               a(1) = (   1.000000   0.000000   0.000000 )
               a(2) = (   0.000000   0.477453   0.000000 )
               a(3) = (   0.000000   0.000000   5.808256 )

     reciprocal axes: (cart. coord. in units 2 pi/alat)
               b(1) = (  1.000000  0.000000  0.000000 )
               b(2) = (  0.000000  2.094448  0.000000 )
               b(3) = (  0.000000  0.000000  0.172169 )

     PseudoPot. # 1 for Ba read from file:
     ./pseudo/Ba.pbe-nsp-van.UPF
     MD5 check sum: 2b9c31dd849566dd297d80989662b7a0
     Pseudo is Ultrasoft + core correction, Zval = 10.0
     Generated by new atomic code, or converted to UPF format
     Using radial grid of  907 points,  6 beta functions with:
                l(1) =   0
                l(2) =   0
                l(3) =   1
                l(4) =   1
                l(5) =   2
                l(6) =   2
     Q(r) pseudized with  6 coefficients,  rinner =    1.200   1.200   1.200
                                                       1.200   1.200

     PseudoPot. # 2 for Ca read from file:
     ./pseudo/Ca.pbe-nsp-van.UPF
     MD5 check sum: 6471098428ff4fa451746d08035ff179
     Pseudo is Ultrasoft + core correction, Zval = 10.0
     Generated by new atomic code, or converted to UPF format
     Using radial grid of  845 points,  6 beta functions with:
                l(1) =   0
                l(2) =   0
                l(3) =   1
                l(4) =   1
                l(5) =   2
                l(6) =   2
     Q(r) pseudized with  6 coefficients,  rinner =    1.200   1.200   1.200
                                                       1.200   1.200

     PseudoPot. # 3 for Cu read from file:
     ./pseudo/Cu.pbe-n-van_ak.UPF
     MD5 check sum: 34e3282627ffb533726feb647e090d62
     Pseudo is Ultrasoft + core correction, Zval = 11.0
     Generated by new atomic code, or converted to UPF format
     Using radial grid of  867 points,  6 beta functions with:
                l(1) =   0
                l(2) =   0
                l(3) =   1
                l(4) =   1
                l(5) =   2
                l(6) =   2
     Q(r) pseudized with  8 coefficients,  rinner =    1.400   1.400   1.400
                                                       1.400   1.400

     PseudoPot. # 4 for O  read from file:
     ./pseudo/O.pbe-van_ak.UPF
     MD5 check sum: 783ce7fe4c79b6a4916957118fed0856
     Pseudo is Ultrasoft, Zval =  6.0
     Generated by new atomic code, or converted to UPF format
     Using radial grid of  737 points,  4 beta functions with:
                l(1) =   0
                l(2) =   0
                l(3) =   1
                l(4) =   1
     Q(r) pseudized with  8 coefficients,  rinner =    0.800   0.800   0.800

     PseudoPot. # 5 for Y  read from file:
     ./pseudo/Y.pbe-nsp-van.UPF
     MD5 check sum: 4412fed3ab108fed87a1b7d6a69a4a38
     Pseudo is Ultrasoft + core correction, Zval = 11.0
     Generated by new atomic code, or converted to UPF format
     Using radial grid of  885 points,  6 beta functions with:
                l(1) =   0
                l(2) =   0
                l(3) =   1
                l(4) =   1
                l(5) =   2
                l(6) =   2
     Q(r) pseudized with  6 coefficients,  rinner =    1.200   1.200   1.200
                                                       1.200   1.200

     atomic species   valence    mass     pseudopotential
        Ba            10.00   137.32700     Ba( 1.00)
        Ca            10.00    40.07800     Ca( 1.00)
        Cu            11.00    63.54600     Cu( 1.00)
        O              6.00    15.99900     O ( 1.00)
        Y             11.00    88.90584     Y ( 1.00)

      4 Sym. Ops. (no inversion) found ( 2 have fractional translation)

   Cartesian axes

     site n.     atom                  positions (alat units)
         1           O   tau(   1) = (  -0.0008343   0.2387265  -0.0222443  )
         2           O   tau(   2) = (   0.5008340   0.2387265  -0.0222443  )
         3           Cu  tau(   3) = (   0.5017257   0.0000000   0.0109608  )
         4           Cu  tau(   4) = (  -0.0017260   0.0000000   0.0109608  )
         5           O   tau(   5) = (  -0.0028933   0.0000000   0.2506504  )
         6           O   tau(   6) = (   0.5028929   0.0000000   0.2506504  )
         7           Ba  tau(   7) = (   0.7499995   0.2387265   0.2749435  )
         8           Ba  tau(   8) = (   0.2499998   0.2387265   0.2755214  )
         9           Cu  tau(   9) = (   0.4980963   0.0000000   0.5208446  )
        10           Cu  tau(  10) = (   0.0019033   0.0000000   0.5208446  )
        11           O   tau(  11) = (   0.2499998   0.0000000   0.5341884  )
        12           O   tau(  12) = (   0.5083351   0.2387265   0.5569851  )
        13           O   tau(  13) = (  -0.0083354   0.2387265   0.5569851  )
        14           O   tau(  14) = (   0.7499995   0.0000000   0.5573831  )
        15           Ca  tau(  15) = (   0.2499998   0.2387265   0.7436937  )
        16           Y   tau(  16) = (   0.7499995   0.2387265   0.7469544  )
        17           O   tau(  17) = (  -0.0063798   0.2387265   0.9248530  )
        18           O   tau(  18) = (   0.5063794   0.2387265   0.9248530  )
        19           O   tau(  19) = (   0.7499995   0.0000000   0.9338544  )
        20           O   tau(  20) = (   0.2499998   0.0000000   0.9461329  )
        21           Cu  tau(  21) = (   0.0015717   0.0000000   0.9686860  )
        22           Cu  tau(  22) = (   0.4984280   0.0000000   0.9686860  )
        23           Ba  tau(  23) = (   0.2499998   0.2387265   1.2085224  )
        24           Ba  tau(  24) = (   0.7499995   0.2387265   1.2233294  )
        25           O   tau(  25) = (   0.0063772   0.0000000   1.2547537  )
        26           O   tau(  26) = (   0.4936224   0.0000000   1.2547537  )
        27           O   tau(  27) = (   0.5384045   0.2387265   1.4952521  )
        28           O   tau(  28) = (  -0.0384049   0.2387265   1.4952521  )
        29           Cu  tau(  29) = (   0.5006120   0.0000000   1.4952546  )
        30           Cu  tau(  30) = (  -0.0006123   0.0000000   1.4952546  )
        31           O   tau(  31) = (   0.4936212   0.0000000   1.9271078  )
        32           O   tau(  32) = (   0.0063785   0.0000000   1.9271078  )
        33           Ba  tau(  33) = (   0.7499995   0.2387265   1.9585371  )
        34           Ba  tau(  34) = (   0.2499998   0.2387265   1.9733467  )
        35           Cu  tau(  35) = (   0.4984280   0.0000000   2.2131780  )
        36           Cu  tau(  36) = (   0.0015717   0.0000000   2.2131780  )
        37           O   tau(  37) = (   0.2499998   0.0000000   2.2357361  )
        38           O   tau(  38) = (   0.7499995   0.0000000   2.2480058  )
        39           O   tau(  39) = (   0.5063781   0.2387265   2.2570109  )
        40           O   tau(  40) = (  -0.0063785   0.2387265   2.2570109  )
        41           Y   tau(  41) = (   0.7499995   0.2387265   2.4349045  )
        42           Ca  tau(  42) = (   0.2499998   0.2387265   2.4381741  )
        43           O   tau(  43) = (   0.7499995   0.0000000   2.6244719  )
        44           O   tau(  44) = (  -0.0083354   0.2387265   2.6248738  )
        45           O   tau(  45) = (   0.5083351   0.2387265   2.6248738  )
        46           O   tau(  46) = (   0.2499998   0.0000000   2.6476718  )
        47           Cu  tau(  47) = (   0.0019059   0.0000000   2.6610054  )
        48           Cu  tau(  48) = (   0.4980938   0.0000000   2.6610054  )
        49           Ba  tau(  49) = (   0.2499998   0.2387265   2.9063451  )
        50           Ba  tau(  50) = (   0.7499995   0.2387265   2.9068873  )
        51           O   tau(  51) = (  -0.0028895   0.0000000   2.9311944  )
        52           O   tau(  52) = (   0.5028891   0.0000000   2.9311944  )
        53           Cu  tau(  53) = (   0.5017844   0.0000000   3.1708789  )
        54           Cu  tau(  54) = (  -0.0017847   0.0000000   3.1708789  )
        55           O   tau(  55) = (   0.5008990   0.2387265   3.2040854  )
        56           O   tau(  56) = (  -0.0008994   0.2387265   3.2040854  )

     number of k points=    25  Gaussian smearing, width (Ry)=  0.0100
                       cart. coord. in units 2pi/alat
        k(    1) = (   0.0000000   0.0000000   0.0000000), wk =   0.0312500
        k(    2) = (   0.0000000   0.2618060   0.0000000), wk =   0.0625000
        k(    3) = (   0.0000000   0.5236121   0.0000000), wk =   0.0625000
        k(    4) = (   0.0000000   0.7854181   0.0000000), wk =   0.0625000
        k(    5) = (   0.0000000  -1.0472241   0.0000000), wk =   0.0312500
        k(    6) = (   0.1250000   0.0000000   0.0000000), wk =   0.0625000
        k(    7) = (   0.1250000   0.2618060   0.0000000), wk =   0.1250000
        k(    8) = (   0.1250000   0.5236121   0.0000000), wk =   0.1250000
        k(    9) = (   0.1250000   0.7854181   0.0000000), wk =   0.1250000
        k(   10) = (   0.1250000  -1.0472241   0.0000000), wk =   0.0625000
        k(   11) = (   0.2500000   0.0000000   0.0000000), wk =   0.0625000
        k(   12) = (   0.2500000   0.2618060   0.0000000), wk =   0.1250000
        k(   13) = (   0.2500000   0.5236121   0.0000000), wk =   0.1250000
        k(   14) = (   0.2500000   0.7854181   0.0000000), wk =   0.1250000
        k(   15) = (   0.2500000  -1.0472241   0.0000000), wk =   0.0625000
        k(   16) = (   0.3750000   0.0000000   0.0000000), wk =   0.0625000
        k(   17) = (   0.3750000   0.2618060   0.0000000), wk =   0.1250000
        k(   18) = (   0.3750000   0.5236121   0.0000000), wk =   0.1250000
        k(   19) = (   0.3750000   0.7854181   0.0000000), wk =   0.1250000
        k(   20) = (   0.3750000  -1.0472241   0.0000000), wk =   0.0625000
        k(   21) = (  -0.5000000   0.0000000   0.0000000), wk =   0.0312500
        k(   22) = (  -0.5000000   0.2618060   0.0000000), wk =   0.0625000
        k(   23) = (  -0.5000000   0.5236121   0.0000000), wk =   0.0625000
        k(   24) = (  -0.5000000   0.7854181   0.0000000), wk =   0.0625000
        k(   25) = (  -0.5000000  -1.0472241   0.0000000), wk =   0.0312500

     Initial potential from superposition of free atoms

     starting charge  455.69457, renormalised to  456.00000

     negative rho (up, down):  9.331E-02 0.000E+00
     Starting wfcs are  396 randomized atomic wfcs

     Self-consistent Calculation

     iteration #  1     ecut=    60.00 Ry     beta= 0.50
     Davidson diagonalization with overlap
     ethr =  1.00E-02,  avg # of iterations =  2.0

     negative rho (up, down):  8.622E-02 0.000E+00

     total energy              =   -3708.23927030 Ry
     Harris-Foulkes estimate   =   -3716.39138176 Ry
     estimated scf accuracy    <      30.95005795 Ry

[...]

     iteration # 10     ecut=    60.00 Ry     beta= 0.50
     Davidson diagonalization with overlap
     c_bands:  1 eigenvalues not converged
     ethr =  5.48E-05,  avg # of iterations =  8.0

[...]

     iteration # 25     ecut=    60.00 Ry     beta= 0.50
     Davidson diagonalization with overlap
     c_bands:  1 eigenvalues not converged
     ethr =  6.71E-09,  avg # of iterations =  5.1

[...]

     total energy              =   -3711.55429230 Ry
     Harris-Foulkes estimate   =   -3711.55429231 Ry
     estimated scf accuracy    <       0.00000001 Ry

     iteration # 34     ecut=    60.00 Ry     beta= 0.50
     Davidson diagonalization with overlap
     ethr =  2.29E-12,  avg # of iterations =  2.9

[...]

     End of self-consistent calculation

          k = 0.0000 0.0000 0.0000 ( 70809 PWs)   bands (ev):

   -38.2363 -38.1799 -35.8696 -35.8048 -22.9861 -22.9764 -22.8894 -22.8578
   -22.8481 -22.8130 -22.6470 -22.4028 -18.7095 -18.6610 -18.6091 -18.5539
   -18.2401 -18.1829 -17.2158 -17.1532 -17.0824 -17.0213 -16.9007 -16.8330
   -15.6143 -15.5761 -15.1584 -15.1413 -14.9338 -14.8298 -14.7639 -14.7625
   -14.7221 -14.6871 -14.6334 -14.6239 -14.6132 -14.5807 -14.4766 -14.4676
   -14.3001 -14.2623 -14.1878 -14.1616 -14.1526 -14.1520 -14.1462 -14.1372
   -14.1027 -14.0333 -13.9448 -13.8850 -13.0532 -12.5935  -8.2249  -8.2213
    -8.1912  -8.1168  -8.1052  -8.0535  -8.0353  -8.0260  -7.9206  -7.8972
    -7.8877  -7.8223  -7.8006  -7.7916  -7.7588  -7.6977  -7.6975  -7.6593
    -7.6497  -7.6445  -7.6277  -7.4653  -7.2513  -7.1465  -3.1630  -3.1429
    -3.0430  -2.9550  -2.3395  -2.3339  -2.2508  -2.2468  -2.2459  -2.2134
    -2.0980  -2.0499  -2.0442  -2.0165  -2.0079  -1.9668  -1.9522  -1.9202
    -1.8804  -1.8476  -1.8382  -1.7894  -1.7319  -1.6817  -1.5401  -1.5135
    -1.3476  -1.3038  -1.2862  -1.2691  -1.2007  -1.1353  -1.0991  -1.0865
    -1.0853  -1.0835  -1.0776  -1.0755  -1.0491  -1.0482  -0.9816  -0.9136
    -0.8599  -0.8536  -0.6054  -0.5619  -0.4992  -0.4326  -0.4219  -0.4145
    -0.4098  -0.4065  -0.3826  -0.3662  -0.3551  -0.3348  -0.3015  -0.2967
    -0.2952  -0.2952  -0.2727  -0.2347  -0.2093  -0.1403  -0.1307  -0.1204
    -0.1083  -0.1080  -0.0953  -0.0903  -0.0342  -0.0231  -0.0123   0.0098
     0.0116   0.0121   0.0142   0.0457   0.1096   0.1165   0.1435   0.1491
     0.1558   0.1675   0.2019   0.2358   0.2445   0.2589   0.3138   0.3543
     0.3947   0.4192   0.4204   0.4328   0.4389   0.4463   0.4500   0.4538
     0.6149   0.6394   0.7051   0.7729   0.7861   0.8239   0.8734   0.8841
     0.9011   0.9213   0.9246   0.9626   1.0462   1.0743   1.0894   1.1037
     1.1052   1.1119   1.1122   1.1214   1.1975   1.2200   1.2278   1.2621
     1.2681   1.2791   1.2923   1.3175   1.3534   1.3666   1.4445   1.4913
     1.5063   1.5370   1.6034   1.6093   1.6256   1.6758   1.6809   1.6824
     1.7257   1.7367   1.7544   1.7879   1.8352   1.9454   1.9566   2.0333
     2.1194   2.1234   2.2507   2.2883   2.2973   2.3628   2.3650   2.4644
     2.4702   2.4994   2.5173   2.5432   2.7510   2.7956   4.9455   5.1233
     5.1524   5.7994   5.9050   6.4924   6.5190   6.6253   6.7902   6.8836
     7.1178   7.1637   7.1742   7.2599   7.2665   7.4224   7.4808   7.8686
     7.9418   7.9863   8.0386   8.0400   8.1383   8.3412   8.3796   8.3982
     8.4619   8.5054   8.5426   8.6834   8.8939   8.9808   9.0492   9.0585
     9.1935   9.2328

[...]

          k = 0.3750-1.0472 0.0000 ( 70750 PWs)   bands (ev):

[...]

          k =-0.5000 0.0000 0.0000 ( 70848 PWs)   bands (ev):

[...]

          k =-0.5000-1.0472 0.0000 ( 70756 PWs)   bands (ev):

   -38.2178 -38.1615 -35.8580 -35.7931 -22.7833 -22.7732 -22.7537 -22.7535
   -22.7441 -22.6313 -22.5283 -22.2611 -18.8798 -18.8247 -18.5388 -18.4832
   -18.4152 -18.3653 -17.2919 -17.2244 -17.1138 -17.0537 -17.0080 -16.9460
   -14.9125 -14.8851 -14.8333 -14.8203 -14.6907 -14.6577 -14.6242 -14.5947
   -14.5892 -14.5684 -14.5473 -14.4611 -14.4394 -14.4276 -14.4129 -14.3993
   -14.3756 -14.3558 -14.1581 -14.1552 -14.1548 -14.1451 -14.0699 -14.0357
   -14.0349 -14.0250 -14.0250 -14.0241 -12.8694 -12.8564  -8.5681  -8.5586
    -8.5174  -8.5081  -8.4042  -8.3286  -8.3271  -8.2432  -8.2336  -8.2196
    -8.2105  -8.1438  -8.1418  -8.1392  -8.1288  -8.1252  -8.0880  -8.0814
    -8.0369  -7.9036  -7.8331  -7.7713  -7.7353  -7.6768  -3.9798  -3.9433
    -3.7517  -3.7189  -3.5888  -3.5257  -3.4853  -3.4000  -3.1615  -3.1606
    -3.1529  -3.1519  -3.1116  -3.0575  -2.5080  -2.4994  -2.4032  -2.3909
    -2.3412  -2.2881  -2.2727  -2.2391  -2.2391  -2.2267  -2.1551  -2.1423
    -2.1352  -2.1044  -2.0754  -2.0567  -1.9986  -1.9190  -1.9071  -1.8967
    -1.8674  -1.8607  -1.6450  -1.6038  -1.5252  -1.4802  -1.3089  -1.2894
    -1.2768  -1.2738  -1.2468  -1.2312  -1.0696  -1.0338  -0.9870  -0.9624
    -0.9581  -0.9343  -0.8840  -0.8618  -0.8444  -0.8440  -0.8337  -0.8248
    -0.7353  -0.7156  -0.6977  -0.6635  -0.6536  -0.5627  -0.4812  -0.4768
    -0.4642  -0.4421  -0.3854  -0.3628  -0.2210  -0.1929   0.0678   0.1038
     0.2760   0.2821   0.3515   0.3595   0.3921   0.4104   0.4138   0.4356
     0.4409   0.4801   0.5658   0.6683   0.6803   0.8842   0.8935   0.9398
     0.9531   0.9726   0.9896   1.0244   1.0293   1.0576   1.0657   1.1057
     1.1148   1.1158   1.1776   1.2041   1.2229   1.2377   1.2510   1.2776
     1.2941   1.3294   1.3439   1.3572   1.3586   1.3855   1.4035   1.4157
     1.4651   1.4833   1.4946   1.6184   1.6793   1.6917   1.7451   1.7586
     1.7652   1.7933   1.8613   1.8908   1.9054   1.9159   1.9673   1.9791
     1.9973   2.0223   2.0486   2.0874   2.0883   2.0985   2.1002   2.1935
     2.2228   2.2630   2.3494   2.3812   2.4357   2.4437   2.4447   2.4530
     2.5945   2.5956   2.6280   2.6476   2.8909   2.9711   3.3583   3.3866
     3.4218   3.4517   3.5163   3.5477   3.6275   3.6476   6.1301   6.6176
     6.6255   6.6378   6.6712   6.8268   6.8908   7.1955   7.4373   7.4973
     7.8828   8.0731   8.1305   8.1354   8.4092   8.8419   8.8446   9.0276
     9.0544   9.0748   9.1104   9.2291   9.2822   9.2855   9.3000   9.3091
     9.3498   9.4316   9.5258   9.5466   9.6434   9.6814   9.6876   9.6927
     9.7050   9.7128

     the Fermi energy is     2.6162 ev

!    total energy              =   -3711.55429229 Ry
     Harris-Foulkes estimate   =   -3711.55429230 Ry
     estimated scf accuracy    <          7.1E-09 Ry

     The total energy is the sum of the following terms:

     one-electron contribution =  -58709.70581408 Ry
     hartree contribution      =   29659.69344647 Ry
     xc contribution           =   -1263.80310166 Ry
     ewald contribution        =   26602.27990797 Ry
     smearing contrib. (-TS)   =      -0.01873099 Ry

     convergence has been achieved in  34 iterations

     negative rho (up, down):  9.213E-02 0.000E+00

     Forces acting on atoms (cartesian axes, Ry/au):

     atom    1 type  4   force =    -0.00000555    0.00000000   -0.00041515
     atom    2 type  4   force =     0.00000555    0.00000000   -0.00041515
     atom    3 type  3   force =    -0.00000890    0.00000000    0.00000643
     atom    4 type  3   force =     0.00000890    0.00000000    0.00000643
     atom    5 type  4   force =    -0.00000520    0.00000000    0.00007035
     atom    6 type  4   force =     0.00000520    0.00000000    0.00007035
     atom    7 type  1   force =     0.00000000    0.00000000   -0.00035310
     atom    8 type  1   force =     0.00000000    0.00000000   -0.00032204
     atom    9 type  3   force =     0.00012434    0.00000000   -0.00027851
     atom   10 type  3   force =    -0.00012434    0.00000000   -0.00027851
     atom   11 type  4   force =     0.00000000    0.00000000    0.00096061
     atom   12 type  4   force =     0.00002562    0.00000000    0.00113099
     atom   13 type  4   force =    -0.00002562    0.00000000    0.00113099
     atom   14 type  4   force =     0.00000000    0.00000000    0.00125355
     atom   15 type  2   force =     0.00000000    0.00000000   -0.00280807
     atom   16 type  5   force =     0.00000000    0.00000000   -0.00417785
     atom   17 type  4   force =     0.00081576    0.00000000    0.00508744
     atom   18 type  4   force =    -0.00081576    0.00000000    0.00508744
     atom   19 type  4   force =     0.00000000    0.00000000    0.00347026
     atom   20 type  4   force =     0.00000000    0.00000000    0.00444634
     atom   21 type  3   force =     0.00048041    0.00000000   -0.00125234
     atom   22 type  3   force =    -0.00048041    0.00000000   -0.00125234
     atom   23 type  1   force =     0.00000000    0.00000000    0.00733044
     atom   24 type  1   force =     0.00000000    0.00000000    0.01352535
     atom   25 type  4   force =     0.00235339    0.00000000   -0.01545812
     atom   26 type  4   force =    -0.00235339    0.00000000   -0.01545812
     atom   27 type  4   force =    -0.00988694    0.00000000    0.02737780
     atom   28 type  4   force =     0.00988694    0.00000000    0.02737780
     atom   29 type  3   force =     0.01017846    0.00000000   -0.01211316
     atom   30 type  3   force =    -0.01017846    0.00000000   -0.01211316
     atom   31 type  4   force =     0.01296652    0.00000000    0.01755469
     atom   32 type  4   force =    -0.01296652    0.00000000    0.01755469
     atom   33 type  1   force =     0.00000000    0.00000000   -0.01535340
     atom   34 type  1   force =     0.00000000    0.00000000   -0.01918539
     atom   35 type  3   force =    -0.00327851    0.00000000   -0.01981818
     atom   36 type  3   force =     0.00327851    0.00000000   -0.01981818
     atom   37 type  4   force =     0.00000000    0.00000000    0.00399883
     atom   38 type  4   force =     0.00000000    0.00000000    0.00121149
     atom   39 type  4   force =     0.00269565    0.00000000    0.00083755
     atom   40 type  4   force =    -0.00269565    0.00000000    0.00083755
     atom   41 type  5   force =     0.00000000    0.00000000    0.00182459
     atom   42 type  2   force =     0.00000000    0.00000000    0.00021320
     atom   43 type  4   force =     0.00000000    0.00000000    0.00014713
     atom   44 type  4   force =     0.00003444    0.00000000   -0.00108426
     atom   45 type  4   force =    -0.00003444    0.00000000   -0.00108426
     atom   46 type  4   force =     0.00000000    0.00000000   -0.00004110
     atom   47 type  3   force =    -0.00001664    0.00000000    0.00027589
     atom   48 type  3   force =     0.00001664    0.00000000    0.00027589
     atom   49 type  1   force =     0.00000000    0.00000000    0.00016259
     atom   50 type  1   force =     0.00000000    0.00000000    0.00020821
     atom   51 type  4   force =    -0.00004606    0.00000000   -0.00067209
     atom   52 type  4   force =     0.00004606    0.00000000   -0.00067209
     atom   53 type  3   force =    -0.00003863    0.00000000    0.00082653
     atom   54 type  3   force =     0.00003863    0.00000000    0.00082653
     atom   55 type  4   force =     0.00002044    0.00000000   -0.00033170
     atom   56 type  4   force =    -0.00002044    0.00000000   -0.00033170

     Total force =     0.073796     Total SCF correction =     0.000472

     Computing stress (Cartesian axis) and pressure

     negative rho (up, down):  9.213E-02 0.000E+00
          total   stress  (Ry/bohr**3)                   (kbar)     P=       -6.34
  -0.00000210   0.00000000   0.00000000           -0.31        0.00        0.00
   0.00000000  -0.00008032   0.00000000            0.00      -11.82        0.00
   0.00000000   0.00000000  -0.00004684            0.00        0.00       -6.89

     General routines

     Parallel routines

   This run was terminated on:   0:25:10  28May2021

   JOB DONE.
[1622175910.167943] [holy7c18103:123149:0]          mpool.c:43   UCX  WARN  object 0x36a9c00 was not returned to mpool ucp_requests
[1622175910.170920] [holy7c18109:11202:0]          mpool.c:43   UCX  WARN  object 0x39c4240 was not returned to mpool ucp_requests
[1622175910.170941] [holy7c18109:11202:0]          mpool.c:43   UCX  WARN  object 0x39c4400 was not returned to mpool ucp_requests
[1622175910.172988] [holy7c18106:249643:0]          mpool.c:43   UCX  WARN  object 0x4195d80 was not returned to mpool ucp_requests
[1622175910.175073] [holy7c18102:58355:0]          mpool.c:43   UCX  WARN  object 0x3fc7540 was not returned to mpool ucp_requests
[1622175910.178089] [holy7c18110:121304:0]          mpool.c:43   UCX  WARN  object 0x3a8df40 was not returned to mpool ucp_requests
[1622175910.187140] [holy7c18108:159541:0]          mpool.c:43   UCX  WARN  object 0x3395a80 was not returned to mpool ucp_requests
[1622175910.173130] [holy7c18109:11200:0]          mpool.c:43   UCX  WARN  object 0x4434240 was not returned to mpool ucp_requests
[1622175910.174803] [holy7c18106:249644:0]          mpool.c:43   UCX  WARN  object 0x3319200 was not returned to mpool ucp_requests
[1622175910.174821] [holy7c18106:249644:0]          mpool.c:43   UCX  WARN  object 0x3319580 was not returned to mpool ucp_requests
[1622175910.186390] [holy7c18106:249642:0]          mpool.c:43   UCX  WARN  object 0x3ac0400 was not returned to mpool ucp_requests
[1622175910.186414] [holy7c18106:249642:0]          mpool.c:43   UCX  WARN  object 0x3ac0780 was not returned to mpool ucp_requests
[1622175910.181912] [holy7c18110:121303:0]          mpool.c:43   UCX  WARN  object 0x3be7e80 was not returned to mpool ucp_requests
[1622175910.178637] [holy7c18104:266995:0]          mpool.c:43   UCX  WARN  object 0x3ab3b40 was not returned to mpool ucp_requests
[1622175910.178664] [holy7c18104:266995:0]          mpool.c:43   UCX  WARN  object 0x3ab4240 was not returned to mpool ucp_requests
[1622175910.189614] [holy7c18108:159539:0]          mpool.c:43   UCX  WARN  object 0x30c6ac0 was not returned to mpool ucp_requests
[1622175910.189644] [holy7c18108:159539:0]          mpool.c:43   UCX  WARN  object 0x30c6e40 was not returned to mpool ucp_requests