     Program PWSCF v.6.5 starts on 28May2021 at 10: 5:42

     R & G space division:  proc/nbgrp/npool/nimage =      32
     Reading input from YCBCO50_212_Y_cleave_2.75_sep.pwi
Warning: card &IONS ignored
Warning: card     ION_DYNAMICS = 'BFGS' ignored
Warning: card / ignored
Warning: card &CELL ignored
Warning: card     CELL_DYNAMICS = 'BFGS' ignored
Warning: card     PRESS_CONV_THR = 5 ignored
Warning: card / ignored

     Current dimensions of program PWSCF are:
     Max number of different atomic species (ntypx) = 10
     Max number of k-points (npk) =  40000
     Max angular momentum in pseudopotentials (lmaxx) =  3

     Message from routine setup:
     using ibrav=0 with symmetry is DISCOURAGED, use correct ibrav instead

     bravais-lattice index     =            0
     lattice parameter (alat)  =      14.8133  a.u.
     unit-cell volume          =    9261.7184 (a.u.)^3
     number of atoms/cell      =           56
     number of atomic types    =            5
     number of electrons       =       456.00
     number of Kohn-Sham states=          274
     kinetic-energy cutoff     =      60.0000  Ry
     charge density cutoff     =     720.0000  Ry
     convergence threshold     =      1.0E-08
     mixing beta               =       0.5000
     number of iterations used =           10  local-TF  mixing
     Exchange-correlation= SLA PW PBE PBE
                           (   1   4   3   4   0   0   0)

     celldm(1)=  14.813271  celldm(2)=   0.000000  celldm(3)=   0.000000
     celldm(4)=   0.000000  celldm(5)=   0.000000  celldm(6)=   0.000000

     crystal axes: (cart. coord. in units of alat)
               a(1) = (   1.000000   0.000000   0.000000 )
               a(2) = (   0.000000   0.477453   0.000000 )
               a(3) = (   0.000000   0.000000   5.967718 )

     reciprocal axes: (cart. coord. in units 2 pi/alat)
               b(1) = (  1.000000  0.000000  0.000000 )
               b(2) = (  0.000000  2.094448  0.000000 )
               b(3) = (  0.000000  0.000000  0.167568 )

     PseudoPot. # 1 for Ba read from file:
     ./pseudo/Ba.pbe-nsp-van.UPF
     MD5 check sum: 2b9c31dd849566dd297d80989662b7a0
     Pseudo is Ultrasoft + core correction, Zval = 10.0
     Generated by new atomic code, or converted to UPF format
     Using radial grid of  907 points,  6 beta functions with:
                l(1) =   0
                l(2) =   0
                l(3) =   1
                l(4) =   1
                l(5) =   2
                l(6) =   2
     Q(r) pseudized with  6 coefficients,  rinner =    1.200   1.200   1.200
                                                       1.200   1.200

     PseudoPot. # 2 for Ca read from file:
     ./pseudo/Ca.pbe-nsp-van.UPF
     MD5 check sum: 6471098428ff4fa451746d08035ff179
     Pseudo is Ultrasoft + core correction, Zval = 10.0
     Generated by new atomic code, or converted to UPF format
     Using radial grid of  845 points,  6 beta functions with:
                l(1) =   0
                l(2) =   0
                l(3) =   1
                l(4) =   1
                l(5) =   2
                l(6) =   2
     Q(r) pseudized with  6 coefficients,  rinner =    1.200   1.200   1.200
                                                       1.200   1.200

     PseudoPot. # 3 for Cu read from file:
     ./pseudo/Cu.pbe-n-van_ak.UPF
     MD5 check sum: 34e3282627ffb533726feb647e090d62
     Pseudo is Ultrasoft + core correction, Zval = 11.0
     Generated by new atomic code, or converted to UPF format
     Using radial grid of  867 points,  6 beta functions with:
                l(1) =   0
                l(2) =   0
                l(3) =   1
                l(4) =   1
                l(5) =   2
                l(6) =   2
     Q(r) pseudized with  8 coefficients,  rinner =    1.400   1.400   1.400
                                                       1.400   1.400

     PseudoPot. # 4 for O  read from file:
     ./pseudo/O.pbe-van_ak.UPF
     MD5 check sum: 783ce7fe4c79b6a4916957118fed0856
     Pseudo is Ultrasoft, Zval =  6.0
     Generated by new atomic code, or converted to UPF format
     Using radial grid of  737 points,  4 beta functions with:
                l(1) =   0
                l(2) =   0
                l(3) =   1
                l(4) =   1
     Q(r) pseudized with  8 coefficients,  rinner =    0.800   0.800   0.800

     PseudoPot. # 5 for Y  read from file:
     ./pseudo/Y.pbe-nsp-van.UPF
     MD5 check sum: 4412fed3ab108fed87a1b7d6a69a4a38
     Pseudo is Ultrasoft + core correction, Zval = 11.0
     Generated by new atomic code, or converted to UPF format
     Using radial grid of  885 points,  6 beta functions with:
                l(1) =   0
                l(2) =   0
                l(3) =   1
                l(4) =   1
                l(5) =   2
                l(6) =   2
     Q(r) pseudized with  6 coefficients,  rinner =    1.200   1.200   1.200
                                                       1.200   1.200

     atomic species   valence    mass     pseudopotential
        Ba            10.00   137.32700     Ba( 1.00)
        Ca            10.00    40.07800     Ca( 1.00)
        Cu            11.00    63.54600     Cu( 1.00)
        O              6.00    15.99900     O ( 1.00)
        Y             11.00    88.90584     Y ( 1.00)

      4 Sym. Ops. (no inversion) found ( 2 have fractional translation)

   Cartesian axes

     site n.     atom                  positions (alat units)
         1           O   tau(   1) = (  -0.0008343   0.2387265  -0.0222443  )
         2           O   tau(   2) = (   0.5008340   0.2387265  -0.0222443  )
         3           Cu  tau(   3) = (   0.5017257   0.0000000   0.0109608  )
         4           Cu  tau(   4) = (  -0.0017260   0.0000000   0.0109608  )
         5           O   tau(   5) = (  -0.0028933   0.0000000   0.2506504  )
         6           O   tau(   6) = (   0.5028929   0.0000000   0.2506504  )
         7           Ba  tau(   7) = (   0.7499995   0.2387265   0.2749435  )
         8           Ba  tau(   8) = (   0.2499998   0.2387265   0.2755214  )
         9           Cu  tau(   9) = (   0.4980963   0.0000000   0.5208446  )
        10           Cu  tau(  10) = (   0.0019033   0.0000000   0.5208446  )
        11           O   tau(  11) = (   0.2499998   0.0000000   0.5341884  )
        12           O   tau(  12) = (   0.5083351   0.2387265   0.5569851  )
        13           O   tau(  13) = (  -0.0083354   0.2387265   0.5569851  )
        14           O   tau(  14) = (   0.7499995   0.0000000   0.5573831  )
        15           Ca  tau(  15) = (   0.2499998   0.2387265   0.7436937  )
        16           Y   tau(  16) = (   0.7499995   0.2387265   0.7469544  )
        17           O   tau(  17) = (  -0.0063798   0.2387265   0.9248530  )
        18           O   tau(  18) = (   0.5063794   0.2387265   0.9248530  )
        19           O   tau(  19) = (   0.7499995   0.0000000   0.9338544  )
        20           O   tau(  20) = (   0.2499998   0.0000000   0.9461329  )
        21           Cu  tau(  21) = (   0.0015717   0.0000000   0.9686860  )
        22           Cu  tau(  22) = (   0.4984280   0.0000000   0.9686860  )
        23           Ba  tau(  23) = (   0.2499998   0.2387265   1.2085224  )
        24           Ba  tau(  24) = (   0.7499995   0.2387265   1.2233294  )
        25           O   tau(  25) = (   0.0063772   0.0000000   1.2547537  )
        26           O   tau(  26) = (   0.4936224   0.0000000   1.2547537  )
        27           O   tau(  27) = (   0.5384045   0.2387265   1.4952521  )
        28           O   tau(  28) = (  -0.0384049   0.2387265   1.4952521  )
        29           Cu  tau(  29) = (   0.5006120   0.0000000   1.4952546  )
        30           Cu  tau(  30) = (  -0.0006123   0.0000000   1.4952546  )
        31           O   tau(  31) = (   0.4936212   0.0000000   1.7357531  )
        32           O   tau(  32) = (   0.0063785   0.0000000   1.7357531  )
        33           Ba  tau(  33) = (   0.7499995   0.2387265   1.7671824  )
        34           Ba  tau(  34) = (   0.2499998   0.2387265   1.7819920  )
        35           Cu  tau(  35) = (   0.4984280   0.0000000   2.0218232  )
        36           Cu  tau(  36) = (   0.0015717   0.0000000   2.0218232  )
        37           O   tau(  37) = (   0.2499998   0.0000000   2.0443814  )
        38           O   tau(  38) = (   0.7499995   0.0000000   2.0566511  )
        39           O   tau(  39) = (   0.5063781   0.2387265   2.0656562  )
        40           O   tau(  40) = (  -0.0063785   0.2387265   2.0656562  )
        41           Y   tau(  41) = (   0.7499995   0.2387265   2.2435498  )
        42           Ca  tau(  42) = (   0.2499998   0.2387265   2.2468194  )
        43           O   tau(  43) = (   0.7499995   0.0000000   2.7839342  )
        44           O   tau(  44) = (  -0.0083354   0.2387265   2.7843360  )
        45           O   tau(  45) = (   0.5083351   0.2387265   2.7843360  )
        46           O   tau(  46) = (   0.2499998   0.0000000   2.8071340  )
        47           Cu  tau(  47) = (   0.0019059   0.0000000   2.8204676  )
        48           Cu  tau(  48) = (   0.4980938   0.0000000   2.8204676  )
        49           Ba  tau(  49) = (   0.2499998   0.2387265   3.0658073  )
        50           Ba  tau(  50) = (   0.7499995   0.2387265   3.0663495  )
        51           O   tau(  51) = (  -0.0028895   0.0000000   3.0906567  )
        52           O   tau(  52) = (   0.5028891   0.0000000   3.0906567  )
        53           Cu  tau(  53) = (   0.5017844   0.0000000   3.3303412  )
        54           Cu  tau(  54) = (  -0.0017847   0.0000000   3.3303412  )
        55           O   tau(  55) = (   0.5008990   0.2387265   3.3635476  )
        56           O   tau(  56) = (  -0.0008994   0.2387265   3.3635476  )

     number of k points=    25  Gaussian smearing, width (Ry)=  0.0100
                       cart. coord. in units 2pi/alat
        k(    1) = (   0.0000000   0.0000000   0.0000000), wk =   0.0312500
        k(    2) = (   0.0000000   0.2618060   0.0000000), wk =   0.0625000
        k(    3) = (   0.0000000   0.5236121   0.0000000), wk =   0.0625000
        k(    4) = (   0.0000000   0.7854181   0.0000000), wk =   0.0625000
        k(    5) = (   0.0000000  -1.0472241   0.0000000), wk =   0.0312500
        k(    6) = (   0.1250000   0.0000000   0.0000000), wk =   0.0625000
        k(    7) = (   0.1250000   0.2618060   0.0000000), wk =   0.1250000
        k(    8) = (   0.1250000   0.5236121   0.0000000), wk =   0.1250000
        k(    9) = (   0.1250000   0.7854181   0.0000000), wk =   0.1250000
        k(   10) = (   0.1250000  -1.0472241   0.0000000), wk =   0.0625000
        k(   11) = (   0.2500000   0.0000000   0.0000000), wk =   0.0625000
        k(   12) = (   0.2500000   0.2618060   0.0000000), wk =   0.1250000
        k(   13) = (   0.2500000   0.5236121   0.0000000), wk =   0.1250000
        k(   14) = (   0.2500000   0.7854181   0.0000000), wk =   0.1250000
        k(   15) = (   0.2500000  -1.0472241   0.0000000), wk =   0.0625000
        k(   16) = (   0.3750000   0.0000000   0.0000000), wk =   0.0625000
        k(   17) = (   0.3750000   0.2618060   0.0000000), wk =   0.1250000
        k(   18) = (   0.3750000   0.5236121   0.0000000), wk =   0.1250000
        k(   19) = (   0.3750000   0.7854181   0.0000000), wk =   0.1250000
        k(   20) = (   0.3750000  -1.0472241   0.0000000), wk =   0.0625000
        k(   21) = (  -0.5000000   0.0000000   0.0000000), wk =   0.0312500
        k(   22) = (  -0.5000000   0.2618060   0.0000000), wk =   0.0625000
        k(   23) = (  -0.5000000   0.5236121   0.0000000), wk =   0.0625000
        k(   24) = (  -0.5000000   0.7854181   0.0000000), wk =   0.0625000
        k(   25) = (  -0.5000000  -1.0472241   0.0000000), wk =   0.0312500

     Initial potential from superposition of free atoms

     starting charge  455.69457, renormalised to  456.00000

     negative rho (up, down):  9.340E-02 0.000E+00
     Starting wfcs are  396 randomized atomic wfcs

     Self-consistent Calculation

     iteration #  1     ecut=    60.00 Ry     beta= 0.50
     Davidson diagonalization with overlap
     ethr =  1.00E-02,  avg # of iterations =  2.0

     negative rho (up, down):  8.579E-02 0.000E+00

     total energy              =   -3708.32491647 Ry
     Harris-Foulkes estimate   =   -3716.35193839 Ry
     estimated scf accuracy    <      31.08183363 Ry

[...]

     iteration # 16     ecut=    60.00 Ry     beta= 0.50
     Davidson diagonalization with overlap
     c_bands:  1 eigenvalues not converged
     c_bands:  1 eigenvalues not converged
     ethr =  1.81E-05,  avg # of iterations =  5.0

[...]

     iteration # 27     ecut=    60.00 Ry     beta= 0.50
     Davidson diagonalization with overlap
     c_bands:  1 eigenvalues not converged
     ethr =  1.25E-08,  avg # of iterations =  2.4

[...]

     total energy              =   -3711.10766294 Ry
     Harris-Foulkes estimate   =   -3711.10766295 Ry
     estimated scf accuracy    <       0.00000003 Ry

     iteration # 38     ecut=    60.00 Ry     beta= 0.50
     Davidson diagonalization with overlap
     ethr =  5.45E-12,  avg # of iterations =  1.0

[...]

     End of self-consistent calculation

          k = 0.0000 0.0000 0.0000 ( 72781 PWs)   bands (ev):

   -41.3527 -38.9848 -38.2079 -35.8351 -23.1733 -23.0281 -22.9962 -22.8679
   -22.7625 -22.6894 -22.6089 -22.5610 -21.4511 -21.3886 -21.2356 -20.0627
   -20.0267 -19.9484 -18.6830 -18.5788 -18.2111 -17.1831 -17.0478 -16.8648
   -16.2762 -15.7968 -15.5936 -15.5549 -15.1687 -15.1229 -15.0544 -15.0067
   -14.9609 -14.8403 -14.7846 -14.7385 -14.6617 -14.6338 -14.5787 -14.4983
   -14.3000 -14.2829 -14.2365 -14.1737 -14.1679 -14.1612 -14.1063 -14.0938
   -14.0701 -13.8969 -13.8960 -13.7975 -13.7507 -13.4383  -8.5098  -8.4009
    -8.2342  -8.1474  -8.1258  -8.0457  -8.0397  -8.0241  -7.9614  -7.9360
    -7.9075  -7.8270  -7.8181  -7.8112  -7.7710  -7.7696  -7.7545  -7.6695
    -7.6377  -7.6194  -7.5690  -7.5360  -7.4145  -7.3766  -3.6353  -3.1645
    -2.9964  -2.9952  -2.8407  -2.7099  -2.5816  -2.4279  -2.3531  -2.3506
    -2.3151  -2.2654  -2.2380  -2.2224  -2.2029  -2.0667  -2.0660  -2.0182
    -1.9809  -1.8451  -1.8120  -1.8030  -1.7113  -1.7079  -1.6901  -1.6282
    -1.5672  -1.5103  -1.3536  -1.3443  -1.3388  -1.3132  -1.2854  -1.2060
    -1.1109  -1.1006  -1.0992  -1.0933  -1.0863  -1.0632  -1.0579  -1.0562
    -1.0522  -1.0191  -0.9576  -0.9424  -0.8738  -0.8152  -0.7890  -0.7854
    -0.7371  -0.6955  -0.5033  -0.4962  -0.4415  -0.4343  -0.4083  -0.3678
    -0.3638  -0.3412  -0.3371  -0.3152  -0.3108  -0.2240  -0.2132  -0.1952
    -0.1792  -0.1571  -0.1492  -0.1344  -0.1276  -0.1221  -0.1093  -0.0749
    -0.0710  -0.0701  -0.0025  -0.0022   0.0881   0.0939   0.1181   0.1205
     0.1295   0.1332   0.1592   0.1920   0.2281   0.2333   0.2348   0.2363
     0.3020   0.3226   0.3456   0.3827   0.3945   0.4048   0.4181   0.4217
     0.4275   0.4665   0.5367   0.5860   0.5873   0.6300   0.7083   0.8013
     0.8618   0.8796   0.8982   0.9145   0.9385   0.9648   1.0540   1.0771
     1.0816   1.0901   1.0939   1.1030   1.1102   1.1860   1.2149   1.2211
     1.2624   1.2771   1.2951   1.3011   1.4533   1.4622   1.5076   1.5104
     1.5154   1.5891   1.6117   1.6605   1.6637   1.6653   1.7068   1.7333
     1.7541   1.7985   1.8808   1.8964   1.9105   1.9369   1.9881   2.0888
     2.1165   2.1286   2.1331   2.1479   2.2155   2.2451   2.3058   2.3434
     2.3517   2.4282   2.4564   2.5106   2.5623   2.7469   2.8739   3.3876
     4.1295   4.2011   5.0989   5.2203   5.2458   5.2772   5.5035   5.5331
     5.9289   6.3437   6.4645   6.5130   6.5823   6.6998   6.7699   6.7988
     7.0824   7.1522   7.1785   7.2451   7.2817   7.2954   7.2960   7.4313
     7.6487   7.6545   7.9412   7.9913   8.0190   8.1805   8.2352   8.3611
     8.3751   8.4914

[...]

          k = 0.3750-1.0472 0.0000 ( 72674 PWs)   bands (ev):

[...]

          k =-0.5000 0.0000 0.0000 ( 72796 PWs)   bands (ev):

[...]

          k =-0.5000-1.0472 0.0000 ( 72660 PWs)   bands (ev):

   -41.3385 -38.9755 -38.1894 -35.8235 -22.9903 -22.9137 -22.7933 -22.7637
   -22.5802 -22.4934 -22.4751 -22.4651 -21.5651 -21.3581 -21.3518 -20.1309
   -20.0195 -20.0040 -18.8514 -18.5087 -18.3881 -17.2561 -17.0792 -16.9750
   -15.7782 -15.5906 -15.5622 -15.2575 -14.9070 -14.8415 -14.7229 -14.7220
   -14.6825 -14.6079 -14.5609 -14.5053 -14.4864 -14.4382 -14.4179 -14.4016
   -14.3158 -14.2973 -14.2306 -14.1965 -14.0488 -14.0481 -14.0381 -14.0271
   -14.0119 -13.9955 -13.9947 -13.9894 -13.8760 -13.7530  -8.7565  -8.6446
    -8.5786  -8.5285  -8.5279  -8.4224  -8.3470  -8.3309  -8.2920  -8.2765
    -8.2566  -8.2534  -8.2503  -8.2300  -8.1512  -8.1487  -8.0464  -8.0023
    -7.9600  -7.9594  -7.8418  -7.8255  -7.7901  -7.7416  -4.4669  -4.1860
    -3.9637  -3.7437  -3.5643  -3.5531  -3.4435  -3.3986  -3.2483  -3.2200
    -3.1758  -3.1751  -3.1027  -3.0826  -2.9135  -2.8204  -2.7511  -2.7056
    -2.5185  -2.4095  -2.3879  -2.3616  -2.3314  -2.2771  -2.2666  -2.2331
    -2.1916  -2.1473  -2.1108  -2.0775  -1.9923  -1.9757  -1.9334  -1.8931
    -1.8640  -1.7114  -1.7015  -1.6534  -1.6449  -1.6049  -1.5101  -1.5081
    -1.5044  -1.3090  -1.2866  -1.2645  -1.2491  -1.2289  -1.2266  -1.2087
    -1.1084  -1.0374  -0.9918  -0.9911  -0.9574  -0.9508  -0.9484  -0.8824
    -0.8693  -0.8527  -0.8394  -0.7783  -0.7714  -0.7685  -0.6845  -0.6341
    -0.5980  -0.5971  -0.4803  -0.4571  -0.3762  -0.3029  -0.2576  -0.0974
    -0.0875   0.0643   0.0835   0.1790   0.1983   0.2139   0.3527   0.3615
     0.3668   0.4124   0.4314   0.5812   0.5853   0.7479   0.7728   0.7774
     0.8113   0.8195   0.8355   0.9177   0.9536   1.0025   1.0106   1.0485
     1.0591   1.0851   1.1154   1.1773   1.1903   1.2145   1.2174   1.2333
     1.2454   1.2523   1.2646   1.2837   1.2971   1.3265   1.3293   1.4042
     1.4622   1.5150   1.5341   1.5598   1.5965   1.6453   1.6526   1.6938
     1.7114   1.7166   1.7402   1.7691   1.8004   1.8236   1.8308   1.8768
     1.8982   1.9473   2.0039   2.0508   2.0586   2.0737   2.0774   2.1240
     2.1294   2.2833   2.4216   2.4305   2.4585   2.4696   2.5242   2.5919
     2.6067   2.7061   2.7444   2.7644   3.0148   3.0239   3.1893   3.3630
     3.4458   3.5056   3.5455   3.6402   3.7696   3.8633   3.8960   4.0890
     4.6765   4.8253   4.9725   5.1439   5.3182   5.8744   6.2051   6.4884
     6.6052   6.6520   6.7586   6.8286   6.8352   6.8691   6.9527   7.4882
     7.6488   7.7927   7.9943   8.0135   8.0844   8.1268   8.6788   8.8078
     8.8226   8.9882   9.0952   9.2766   9.3154   9.3415   9.3638   9.4094
     9.4336   9.4516

     the Fermi energy is     2.6019 ev

!    total energy              =   -3711.10766293 Ry
     Harris-Foulkes estimate   =   -3711.10766294 Ry
     estimated scf accuracy    <          6.4E-09 Ry

     The total energy is the sum of the following terms:

     one-electron contribution =  -60422.09080051 Ry
     hartree contribution      =   30512.34293563 Ry
     xc contribution           =   -1263.31315920 Ry
     ewald contribution        =   27461.96711588 Ry
     smearing contrib. (-TS)   =      -0.01375473 Ry

     convergence has been achieved in  38 iterations

     negative rho (up, down):  9.113E-02 0.000E+00

     Forces acting on atoms (cartesian axes, Ry/au):

     atom    1 type  4   force =    -0.00000652    0.00000000   -0.00012719
     atom    2 type  4   force =     0.00000652    0.00000000   -0.00012719
     atom    3 type  3   force =    -0.00001661    0.00000000   -0.00008493
     atom    4 type  3   force =     0.00001661    0.00000000   -0.00008493
     atom    5 type  4   force =    -0.00000250    0.00000000   -0.00007136
     atom    6 type  4   force =     0.00000250    0.00000000   -0.00007136
     atom    7 type  1   force =     0.00000000    0.00000000   -0.00011534
     atom    8 type  1   force =     0.00000000    0.00000000   -0.00010249
     atom    9 type  3   force =     0.00002326    0.00000000   -0.00002616
     atom   10 type  3   force =    -0.00002326    0.00000000   -0.00002616
     atom   11 type  4   force =     0.00000000    0.00000000    0.00013253
     atom   12 type  4   force =    -0.00000351    0.00000000    0.00005887
     atom   13 type  4   force =     0.00000351    0.00000000    0.00005887
     atom   14 type  4   force =     0.00000000    0.00000000    0.00018240
     atom   15 type  2   force =     0.00000000    0.00000000   -0.00051003
     atom   16 type  5   force =     0.00000000    0.00000000   -0.00077163
     atom   17 type  4   force =     0.00009413    0.00000000    0.00082834
     atom   18 type  4   force =    -0.00009413    0.00000000    0.00082834
     atom   19 type  4   force =     0.00000000    0.00000000    0.00091916
     atom   20 type  4   force =     0.00000000    0.00000000    0.00117425
     atom   21 type  3   force =    -0.00004216    0.00000000   -0.00118457
     atom   22 type  3   force =     0.00004216    0.00000000   -0.00118457
     atom   23 type  1   force =     0.00000000    0.00000000   -0.00216966
     atom   24 type  1   force =     0.00000000    0.00000000   -0.00227665
     atom   25 type  4   force =    -0.00024194    0.00000000    0.00400300
     atom   26 type  4   force =     0.00024194    0.00000000    0.00400300
     atom   27 type  4   force =    -0.00044282    0.00000000    0.00470794
     atom   28 type  4   force =     0.00044282    0.00000000    0.00470794
     atom   29 type  3   force =     0.00179972    0.00000000   -0.00914821
     atom   30 type  3   force =    -0.00179972    0.00000000   -0.00914821
     atom   31 type  4   force =    -0.00060786    0.00000000    0.01380351
     atom   32 type  4   force =     0.00060786    0.00000000    0.01380351
     atom   33 type  1   force =     0.00000000    0.00000000   -0.02406534
     atom   34 type  1   force =     0.00000000    0.00000000   -0.01837229
     atom   35 type  3   force =    -0.00023845    0.00000000    0.00839026
     atom   36 type  3   force =     0.00023845    0.00000000    0.00839026
     atom   37 type  4   force =     0.00000000    0.00000000    0.05591988
     atom   38 type  4   force =     0.00000000    0.00000000    0.06980016
     atom   39 type  4   force =     0.02071235    0.00000000    0.06722252
     atom   40 type  4   force =    -0.02071235    0.00000000    0.06722252
     atom   41 type  5   force =     0.00000000    0.00000000   -0.13512421
     atom   42 type  2   force =     0.00000000    0.00000000   -0.07795987
     atom   43 type  4   force =     0.00000000    0.00000000    0.01778538
     atom   44 type  4   force =    -0.00177140    0.00000000    0.00792258
     atom   45 type  4   force =     0.00177140    0.00000000    0.00792258
     atom   46 type  4   force =     0.00000000    0.00000000    0.01700200
     atom   47 type  3   force =    -0.00095653    0.00000000   -0.01793658
     atom   48 type  3   force =     0.00095653    0.00000000   -0.01793658
     atom   49 type  1   force =     0.00000000    0.00000000   -0.02356401
     atom   50 type  1   force =     0.00000000    0.00000000   -0.02915264
     atom   51 type  4   force =     0.00121662    0.00000000   -0.00323995
     atom   52 type  4   force =    -0.00121662    0.00000000   -0.00323995
     atom   53 type  3   force =    -0.00025377    0.00000000    0.00078595
     atom   54 type  3   force =     0.00025377    0.00000000    0.00078595
     atom   55 type  4   force =     0.00009773    0.00000000   -0.00026982
     atom   56 type  4   force =    -0.00009773    0.00000000   -0.00026982

     Total force =     0.216221     Total SCF correction =     0.000410

     Computing stress (Cartesian axis) and pressure

     negative rho (up, down):  9.113E-02 0.000E+00
          total   stress  (Ry/bohr**3)                   (kbar)     P=       -8.03
  -0.00002465   0.00000000   0.00000000           -3.63        0.00        0.00
   0.00000000  -0.00000654   0.00000000            0.00       -0.96        0.00
   0.00000000   0.00000000  -0.00013265            0.00        0.00      -19.51

     General routines

     Parallel routines

   This run was terminated on:  10:42:12  28May2021

   JOB DONE.
[1622212932.445589] [holy7c06205:206630:0]          mpool.c:43   UCX  WARN  object 0x3d35cc0 was not returned to mpool ucp_requests
[1622212932.460168] [holy7c06206:174950:0]          mpool.c:43   UCX  WARN  object 0x2b5d780 was not returned to mpool ucp_requests
[1622212932.447248] [holy7c06205:206626:0]          mpool.c:43   UCX  WARN  object 0x3680300 was not returned to mpool ucp_requests
[1622212932.444878] [holy7c06205:206628:0]          mpool.c:43   UCX  WARN  object 0x3012600 was not returned to mpool ucp_requests
[1622212932.444900] [holy7c06205:206628:0]          mpool.c:43   UCX  WARN  object 0x3012d00 was not returned to mpool ucp_requests
[1622212932.461542] [holy7c06206:174954:0]          mpool.c:43   UCX  WARN  object 0x37514c0 was not returned to mpool ucp_requests
[1622212932.460203] [holy7c06206:174952:0]          mpool.c:43   UCX  WARN  object 0x43b2d80 was not returned to mpool ucp_requests
[1622212932.460227] [holy7c06206:174952:0]          mpool.c:43   UCX  WARN  object 0x43b32c0 was not returned to mpool ucp_requests
[1622212932.461984] [holy7c06206:174955:0]          mpool.c:43   UCX  WARN  object 0x3b57f40 was not returned to mpool ucp_requests
[1622212932.465546] [holy7c06202:167661:0]          mpool.c:43   UCX  WARN  object 0x3304480 was not returned to mpool ucp_requests
[1622212932.465626] [holy7c06202:167665:0]          mpool.c:43   UCX  WARN  object 0x479fc00 was not returned to mpool ucp_requests
[1622212932.463840] [holy7c06202:167666:0]          mpool.c:43   UCX  WARN  object 0x4569940 was not returned to mpool ucp_requests
[1622212932.463908] [holy7c06202:167660:0]          mpool.c:43   UCX  WARN  object 0x29cfd00 was not returned to mpool ucp_requests
[1622212932.464782] [holy7c06202:167662:0]          mpool.c:43   UCX  WARN  object 0x3f06840 was not returned to mpool ucp_requests
[1622212932.464807] [holy7c06202:167662:0]          mpool.c:43   UCX  WARN  object 0x3f06d80 was not returned to mpool ucp_requests
[1622212932.464017] [holy7c06202:167667:0]          mpool.c:43   UCX  WARN  object 0x3a7f540 was not returned to mpool ucp_requests
[1622212932.464041] [holy7c06202:167667:0]          mpool.c:43   UCX  WARN  object 0x3a7fa80 was not returned to mpool ucp_requests