     Program PWSCF v.6.5 starts on 28May2021 at  0: 0:37

     R & G space division:  proc/nbgrp/npool/nimage =      32
     Reading input from YCBCO50_212_Y_cleave_1.5_sep.pwi
Warning: card &IONS ignored
Warning: card     ION_DYNAMICS = 'BFGS' ignored
Warning: card / ignored
Warning: card &CELL ignored
Warning: card     CELL_DYNAMICS = 'BFGS' ignored
Warning: card     PRESS_CONV_THR = 5 ignored
Warning: card / ignored

     Current dimensions of program PWSCF are:
     Max number of different atomic species (ntypx) = 10
     Max number of k-points (npk) =  40000
     Max angular momentum in pseudopotentials (lmaxx) =  3

     Message from routine setup:
     using ibrav=0 with symmetry is DISCOURAGED, use correct ibrav instead

     bravais-lattice index     =            0
     lattice parameter (alat)  =      14.8133  a.u.
     unit-cell volume          =    9014.2378 (a.u.)^3
     number of atoms/cell      =           56
     number of atomic types    =            5
     number of electrons       =       456.00
     number of Kohn-Sham states=          274
     kinetic-energy cutoff     =      60.0000  Ry
     charge density cutoff     =     720.0000  Ry
     convergence threshold     =      1.0E-08
     mixing beta               =       0.5000
     number of iterations used =           10  local-TF  mixing
     Exchange-correlation= SLA PW PBE PBE
                           (   1   4   3   4   0   0   0)

     celldm(1)=  14.813271  celldm(2)=   0.000000  celldm(3)=   0.000000
     celldm(4)=   0.000000  celldm(5)=   0.000000  celldm(6)=   0.000000

     crystal axes: (cart. coord. in units of alat)
               a(1) = (   1.000000   0.000000   0.000000 )
               a(2) = (   0.000000   0.477453   0.000000 )
               a(3) = (   0.000000   0.000000   5.808256 )

     reciprocal axes: (cart. coord. in units 2 pi/alat)
               b(1) = (  1.000000  0.000000  0.000000 )
               b(2) = (  0.000000  2.094448  0.000000 )
               b(3) = (  0.000000  0.000000  0.172169 )

     PseudoPot. # 1 for Ba read from file:
     ./pseudo/Ba.pbe-nsp-van.UPF
     MD5 check sum: 2b9c31dd849566dd297d80989662b7a0
     Pseudo is Ultrasoft + core correction, Zval = 10.0
     Generated by new atomic code, or converted to UPF format
     Using radial grid of  907 points,  6 beta functions with:
                l(1) =   0
                l(2) =   0
                l(3) =   1
                l(4) =   1
                l(5) =   2
                l(6) =   2
     Q(r) pseudized with  6 coefficients,  rinner =    1.200   1.200   1.200
                                                       1.200   1.200

     PseudoPot. # 2 for Ca read from file:
     ./pseudo/Ca.pbe-nsp-van.UPF
     MD5 check sum: 6471098428ff4fa451746d08035ff179
     Pseudo is Ultrasoft + core correction, Zval = 10.0
     Generated by new atomic code, or converted to UPF format
     Using radial grid of  845 points,  6 beta functions with:
                l(1) =   0
                l(2) =   0
                l(3) =   1
                l(4) =   1
                l(5) =   2
                l(6) =   2
     Q(r) pseudized with  6 coefficients,  rinner =    1.200   1.200   1.200
                                                       1.200   1.200

     PseudoPot. # 3 for Cu read from file:
     ./pseudo/Cu.pbe-n-van_ak.UPF
     MD5 check sum: 34e3282627ffb533726feb647e090d62
     Pseudo is Ultrasoft + core correction, Zval = 11.0
     Generated by new atomic code, or converted to UPF format
     Using radial grid of  867 points,  6 beta functions with:
                l(1) =   0
                l(2) =   0
                l(3) =   1
                l(4) =   1
                l(5) =   2
                l(6) =   2
     Q(r) pseudized with  8 coefficients,  rinner =    1.400   1.400   1.400
                                                       1.400   1.400

     PseudoPot. # 4 for O  read from file:
     ./pseudo/O.pbe-van_ak.UPF
     MD5 check sum: 783ce7fe4c79b6a4916957118fed0856
     Pseudo is Ultrasoft, Zval =  6.0
     Generated by new atomic code, or converted to UPF format
     Using radial grid of  737 points,  4 beta functions with:
                l(1) =   0
                l(2) =   0
                l(3) =   1
                l(4) =   1
     Q(r) pseudized with  8 coefficients,  rinner =    0.800   0.800   0.800

     PseudoPot. # 5 for Y  read from file:
     ./pseudo/Y.pbe-nsp-van.UPF
     MD5 check sum: 4412fed3ab108fed87a1b7d6a69a4a38
     Pseudo is Ultrasoft + core correction, Zval = 11.0
     Generated by new atomic code, or converted to UPF format
     Using radial grid of  885 points,  6 beta functions with:
                l(1) =   0
                l(2) =   0
                l(3) =   1
                l(4) =   1
                l(5) =   2
                l(6) =   2
     Q(r) pseudized with  6 coefficients,  rinner =    1.200   1.200   1.200
                                                       1.200   1.200

     atomic species   valence    mass     pseudopotential
        Ba            10.00   137.32700     Ba( 1.00)
        Ca            10.00    40.07800     Ca( 1.00)
        Cu            11.00    63.54600     Cu( 1.00)
        O              6.00    15.99900     O ( 1.00)
        Y             11.00    88.90584     Y ( 1.00)

      4 Sym. Ops. (no inversion) found ( 2 have fractional translation)

   Cartesian axes

     site n.     atom                  positions (alat units)
         1           O   tau(   1) = (  -0.0008343   0.2387265  -0.0222443  )
         2           O   tau(   2) = (   0.5008340   0.2387265  -0.0222443  )
         3           Cu  tau(   3) = (   0.5017257   0.0000000   0.0109608  )
         4           Cu  tau(   4) = (  -0.0017260   0.0000000   0.0109608  )
         5           O   tau(   5) = (  -0.0028933   0.0000000   0.2506504  )
         6           O   tau(   6) = (   0.5028929   0.0000000   0.2506504  )
         7           Ba  tau(   7) = (   0.7499995   0.2387265   0.2749435  )
         8           Ba  tau(   8) = (   0.2499998   0.2387265   0.2755214  )
         9           Cu  tau(   9) = (   0.4980963   0.0000000   0.5208446  )
        10           Cu  tau(  10) = (   0.0019033   0.0000000   0.5208446  )
        11           O   tau(  11) = (   0.2499998   0.0000000   0.5341884  )
        12           O   tau(  12) = (   0.5083351   0.2387265   0.5569851  )
        13           O   tau(  13) = (  -0.0083354   0.2387265   0.5569851  )
        14           O   tau(  14) = (   0.7499995   0.0000000   0.5573831  )
        15           Ca  tau(  15) = (   0.2499998   0.2387265   0.7436937  )
        16           Y   tau(  16) = (   0.7499995   0.2387265   0.7469544  )
        17           O   tau(  17) = (  -0.0063798   0.2387265   0.9248530  )
        18           O   tau(  18) = (   0.5063794   0.2387265   0.9248530  )
        19           O   tau(  19) = (   0.7499995   0.0000000   0.9338544  )
        20           O   tau(  20) = (   0.2499998   0.0000000   0.9461329  )
        21           Cu  tau(  21) = (   0.0015717   0.0000000   0.9686860  )
        22           Cu  tau(  22) = (   0.4984280   0.0000000   0.9686860  )
        23           Ba  tau(  23) = (   0.2499998   0.2387265   1.2085224  )
        24           Ba  tau(  24) = (   0.7499995   0.2387265   1.2233294  )
        25           O   tau(  25) = (   0.0063772   0.0000000   1.2547537  )
        26           O   tau(  26) = (   0.4936224   0.0000000   1.2547537  )
        27           O   tau(  27) = (   0.5384045   0.2387265   1.4952521  )
        28           O   tau(  28) = (  -0.0384049   0.2387265   1.4952521  )
        29           Cu  tau(  29) = (   0.5006120   0.0000000   1.4952546  )
        30           Cu  tau(  30) = (  -0.0006123   0.0000000   1.4952546  )
        31           O   tau(  31) = (   0.4936212   0.0000000   1.7357531  )
        32           O   tau(  32) = (   0.0063785   0.0000000   1.7357531  )
        33           Ba  tau(  33) = (   0.7499995   0.2387265   1.7671824  )
        34           Ba  tau(  34) = (   0.2499998   0.2387265   1.7819920  )
        35           Cu  tau(  35) = (   0.4984280   0.0000000   2.0218232  )
        36           Cu  tau(  36) = (   0.0015717   0.0000000   2.0218232  )
        37           O   tau(  37) = (   0.2499998   0.0000000   2.0443814  )
        38           O   tau(  38) = (   0.7499995   0.0000000   2.0566511  )
        39           O   tau(  39) = (   0.5063781   0.2387265   2.0656562  )
        40           O   tau(  40) = (  -0.0063785   0.2387265   2.0656562  )
        41           Y   tau(  41) = (   0.7499995   0.2387265   2.2435498  )
        42           Ca  tau(  42) = (   0.2499998   0.2387265   2.2468194  )
        43           O   tau(  43) = (   0.7499995   0.0000000   2.6244719  )
        44           O   tau(  44) = (  -0.0083354   0.2387265   2.6248738  )
        45           O   tau(  45) = (   0.5083351   0.2387265   2.6248738  )
        46           O   tau(  46) = (   0.2499998   0.0000000   2.6476718  )
        47           Cu  tau(  47) = (   0.0019059   0.0000000   2.6610054  )
        48           Cu  tau(  48) = (   0.4980938   0.0000000   2.6610054  )
        49           Ba  tau(  49) = (   0.2499998   0.2387265   2.9063451  )
        50           Ba  tau(  50) = (   0.7499995   0.2387265   2.9068873  )
        51           O   tau(  51) = (  -0.0028895   0.0000000   2.9311944  )
        52           O   tau(  52) = (   0.5028891   0.0000000   2.9311944  )
        53           Cu  tau(  53) = (   0.5017844   0.0000000   3.1708789  )
        54           Cu  tau(  54) = (  -0.0017847   0.0000000   3.1708789  )
        55           O   tau(  55) = (   0.5008990   0.2387265   3.2040854  )
        56           O   tau(  56) = (  -0.0008994   0.2387265   3.2040854  )

     number of k points=    25  Gaussian smearing, width (Ry)=  0.0100
                       cart. coord. in units 2pi/alat
        k(    1) = (   0.0000000   0.0000000   0.0000000), wk =   0.0312500
        k(    2) = (   0.0000000   0.2618060   0.0000000), wk =   0.0625000
        k(    3) = (   0.0000000   0.5236121   0.0000000), wk =   0.0625000
        k(    4) = (   0.0000000   0.7854181   0.0000000), wk =   0.0625000
        k(    5) = (   0.0000000  -1.0472241   0.0000000), wk =   0.0312500
        k(    6) = (   0.1250000   0.0000000   0.0000000), wk =   0.0625000
        k(    7) = (   0.1250000   0.2618060   0.0000000), wk =   0.1250000
        k(    8) = (   0.1250000   0.5236121   0.0000000), wk =   0.1250000
        k(    9) = (   0.1250000   0.7854181   0.0000000), wk =   0.1250000
        k(   10) = (   0.1250000  -1.0472241   0.0000000), wk =   0.0625000
        k(   11) = (   0.2500000   0.0000000   0.0000000), wk =   0.0625000
        k(   12) = (   0.2500000   0.2618060   0.0000000), wk =   0.1250000
        k(   13) = (   0.2500000   0.5236121   0.0000000), wk =   0.1250000
        k(   14) = (   0.2500000   0.7854181   0.0000000), wk =   0.1250000
        k(   15) = (   0.2500000  -1.0472241   0.0000000), wk =   0.0625000
        k(   16) = (   0.3750000   0.0000000   0.0000000), wk =   0.0625000
        k(   17) = (   0.3750000   0.2618060   0.0000000), wk =   0.1250000
        k(   18) = (   0.3750000   0.5236121   0.0000000), wk =   0.1250000
        k(   19) = (   0.3750000   0.7854181   0.0000000), wk =   0.1250000
        k(   20) = (   0.3750000  -1.0472241   0.0000000), wk =   0.0625000
        k(   21) = (  -0.5000000   0.0000000   0.0000000), wk =   0.0312500
        k(   22) = (  -0.5000000   0.2618060   0.0000000), wk =   0.0625000
        k(   23) = (  -0.5000000   0.5236121   0.0000000), wk =   0.0625000
        k(   24) = (  -0.5000000   0.7854181   0.0000000), wk =   0.0625000
        k(   25) = (  -0.5000000  -1.0472241   0.0000000), wk =   0.0312500

     Initial potential from superposition of free atoms

     starting charge  455.69457, renormalised to  456.00000

     negative rho (up, down):  9.356E-02 0.000E+00
     Starting wfcs are  396 randomized atomic wfcs

     Self-consistent Calculation

     iteration #  1     ecut=    60.00 Ry     beta= 0.50
     Davidson diagonalization with overlap
     ethr =  1.00E-02,  avg # of iterations =  2.0

     negative rho (up, down):  8.591E-02 0.000E+00

     total energy              =   -3708.34894860 Ry
     Harris-Foulkes estimate   =   -3716.31761547 Ry
     estimated scf accuracy    <      30.73031729 Ry

[...]

     iteration # 18     ecut=    60.00 Ry     beta= 0.50
     Davidson diagonalization with overlap
     c_bands:  2 eigenvalues not converged
     ethr =  4.51E-06,  avg # of iterations = 11.8

[...]

     iteration # 22     ecut=    60.00 Ry     beta= 0.50
     Davidson diagonalization with overlap
     c_bands:  1 eigenvalues not converged
     ethr =  1.38E-07,  avg # of iterations =  5.4

[...]

     total energy              =   -3711.32818439 Ry
     Harris-Foulkes estimate   =   -3711.32818437 Ry
     estimated scf accuracy    <       0.00000004 Ry

     iteration # 35     ecut=    60.00 Ry     beta= 0.50
     Davidson diagonalization with overlap
     ethr =  7.96E-12,  avg # of iterations =  1.6

[...]

     End of self-consistent calculation

          k = 0.0000 0.0000 0.0000 ( 70809 PWs)   bands (ev):

   -41.0033 -38.4096 -38.0218 -35.6489 -22.9420 -22.8118 -22.8094 -22.6835
   -22.6176 -22.5667 -22.4902 -22.4128 -21.0479 -21.0183 -20.9255 -19.4785
   -19.4361 -19.3927 -18.4970 -18.3928 -18.0250 -16.9969 -16.8617 -16.6786
   -16.0272 -15.5241 -15.4079 -15.3229 -14.9806 -14.9212 -14.8759 -14.7900
   -14.7760 -14.7540 -14.6541 -14.5526 -14.4757 -14.4493 -14.4388 -14.3105
   -14.2632 -14.0975 -14.0282 -13.9889 -13.9823 -13.9766 -13.9634 -13.9633
   -13.8836 -13.8134 -13.6934 -13.6816 -13.5494 -13.4560  -8.2744  -8.1855
    -8.0498  -7.9413  -7.9207  -7.8613  -7.8274  -7.8140  -7.7638  -7.7402
    -7.7397  -7.7231  -7.6942  -7.6916  -7.6268  -7.6042  -7.5580  -7.5465
    -7.4851  -7.4599  -7.4417  -7.3724  -7.3050  -7.2185  -3.4253  -2.9798
    -2.8095  -2.7562  -2.6393  -2.5800  -2.3435  -2.1842  -2.1686  -2.1431
    -2.1075  -2.1034  -2.0812  -2.0568  -2.0370  -1.8801  -1.8325  -1.8078
    -1.7942  -1.6598  -1.6260  -1.5536  -1.5255  -1.4884  -1.4585  -1.4269
    -1.3297  -1.3250  -1.3087  -1.2515  -1.1474  -1.1369  -1.1001  -1.0519
    -1.0475  -1.0046  -0.9165  -0.9151  -0.9097  -0.9083  -0.9002  -0.8719
    -0.8672  -0.8660  -0.7579  -0.7482  -0.6896  -0.6516  -0.6299  -0.6273
    -0.5839  -0.5724  -0.4564  -0.3155  -0.2962  -0.2628  -0.2547  -0.2501
    -0.2166  -0.1934  -0.1814  -0.1540  -0.1310  -0.1265  -0.0860  -0.0338
    -0.0053   0.0093   0.0331   0.0529   0.0593   0.0618   0.0620   0.0727
     0.1176   0.1378   0.1818   0.1826   0.2651   0.2780   0.2788   0.2858
     0.3173   0.3178   0.3242   0.3310   0.3879   0.4192   0.4201   0.4318
     0.4327   0.4535   0.5170   0.5326   0.5884   0.5979   0.6028   0.6147
     0.6200   0.6318   0.6697   0.7795   0.8125   0.8204   0.9118   0.9991
     1.0467   1.0959   1.1001   1.1127   1.1140   1.1347   1.1669   1.2445
     1.2483   1.2655   1.2709   1.2941   1.3081   1.3220   1.3510   1.4013
     1.4101   1.4636   1.4881   1.4975   1.5574   1.6485   1.6590   1.6939
     1.7014   1.7308   1.7330   1.7733   1.8074   1.8480   1.8568   1.8588
     1.8936   1.9855   2.0001   2.0897   2.1169   2.1321   2.1377   2.1538
     2.2210   2.3120   2.3133   2.3229   2.3452   2.4061   2.4224   2.4813
     2.5505   2.6286   2.6409   2.7077   2.9330   2.9611   3.4314   4.7282
     4.9748   5.2818   5.2927   5.5991   5.6293   5.6874   5.8868   6.1288
     6.5450   6.6812   6.7287   6.8901   7.0135   7.0427   7.1351   7.3345
     7.3838   7.4204   7.4287   7.4505   7.4727   7.6822   7.8678   8.0398
     8.0738   8.1039   8.1397   8.1986   8.2050   8.3765   8.5027   8.5611
     8.6100   8.7262

[...]

          k = 0.3750-1.0472 0.0000 ( 70750 PWs)   bands (ev):

[...]

          k =-0.5000 0.0000 0.0000 ( 70848 PWs)   bands (ev):

[...]

          k =-0.5000-1.0472 0.0000 ( 70756 PWs)   bands (ev):

   -40.9891 -38.4003 -38.0034 -35.6373 -22.7537 -22.7005 -22.6089 -22.5793
   -22.4042 -22.3944 -22.3846 -22.2972 -21.2603 -21.0181 -20.9116 -19.5804
   -19.4703 -19.3707 -18.6653 -18.3227 -18.2021 -17.0699 -16.8931 -16.7889
   -15.5814 -15.3155 -15.2885 -14.9680 -14.7219 -14.6570 -14.5873 -14.5846
   -14.4972 -14.4225 -14.3760 -14.3166 -14.2852 -14.2372 -14.2304 -14.2147
   -14.1136 -14.0895 -14.0365 -14.0266 -14.0258 -14.0020 -13.8648 -13.8640
   -13.8593 -13.8463 -13.8458 -13.8123 -13.8056 -13.7917  -8.5455  -8.4088
    -8.3942  -8.3435  -8.2888  -8.2143  -8.1897  -8.1768  -8.1506  -8.1171
    -8.0794  -8.0689  -8.0543  -8.0456  -7.9668  -7.9642  -7.8905  -7.8762
    -7.8490  -7.8054  -7.7121  -7.6828  -7.6450  -7.6276  -4.2405  -3.9405
    -3.7784  -3.5582  -3.3763  -3.3549  -3.2447  -3.2095  -3.1933  -3.1418
    -2.9917  -2.9910  -2.9672  -2.9593  -2.6654  -2.6145  -2.5164  -2.4351
    -2.3341  -2.2246  -2.2016  -2.1870  -2.1606  -2.1342  -2.0804  -2.0453
    -2.0021  -1.9577  -1.9245  -1.8925  -1.8031  -1.8025  -1.7521  -1.7115
    -1.6107  -1.6030  -1.5160  -1.5020  -1.4499  -1.4388  -1.4271  -1.4147
    -1.3232  -1.1630  -1.1270  -1.1221  -1.0989  -1.0283  -1.0237  -1.0125
    -0.9162  -0.9095  -0.8724  -0.8319  -0.7687  -0.7640  -0.7620  -0.6975
    -0.6682  -0.6670  -0.6545  -0.6505  -0.6439  -0.5646  -0.5251  -0.5099
    -0.4975  -0.4115  -0.2956  -0.2711  -0.2144  -0.1988  -0.1378   0.1023
     0.1126   0.2736   0.2850   0.3738   0.4143   0.4875   0.4996   0.5013
     0.5522   0.5993   0.6173   0.7560   0.7708   0.7730   0.8317   0.9395
     1.0061   1.0501   1.0643   1.1093   1.1447   1.1912   1.2192   1.2353
     1.2697   1.2771   1.3176   1.3295   1.3383   1.3703   1.3936   1.3976
     1.4217   1.4312   1.4455   1.4535   1.5129   1.5146   1.5203   1.5288
     1.5908   1.6488   1.6757   1.7203   1.7328   1.7710   1.8004   1.8407
     1.8471   1.8491   1.8978   1.9054   1.9557   1.9651   1.9822   1.9864
     2.0300   2.0790   2.0842   2.1394   2.2038   2.2578   2.2619   2.2674
     2.2683   2.4882   2.5297   2.6057   2.6146   2.6200   2.6408   2.7304
     2.7763   2.7913   2.8506   2.8625   3.2781   3.3034   3.5469   3.6324
     3.7031   3.7311   3.8016   3.8870   4.0291   4.0388   4.4712   4.5559
     5.6930   5.7792   5.9481   5.9989   6.0890   6.2478   6.6955   6.7894
     6.8370   6.8970   6.9956   7.0558   7.2690   7.4487   7.4998   7.6747
     8.0958   8.3097   8.3140   8.4005   8.4672   8.8558   9.0575   9.0687
     9.1362   9.1761   9.2912   9.4608   9.5213   9.5290   9.6363   9.6468
     9.6916   9.6924

     the Fermi energy is     2.7860 ev

!    total energy              =   -3711.32818439 Ry
     Harris-Foulkes estimate   =   -3711.32818439 Ry
     estimated scf accuracy    <          8.9E-09 Ry

     The total energy is the sum of the following terms:

     one-electron contribution =  -62132.95346094 Ry
     hartree contribution      =   31370.92245569 Ry
     xc contribution           =   -1263.52428092 Ry
     ewald contribution        =   28314.24044657 Ry
     smearing contrib. (-TS)   =      -0.01334479 Ry

     convergence has been achieved in  35 iterations

     negative rho (up, down):  9.129E-02 0.000E+00

     Forces acting on atoms (cartesian axes, Ry/au):

     atom    1 type  4   force =    -0.00000647    0.00000000   -0.00011343
     atom    2 type  4   force =     0.00000647    0.00000000   -0.00011343
     atom    3 type  3   force =    -0.00001967    0.00000000   -0.00007039
     atom    4 type  3   force =     0.00001967    0.00000000   -0.00007039
     atom    5 type  4   force =     0.00000022    0.00000000   -0.00003857
     atom    6 type  4   force =    -0.00000022    0.00000000   -0.00003857
     atom    7 type  1   force =     0.00000000    0.00000000   -0.00010312
     atom    8 type  1   force =     0.00000000    0.00000000   -0.00009425
     atom    9 type  3   force =     0.00001234    0.00000000   -0.00003580
     atom   10 type  3   force =    -0.00001234    0.00000000   -0.00003580
     atom   11 type  4   force =     0.00000000    0.00000000    0.00010168
     atom   12 type  4   force =    -0.00000686    0.00000000    0.00002646
     atom   13 type  4   force =     0.00000686    0.00000000    0.00002646
     atom   14 type  4   force =     0.00000000    0.00000000    0.00014189
     atom   15 type  2   force =     0.00000000    0.00000000   -0.00040352
     atom   16 type  5   force =     0.00000000    0.00000000   -0.00062771
     atom   17 type  4   force =     0.00008200    0.00000000    0.00066605
     atom   18 type  4   force =    -0.00008200    0.00000000    0.00066605
     atom   19 type  4   force =     0.00000000    0.00000000    0.00073112
     atom   20 type  4   force =     0.00000000    0.00000000    0.00094767
     atom   21 type  3   force =    -0.00003628    0.00000000   -0.00109455
     atom   22 type  3   force =     0.00003628    0.00000000   -0.00109455
     atom   23 type  1   force =     0.00000000    0.00000000   -0.00183574
     atom   24 type  1   force =     0.00000000    0.00000000   -0.00193875
     atom   25 type  4   force =    -0.00018236    0.00000000    0.00357668
     atom   26 type  4   force =     0.00018236    0.00000000    0.00357668
     atom   27 type  4   force =    -0.00008547    0.00000000    0.00439624
     atom   28 type  4   force =     0.00008547    0.00000000    0.00439624
     atom   29 type  3   force =     0.00150839    0.00000000   -0.00826933
     atom   30 type  3   force =    -0.00150839    0.00000000   -0.00826933
     atom   31 type  4   force =     0.00018068    0.00000000    0.01187512
     atom   32 type  4   force =    -0.00018068    0.00000000    0.01187512
     atom   33 type  1   force =     0.00000000    0.00000000   -0.02293991
     atom   34 type  1   force =     0.00000000    0.00000000   -0.01628596
     atom   35 type  3   force =    -0.00297396    0.00000000    0.00490815
     atom   36 type  3   force =     0.00297396    0.00000000    0.00490815
     atom   37 type  4   force =     0.00000000    0.00000000    0.05244060
     atom   38 type  4   force =     0.00000000    0.00000000    0.08056175
     atom   39 type  4   force =     0.02035499    0.00000000    0.06733951
     atom   40 type  4   force =    -0.02035499    0.00000000    0.06733951
     atom   41 type  5   force =     0.00000000    0.00000000   -0.07426297
     atom   42 type  2   force =     0.00000000    0.00000000   -0.03291696
     atom   43 type  4   force =     0.00000000    0.00000000   -0.02013359
     atom   44 type  4   force =    -0.00102299    0.00000000   -0.01703997
     atom   45 type  4   force =     0.00102299    0.00000000   -0.01703997
     atom   46 type  4   force =     0.00000000    0.00000000   -0.00255137
     atom   47 type  3   force =     0.00116883    0.00000000   -0.02146002
     atom   48 type  3   force =    -0.00116883    0.00000000   -0.02146002
     atom   49 type  1   force =     0.00000000    0.00000000   -0.02121738
     atom   50 type  1   force =     0.00000000    0.00000000   -0.02671686
     atom   51 type  4   force =     0.00062581    0.00000000   -0.00119276
     atom   52 type  4   force =    -0.00062581    0.00000000   -0.00119276
     atom   53 type  3   force =    -0.00014594    0.00000000    0.00001566
     atom   54 type  3   force =     0.00014594    0.00000000    0.00001566
     atom   55 type  4   force =     0.00004131    0.00000000    0.00006261
     atom   56 type  4   force =    -0.00004131    0.00000000    0.00006261

     Total force =     0.173725     Total SCF correction =     0.000389

     Computing stress (Cartesian axis) and pressure

     negative rho (up, down):  9.129E-02 0.000E+00
          total   stress  (Ry/bohr**3)                   (kbar)     P=       -9.13
  -0.00000906   0.00000000   0.00000000           -1.33        0.00        0.00
   0.00000000   0.00001216   0.00000000            0.00        1.79        0.00
   0.00000000   0.00000000  -0.00018926            0.00        0.00      -27.84

     General routines

     Parallel routines

   This run was terminated on:   0:32:53  28May2021

   JOB DONE.
[1622176373.481898] [holy7c06501:116479:0]          mpool.c:43   UCX  WARN  object 0x327b800 was not returned to mpool ucp_requests
[1622176373.476087] [holy7c06409:248572:0]          mpool.c:43   UCX  WARN  object 0x2c14180 was not returned to mpool ucp_requests
[1622176373.484292] [holy7c06406:147180:0]          mpool.c:43   UCX  WARN  object 0x3351ac0 was not returned to mpool ucp_requests
[1622176373.484310] [holy7c06406:147180:0]          mpool.c:43   UCX  WARN  object 0x3352000 was not returned to mpool ucp_requests
[1622176373.487186] [holy7c06405:88621:0]          mpool.c:43   UCX  WARN  object 0x2ea20c0 was not returned to mpool ucp_requests
[1622176373.487214] [holy7c06405:88621:0]          mpool.c:43   UCX  WARN  object 0x2ea2440 was not returned to mpool ucp_requests
[1622176373.489800] [holy7c06405:88625:0]          mpool.c:43   UCX  WARN  object 0x2e501c0 was not returned to mpool ucp_requests
[1622176373.491742] [holy7c06405:88619:0]          mpool.c:43   UCX  WARN  object 0x30db800 was not returned to mpool ucp_requests
[1622176373.489603] [holy7c06405:88620:0]          mpool.c:43   UCX  WARN  object 0x3a7c6c0 was not returned to mpool ucp_requests
[1622176373.489303] [holy7c06405:88624:0]          mpool.c:43   UCX  WARN  object 0x3f31480 was not returned to mpool ucp_requests
[1622176373.489332] [holy7c06405:88624:0]          mpool.c:43   UCX  WARN  object 0x3f31800 was not returned to mpool ucp_requests
[1622176373.476034] [holy7c06409:248570:0]          mpool.c:43   UCX  WARN  object 0x2965340 was not returned to mpool ucp_requests
[1622176373.476053] [holy7c06409:248570:0]          mpool.c:43   UCX  WARN  object 0x2965880 was not returned to mpool ucp_requests
[1622176373.476055] [holy7c06409:248570:0]          mpool.c:43   UCX  WARN  object 0x2965a40 was not returned to mpool ucp_requests
[1622176373.486052] [holy7c06406:147178:0]          mpool.c:43   UCX  WARN  object 0x2bcc480 was not returned to mpool ucp_requests
[1622176373.486758] [holy7c06406:147182:0]          mpool.c:43   UCX  WARN  object 0x3aea340 was not returned to mpool ucp_requests
[1622176373.485150] [holy7c06406:147175:0]          mpool.c:43   UCX  WARN  object 0x47c17c0 was not returned to mpool ucp_requests
[1622176373.485167] [holy7c06406:147175:0]          mpool.c:43   UCX  WARN  object 0x47c1980 was not returned to mpool ucp_requests
[1622176373.485169] [holy7c06406:147175:0]          mpool.c:43   UCX  WARN  object 0x47c1b40 was not returned to mpool ucp_requests
[1622176373.480637] [holy7c06406:147183:0]          mpool.c:43   UCX  WARN  object 0x2e741c0 was not returned to mpool ucp_requests